********************************************************************************
Field Output Report, written Wed Aug  9 21:38:45 2023

Source 1
---------

   ODB: D:/temp/ellipse_1hole.odb
   Step: Step-1
   Frame: Increment      1: Step Time =    1.000

Loc 1 : Nodal values from source 1

Output sorted by column "Node Label".

Field Output reported at nodes for part: ELLIPSE_1HOLE-1
   Computation algorithm: EXTRAPOLATE_COMPUTE_AVERAGE
   Averaged at nodes
   Averaging regions: ODB_REGIONS

      Node Label         S.Mises           S.S11           S.S22           S.S12
                          @Loc 1          @Loc 1          @Loc 1          @Loc 1
---------------------------------------------------------------------------------
               1         6.41482    -283.539E-03         6.26786    -43.4366E-03
               2         12.3744     264.891E-03         12.5047    -11.2349E-03
               3         17.6779         2.28861         18.7108     8.24846E-03
               4         22.6208         5.46663         24.8531     13.9585E-03
               5         27.4028         9.51862         30.8928     19.8891E-03
               6         34.5441         16.6323         39.7139     31.5817E-03
               7         39.3261         21.7175         45.3957     28.7218E-03
               8         44.1112         26.8839         50.9085     22.1641E-03
               9         48.8353         31.9552         56.2148     21.7246E-03
              10         53.4446         36.8044         61.3021     22.4272E-03
              11         57.8679         41.3049         66.1401     20.4657E-03
              12         62.0584         45.3564         70.7235     16.9923E-03
              13         65.9598         48.8454         75.0319     24.7981E-03
              14         69.5204         51.7001         79.0329     15.5150E-03
              15         72.7197         53.8348         82.7252     9.39586E-03
              16         75.5404         55.1887         86.0922     4.40581E-03
              17         77.9859         55.7428         89.1197    -1.11103E-03
              18         80.9996         55.1412         92.9963    -11.7642E-03
              19         82.6227         53.9434         95.1193    -11.6968E-03
              20         83.9775         52.3226         96.8648    -14.6691E-03
              21         85.0808         50.5410         98.2290    -17.2741E-03
              22         85.9167         48.9175         99.2049    -16.2646E-03
              23         86.4518         47.7523         99.7952    -9.93177E-03
              24         86.6375         47.2706         99.9908    -3.36999E-03
              25         86.4521         47.5686         99.7901     4.44572E-03
              26         85.9217         48.5697         99.2066     9.89997E-03
              27         85.0748         50.0705         98.2297     12.3443E-03
              28         83.9539         51.7794         96.8646     13.9868E-03
              29         82.5796         53.3825         95.1172     13.8137E-03
              30         80.0176         55.0056         91.7959     9.28832E-03
              31         77.9253         55.3062         89.1207     8.00864E-03
              32         75.4874         54.8545         86.0923     736.943E-06
              33         72.6819         53.6056         82.7268    -4.40747E-03
              34         69.5000         51.5806         79.0334    -9.67957E-03
              35         65.9560         48.8427         75.0275    -9.23241E-03
              36         62.0720         45.4432         70.7228    -14.7427E-03
              37         57.8947         41.4657         66.1448    -28.3490E-03
              38         53.4681         37.0199         61.2999    -22.1907E-03
              39         48.8561         32.2132         56.2146    -22.0423E-03
              40         44.1205         27.1609         50.9078    -24.7239E-03
              41         39.3234         22.0013         45.3996    -27.1378E-03
              42         32.1252         14.4120         36.8074    -26.1983E-03
              43         27.3578         9.73003         30.8927    -22.3440E-03
              44         22.5762         5.62140         24.8558    -16.1760E-03
              45         17.6531         2.37183         18.7191    -7.27808E-03
              46         12.3550     311.919E-03         12.5080     9.48518E-03
              47         6.40476    -260.074E-03         6.27033     39.8621E-03
              48         1.53905     861.256E-03     864.995E-03    -735.683E-03
              49         1.61976     973.238E-03     833.568E-03     773.057E-03
              50         6.41490         6.26791    -283.598E-03     43.4737E-03
              51         12.3756         12.5047     262.401E-03     11.4084E-03
              52         17.6827         18.7107         2.27672    -7.35864E-03
              53         22.6297         24.8531         5.43766    -13.2433E-03
              54         27.4129         30.8925         9.47102    -18.7379E-03
              55         34.5473         39.7125         16.5855    -29.6075E-03
              56         39.3244         45.3939         21.7196    -25.9575E-03
              57         44.1137         50.9065         27.0070    -20.1310E-03
              58         48.8622         56.2122         32.3072    -19.9708E-03
              59         53.5305         61.2986         37.5322    -20.9366E-03
              60         58.0615         66.1354         42.5925    -19.1128E-03
              61         62.4250         70.7187         47.4436    -16.4508E-03
              62         66.5714         75.0230         52.0172    -26.3909E-03
              63         70.4647         79.0255         56.2905    -18.0825E-03
              64         74.0777         82.7182         60.2213    -14.2049E-03
              65         77.3839         86.0851         63.7857    -12.7586E-03
              66         80.3628         89.1125         66.9703    -11.9984E-03
              67         84.1834         92.9930         71.0134    -10.0568E-03
              68         86.2765         95.1174         73.2129    -10.2110E-03
              69         88.0027         96.8700         75.0176    -6.73617E-03
              70         89.3499         98.2412         76.4135    -5.26969E-03
              71         90.3147         99.2248         77.4077    -3.49974E-03
              72         90.8941         99.8142         78.0067    -3.89004E-03
              73         91.0878         100.011         78.2068    -184.246E-06
              74         90.8938         99.8173         77.9990     489.473E-06
              75         90.3141         99.2241         77.4072     225.317E-06
              76         89.3492         98.2400         76.4139     2.14315E-03
              77         88.0021         96.8697         75.0161     4.23030E-03
              78         86.2774         95.1176         73.2154     6.59851E-03
              79         82.9959         91.7883         69.7585     10.5949E-03
              80         80.3633         89.1146         66.9673     8.08592E-03
              81         77.3828         86.0846         63.7829     9.96929E-03
              82         74.0764         82.7186         60.2151     12.8163E-03
              83         70.4619         79.0247         56.2813     15.4494E-03
              84         66.5709         75.0217         52.0193     13.3101E-03
              85         62.4236         70.7175         47.4411     16.2945E-03
              86         58.0632         66.1383         42.5885     29.2530E-03
              87         53.5267         61.2959         37.5193     22.0151E-03
              88         48.8608         56.2116         32.2967     21.4528E-03
              89         44.1124         50.9054         26.9947     23.3995E-03
              90         39.3280         45.3977         21.7115     25.4343E-03
              91         32.1650         36.8067         14.0978     24.2967E-03
              92         27.4148         30.8929         9.46385     19.9140E-03
              93         22.6366         24.8566         5.42615     14.5512E-03
              94         17.7059         18.7223         2.24719     6.65648E-03
              95         12.3990         12.5154     236.306E-03    -10.2475E-03
              96         6.42533         6.27520    -289.547E-03    -41.5955E-03
              97         1.53904     864.999E-03     861.259E-03     735.676E-03
              98         6.40500    -260.328E-03         6.27047    -37.7299E-03
              99         12.3541     312.946E-03         12.5076    -6.86884E-03
             100         17.6506         2.37363         18.7173     10.4237E-03
             101         22.5754         5.62069         24.8547     18.6006E-03
             102         27.3573         9.72881         30.8920     24.7849E-03
             103         34.5213         16.8977         39.7149     33.6420E-03
             104         39.3197         21.9997         45.3953     31.4528E-03
             105         44.1221         27.1689         50.9093     25.2573E-03
             106         48.8581         32.2208         56.2162     25.6115E-03
             107         53.4719         37.0302         61.3031     24.7337E-03
             108         57.8922         41.4710         66.1406     21.2135E-03
             109         62.0728         45.4449         70.7236     16.4786E-03
             110         65.9587         48.8399         75.0316     23.0339E-03
             111         69.5009         51.5883         79.0329     14.5361E-03
             112         72.6818         53.6104         82.7256     8.72146E-03
             113         75.4876         54.8538         86.0927     3.79109E-03
             114         77.9247         55.3084         89.1196    -1.46216E-03
             115         80.9430         54.6000         92.9955    -11.3526E-03
             116         82.5799         53.3752         95.1182    -10.9731E-03
             117         83.9531         51.7742         96.8639    -13.5155E-03
             118         85.0734         50.0654         98.2281    -15.4081E-03
             119         85.9196         48.5660         99.2041    -13.6574E-03
             120         86.4561         47.5653         99.7945    -7.45243E-03
             121         86.6375         47.2710         99.9908    -670.731E-06
             122         86.4478         47.7568         99.7908     8.34288E-03
             123         85.9189         48.9226         99.2075     12.5776E-03
             124         85.0822         50.5472         98.2306     14.2573E-03
             125         83.9784         52.3283         96.8655     15.4191E-03
             126         82.6224         53.9511         95.1181     14.7825E-03
             127         80.0781         55.5185         91.7966     9.65495E-03
             128         77.9865         55.7398         89.1210     7.96525E-03
             129         75.5403         55.1878         86.0923     564.631E-06
             130         72.7198         53.8286         82.7267    -4.69697E-03
             131         69.5193         51.6920         79.0332    -10.0129E-03
             132         65.9568         48.8486         75.0273    -9.57900E-03
             133         62.0575         45.3547         70.7225    -15.0336E-03
             134         57.8703         41.2982         66.1443    -28.5313E-03
             135         53.4411         36.7916         61.2996    -22.0755E-03
             136         48.8339         31.9435         56.2143    -21.9648E-03
             137         44.1099         26.8701         50.9074    -24.4059E-03
             138         39.3294         21.7093         45.3992    -26.6752E-03
             139         32.1582         14.1525         36.8072    -25.7168E-03
             140         27.4043         9.51152         30.8928    -21.6147E-03
             141         22.6280         5.45493         24.8568    -15.1291E-03
             142         17.7012         2.25896         18.7222    -6.84404E-03
             143         12.3977     238.762E-03         12.5153     10.2056E-03
             144         6.42523    -289.479E-03         6.27514     41.6108E-03
             145         1.61941     972.553E-03     833.058E-03    -773.053E-03
             146         7.05536         6.89986    -300.774E-03     34.2753E-03
             147         13.6127         13.7584     296.276E-03     12.1560E-03
             148         19.5259         20.5941         2.34879    -3.64831E-03
             149         25.0192         27.3430         5.59487    -14.5005E-03
             150         30.3185         33.9821         9.70252    -22.3233E-03
             151         38.1517         43.6838         16.9074    -29.0227E-03
             152         43.3402         49.9350         22.0964    -25.9295E-03
             153         48.4982         55.9970         27.4293    -22.5628E-03
             154         53.5813         61.8333         32.7701    -22.8743E-03
             155         58.5512         67.4253         38.0264    -21.4083E-03
             156         63.3641         72.7512         43.1176    -19.6794E-03
             157         67.9800         77.7920         47.9830    -25.2360E-03
             158         72.3582         82.5236         52.5801    -26.3334E-03
             159         76.4651         86.9271         56.8677    -18.1146E-03
             160         80.2736         90.9894         60.8097    -14.4338E-03
             161         83.7578         94.6930         64.3848    -13.0156E-03
             162         86.8972         98.0229         67.5787    -12.1798E-03
             163         90.9255         102.291         71.6346    -10.0973E-03
             164         93.1326         104.628         73.8410    -10.3545E-03
             165         94.9541         106.556         75.6526    -6.80905E-03
             166         96.3765         108.064         77.0546    -5.14245E-03
             167         97.3956         109.145         78.0556    -3.91427E-03
             168         98.0079         109.794         78.6550    -1.59352E-03
             169         98.2122         110.013         78.8502    -348.906E-06
             170         98.0086         109.797         78.6493     485.042E-06
             171         97.3952         109.145         78.0522     623.032E-06
             172         96.3759         108.064         77.0531     2.62170E-03
             173         94.9535         106.556         75.6497     4.89048E-03
             174         93.1334         104.629         73.8427     7.06306E-03
             175         89.6734         100.966         70.3751     10.9777E-03
             176         86.8981         98.0251         67.5757     8.23498E-03
             177         83.7569         94.6924         64.3821     10.0651E-03
             178         80.2728         90.9896         60.8046     12.5230E-03
             179         76.4641         86.9267         56.8635     13.8421E-03
             180         72.3564         82.5209         52.5818     15.8826E-03
             181         67.9786         77.7903         47.9832     23.3256E-03
             182         63.3644         72.7522         43.1120     27.0695E-03
             183         58.5505         67.4253         38.0180     22.1735E-03
             184         53.5807         61.8329         32.7637     21.9953E-03
             185         48.4975         55.9961         27.4229     24.2798E-03
             186         43.3426         49.9374         22.0933     27.3653E-03
             187         35.5489         40.4876         14.3884     33.9181E-03
             188         30.3170         33.9806         9.70271     27.0392E-03
             189         25.0194         27.3423         5.59223     18.3764E-03
             190         19.5282         20.5949         2.34522     7.36932E-03
             191         13.6189         13.7609     288.512E-03    -7.08321E-03
             192         7.05831         6.90153    -303.251E-03    -31.6017E-03
             193         144.914         45.7359         159.964        -14.5599
             194         138.619         38.0755         146.089        -25.7261
             195         119.292         38.2899         106.372        -42.9045
             196         109.877         43.2931         90.1581        -44.6224
             197         94.8643         53.9921         66.0029        -41.9974
             198         85.4002         62.9564         51.0073        -36.2362
             199         79.0617         73.2637         38.5586        -27.2113
             200         78.1918         78.6729         34.1314        -21.9454
             201         79.4743         85.2898         30.7097        -15.4699
             202         82.0517         90.5424         29.4697        -10.5570
             203         83.8886         93.3949         29.2944        -8.00986
             204         84.7660         94.6416         29.3155        -6.91149
             205         86.3597         96.7791         29.4840        -5.03101
             206         87.0511         97.6691         29.6006        -4.22361
             207         88.1872         99.0953         29.8419        -2.81373
             208         88.9633         100.049         30.0394        -1.60688
             209         89.2089         100.348         30.1071        -1.05411
             210         89.4061         100.587         30.1633    -194.147E-06
             211         89.2092         100.348         30.1078         1.05320
             212         88.9635         100.049         30.0406         1.60518
             213         88.1874         99.0963         29.8437         2.81043
             214         87.0501         97.6688         29.6027         4.22159
             215         86.3602         96.7809         29.4890         5.03030
             216         84.7596         94.6334         29.3290         6.92841
             217         83.9029         93.4039         29.2828         8.02197
             218         82.0589         90.5479         29.4608         10.5580
             219         79.4803         85.2970         30.6997         15.4668
             220         78.1943         78.6784         34.1238         21.9426
             221         79.0622         73.2683         38.5577         27.2087
             222         85.3160         62.8950         51.1348         36.1680
             223         94.9164         53.8122         66.3042         41.9725
             224         110.070         43.1161         90.4932         44.6060
             225         119.611         37.9833         107.180         42.6133
             226         138.283         37.6442         145.217         26.3512
             227         144.800         45.5666         159.733         14.7687
             228         148.258         48.8039         165.984         7.03340
             229         148.926         37.9557         164.149        -2.79213
             230         142.952         25.7298         149.861        -19.7277
             231         112.989         30.5710         93.7575        -44.3764
             232         103.381         36.6892         79.4611        -44.5078
             233         88.9191         47.8043         59.0497        -40.6501
             234         79.8379         56.4567         46.2358        -34.9252
             235         74.8381         63.4235         38.2606        -29.1029
             236         72.6926         69.1120         33.2901        -23.8066
             237         72.4049         73.8621         30.2599        -19.2029
             238         73.8549         79.6703         27.9314        -13.5688
             239         76.1428         84.1934         27.1138        -9.25288
             240         77.6640         86.5730         27.0070        -6.96448
             241         79.5689         89.2379         27.1298        -4.19463
             242         80.7939         90.8368         27.3186        -1.96323
             243         81.2147         91.3708         27.4000    -25.1085E-06
             244         80.7945         90.8377         27.3194         1.96179
             245         79.5690         89.2391         27.1319         4.19101
             246         77.6525         86.5585         27.0080         6.97300
             247         76.1521         84.1968         27.1077         9.26642
             248         73.8590         79.6747         27.9263         13.5675
             249         72.4033         73.8562         30.2667         19.2078
             250         72.6891         69.1006         33.2985         23.8116
             251         74.8456         63.4434         38.2704         29.0986
             252         79.7610         56.3645         46.2886         34.8867
             253         88.9555         47.4363         59.2157         40.6831
             254         103.655         36.5815         79.5471         44.6779
             255         113.211         30.4198         93.8967         44.4640
             256         144.991         24.1939         151.717         19.0570
             257         148.881         37.0978         163.804         3.30981
             258         148.154         48.5096         165.818        -6.93121
             259         74.5826         74.1803         40.2114         21.8005
             260         74.5874         71.3873         43.0626        -23.7126
             261         7.87902         8.03936         7.53046     652.515E-03
             262         12.4054         8.68051         13.7877         1.64562
             263         18.8030         12.2014         20.6002         3.24851
             264         23.4746         12.9566         26.2642         3.35008
             265         28.3339         15.8144         31.8291         3.78506
             266         33.3628         19.7388         37.4423         4.49416
             267         39.3173         24.8201         43.9017         5.54061
             268         43.6425         27.8705         49.4807         4.42031
             269         47.9018         31.5528         54.4535         4.16246
             270         52.0994         35.2531         59.2233         4.16220
             271         56.5099         38.9768         64.1896         4.31168
             272         62.0052         43.6354         70.6700         3.16518
             273         65.7336         45.9503         74.9674         3.37344
             274         69.2809         48.6696         79.1894         2.18099
             275         72.2898         50.4493         82.7631         1.44884
             276         74.9591         51.4401         85.9883     825.737E-03
             277         77.3413         51.7924         88.9021     185.535E-03
             278         79.4888         51.6090         91.5328    -460.997E-03
             279         81.5246         50.7325         94.0107        -1.13589
             280         83.3032         50.3909         96.1177        -1.29463
             281         84.6670         49.2234         97.7217        -1.43998
             282         85.8016         48.0406         99.0240        -1.34459
             283         86.6366         47.0783         99.9647    -958.272E-03
             284         86.9239         46.7813         100.296    -42.1424E-03
             285         86.8659         46.7537         100.219     726.209E-03
             286         86.0550         47.7378         99.3176         1.12375
             287         85.0579         48.8313         98.1809         1.31215
             288         83.7872         49.9166         96.6944         1.35101
             289         82.2277         50.8435         94.8366         1.17880
             290         80.3775         51.4735         92.6066     781.069E-03
             291         78.0186         51.5060         89.7623     138.211E-03
             292         75.7896         51.8445         86.9746    -510.826E-03
             293         73.1820         50.9694         83.8194        -1.19298
             294         70.1905         49.4771         80.2299        -1.95146
             295         66.7965         47.3714         76.1774        -2.78974
             296         61.7866         43.9759         70.3428        -3.10802
             297         57.8022         40.6775         65.4992        -4.49570
             298         53.4065         37.0469         60.5974        -4.19043
             299         49.1032         33.3151         55.6937        -4.27717
             300         44.6793         29.5165         50.5658        -4.49593
             301         40.0692         25.6811         45.2001        -4.61018
             302         35.2787         21.8407         39.6716        -4.47925
             303         27.8209         16.2615         31.1968        -3.81360
             304         22.7433         12.9817         25.4855        -3.16577
             305         17.5810         10.4900         19.6869        -2.44902
             306         12.3652         9.03575         13.6847        -1.59516
             307         7.48181         7.70756         7.12773    -484.370E-03
             308         12.0269         13.6557         6.98788         1.25983
             309         16.3154         15.4667         15.0229         3.34862
             310         22.8041         17.8488         22.8658         5.37684
             311         27.8256         20.1218         28.4927         6.60474
             312         30.6385         20.5187         32.5354         6.49956
             313         35.3508         24.0159         37.2605         7.73341
             314         42.0185         28.3391         45.1205         8.27173
             315         46.5322         31.6781         50.2974         8.66481
             316         49.5956         33.5962         54.7046         7.66555
             317         53.1455         36.3158         58.9078         7.63250
             318         57.4787         39.5311         64.2843         7.06767
             319         62.2034         42.8534         70.1685         6.22332
             320         65.3846         44.8772         74.2342         5.22451
             321         68.4403         46.3914         78.0583         4.47399
             322         71.8271         48.4151         82.3690         2.47376
             323         74.1824         49.1261         85.2798         1.46779
             324         76.4244         49.4053         88.0234     413.868E-03
             325         78.5318         49.3111         90.5525    -619.417E-03
             326         81.3674         49.2562         93.8609        -1.61710
             327         83.5610         47.7534         96.3540        -2.53006
             328         85.0816         47.4542         98.1153        -2.33508
             329         86.5891         46.2292         99.7986        -2.19032
             330         87.4522         45.7637         100.804        -1.32857
             331         88.0075         45.3326         101.432     66.1782E-03
             332         87.6243         45.6874         101.000         1.16164
             333         86.8494         46.0646         100.064         2.41691
             334         85.0978         47.7195         98.1436         2.28672
             335         83.6240         48.5286         96.4502         2.30217
             336         81.8163         49.2262         94.3612         1.97452
             337         79.7879         49.7007         91.9948         1.30520
             338         77.1759         50.2789         88.8586     34.7499E-03
             339         73.7844         49.4435         84.7543        -1.49823
             340         71.7679         49.1055         82.2202        -2.35045
             341         68.6708         47.6690         78.3018        -3.86164
             342         65.7901         46.1865         74.6671        -4.78118
             343         61.5023         43.5314         69.1244        -6.28323
             344         58.1727         41.1931         64.9753        -6.87816
             345         53.4315         38.0178         58.5197        -8.36251
             346         50.0743         35.1324         55.0648        -7.65024
             347         46.2871         32.4123         50.2948        -8.01128
             348         42.1500         29.5347         45.1888        -8.10224
             349         37.6931         26.5454         39.8804        -7.83815
             350         32.9894         23.4843         34.5476        -7.17820
             351         27.8107         21.9907         27.4665        -6.81773
             352         21.4752         17.3143         21.6756        -4.72101
             353         18.1218         16.5772         17.1645        -3.80857
             354         13.8887         15.5035         9.25739        -1.85803
             355         17.2108         19.3692         9.24785         2.20947
             356         19.7344         20.1929         15.4521         4.27969
             357         24.3918         21.4650         22.0989         6.32993
             358         29.1704         23.9790         27.0677         8.00656
             359         35.9095         27.3677         34.5073         9.90133
             360         40.0571         29.5918         39.2937         10.7653
             361         43.7739         31.9693         43.4225         11.5006
             362         46.0224         32.4036         47.7263         10.5951
             363         51.7536         36.5639         54.2966         11.2352
             364         54.3712         37.9628         58.5022         10.2218
             365         59.1108         40.9760         65.2679         8.74781
             366         61.8880         42.8466         68.8831         8.18168
             367         64.8430         44.6347         72.9220         7.06154
             368         67.8120         46.0277         77.1055         5.28046
             369         69.7308         46.8072         79.6876         4.13578
             370         73.1630         47.8506         84.1244         1.96917
             371         75.2648         48.1191         86.7254     631.112E-03
             372         78.4518         47.9858         90.4960        -1.29810
             373         80.7103         47.5981         93.0686        -2.35839
             374         82.7545         46.7635         95.3287        -3.25695
             375         85.8014         45.5876         98.7323        -3.49053
             376         87.5053         44.8556         100.681        -2.86254
             377         88.6064         44.3101         101.954        -1.88496
             378         89.1659         44.1265         102.625     49.5085E-03
             379         89.0660         44.1856         102.458         1.82075
             380         87.3828         45.3885         100.567         2.97075
             381         85.9550         46.1814         98.9265         3.54255
             382         83.4486         47.5838         96.1392         3.23366
             383         81.2824         48.3693         93.6836         2.71051
             384         77.9081         49.1061         89.7963         1.21569
             385         75.6739         49.2595         87.1328    -106.470E-03
             386         73.2614         49.0858         84.1536        -1.49804
             387         70.0139         48.4193         79.9156        -3.67286
             388         67.5423         47.5049         76.5454        -5.23856
             389         65.1311         46.2939         73.2244        -6.50549
             390         61.6816         44.3881         68.3408        -8.11110
             391         58.2558         42.3104         63.4300        -9.38002
             392         55.3570         40.4551         59.3022        -10.1671
             393         51.7829         37.8132         54.8040        -10.3355
             394         48.4488         35.7720         50.1161        -10.7824
             395         44.7648         33.4792         45.2799        -10.7811
             396         38.5192         29.6987         37.6888        -10.0096
             397         33.9177         26.8790         32.6550        -8.93144
             398         30.4723         26.3817         27.3782        -8.27207
             399         25.0119         22.9761         21.9803        -6.31356
             400         23.0216         23.5166         17.6115        -5.19486
             401         19.5751         22.0343         9.79791        -2.41987
             402         22.5467         25.3274         11.9501         2.98528
             403         24.6940         24.8446         18.8562         5.92899
             404         29.8252         28.3325         23.7132         8.09006
             405         35.9601         30.6584         30.9929         10.6900
             406         38.1014         31.3652         33.6999         11.3910
             407         43.6171         34.8902         39.2108         13.1112
             408         47.3561         35.9254         45.1909         13.3323
             409         49.5837         36.3172         49.5051         12.7375
             410         53.2571         39.2235         53.6251         13.2357
             411         55.6044         39.7484         58.5200         11.7387
             412         58.8933         42.2873         62.8518         11.3679
             413         61.0377         43.2577         66.5668         10.0460
             414         63.7773         45.0209         70.7221         8.62209
             415         65.9013         45.8939         74.1004         6.99090
             416         68.4362         46.8856         77.8793         4.88130
             417         71.8042         47.4490         82.4688         2.33759
             418         74.0667         47.6649         85.3198     639.192E-03
             419         76.3726         47.5312         88.0371        -1.58535
             420         79.4904         47.0835         91.5934        -2.89064
             421         83.5748         45.7603         96.0506        -4.48423
             422         86.3961         44.5819         99.1445        -4.73131
             423         90.8053         42.5755         104.203        -1.92859
             424         91.7464         42.1144         105.241    -260.113E-03
             425         91.1430         42.6698         104.570         2.11787
             426         88.9458         44.1543         102.129         3.68990
             427         85.9480         45.8746         98.7077         4.74504
             428         83.0879         47.2480         95.5352         4.40092
             429         80.3324         48.2715         92.4715         3.45952
             430         76.4398         49.2926         87.9713         1.88556
             431         74.5529         49.3561         85.7607     94.8329E-03
             432         68.8992         49.1715         78.2703        -4.15081
             433         66.1194         48.7202         73.9889        -6.54506
             434         64.7476         47.1458         72.1286        -7.47325
             435         62.0847         46.1820         67.6994        -9.39883
             436         58.8275         44.4795         62.2217        -11.2295
             437         56.5302         42.2124         59.6247        -11.1888
             438         54.2059         41.8444         54.5862        -12.8035
             439         51.2396         39.9990         50.1551        -13.1173
             440         47.4207         37.4567         45.2338        -12.8314
             441         45.5692         37.8241         40.7674        -13.2401
             442         39.2838         33.9336         33.8472        -11.4695
             443         35.7251         32.8037         29.0011        -10.1731
             444         32.9188         32.1930         24.8964        -8.73525
             445         27.7142         29.3226         18.6163        -5.98824
             446         25.1450         28.2594         12.5210        -3.20108
             447         27.6662         31.0972         15.2736         3.65437
             448         32.1876         33.9859         21.7455         7.00413
             449         35.7798         33.8628         27.6251         10.0965
             450         38.0102         33.9780         30.9052         11.3320
             451         42.8034         35.8668         36.6520         13.1266
             452         45.6622         37.2384         40.1245         13.9348
             453         50.2754         39.8926         45.8383         14.8734
             454         52.3613         39.9425         50.4287         14.3469
             455         55.0354         41.9335         53.9997         14.3632
             456         57.2830         43.3072         57.8038         13.7582
             457         59.4349         44.4167         61.9174         12.5972
             458         60.8662         44.7204         64.9934         11.3604
             459         63.3417         46.4857         69.3674         9.38091
             460         65.5412         46.9544         73.3597         7.16118
             461         67.0317         47.4404         75.7993         5.56987
             462         69.6185         47.7974         79.6218         3.06791
             463         70.7784         48.1173         81.2094         1.51875
             464         74.4776         47.9050         85.7504        -1.50131
             465         77.9949         47.2510         89.7356        -3.56734
             466         82.9935         45.7500         95.1336        -5.68076
             467         85.1032         44.9348         97.4423        -5.97144
             468         90.9374         42.2679         103.997        -4.59463
             469         92.1848         41.6557         105.464        -3.33596
             470         94.2278         40.6671         107.700        -1.37458
             471         93.7229         41.4179         107.067         3.63353
             472         91.0013         43.2473         103.922         5.93073
             473         87.1260         45.5997         99.4816         7.10278
             474         83.1247         47.6511         95.0017         6.84844
             475         78.7551         49.0328         90.4221         4.30672
             476         75.7322         49.8619         86.9886         2.55269
             477         73.4905         50.0671         84.3616     575.811E-03
             478         69.6911         50.6894         79.3282        -2.27857
             479         67.5381         50.2833         76.1174        -4.71057
             480         65.3158         50.2629         72.2810        -7.03092
             481         64.3041         49.0031         70.6591        -8.23650
             482         61.2072         47.7867         64.6870        -11.0983
             483         57.7172         46.5147         57.0952        -13.7060
             484         55.6898         45.2559         53.4249        -14.3391
             485         52.1639         42.7823         48.2025        -14.4854
             486         51.2950         43.3441         45.2809        -14.8858
             487         49.3314         42.6055         41.9848        -14.6563
             488         43.6416         39.0937         35.4508        -12.9796
             489         39.6790         37.5573         30.3456        -11.2948
             490         36.4672         36.5061         26.0884        -9.46825
             491         33.1442         35.3010         21.3595        -7.07491
             492         30.7527         34.5776         16.0104        -3.97416
             493         35.2029         39.6238         21.0406         4.47954
             494         37.4135         39.6934         25.1905         7.94857
             495         40.5070         39.9353         29.5234         10.8533
             496         43.1212         40.0937         33.1317         12.6832
             497         45.2683         40.0728         36.4071         13.8666
             498         49.8348         42.5075         41.7314         15.3732
             499         51.6858         42.9079         44.9004         15.7148
             500         53.9625         43.7798         48.8185         15.8040
             501         56.0946         44.7192         52.8831         15.4387
             502         57.8211         45.4721         56.5902         14.6787
             503         59.4616         46.7171         59.8393         13.7595
             504         60.8768         47.8142         63.0247         12.3982
             505         62.7025         47.6415         67.7357         10.0134
             506         64.1110         48.0100         70.7032         8.18075
             507         65.4840         48.5384         73.3239         6.18615
             508         67.8780         48.9206         77.2371         3.00601
             509         70.8435         48.7123         81.2687     182.167E-03
             510         73.1790         48.5910         84.0435        -2.20024
             511         76.2096         47.9918         87.4424        -4.28307
             512         81.1584         46.6677         92.6409        -7.06669
             513         84.4089         45.2950         96.4013        -6.98851
             514         92.1419         41.9480         104.748        -7.12489
             515         95.2934         40.2052         108.576        -3.69586
             516         98.4434         38.9256         111.954    -42.0331E-03
             517         95.5894         41.0955         108.633         6.09960
             518         91.4402         43.9470         103.728         8.73578
             519         86.0113         47.0096         97.6162         9.09242
             520         81.1358         49.2738         92.2824         7.87760
             521         77.6816         50.4555         88.5969         6.04043
             522         73.8409         52.0393         84.0573         4.20514
             523         69.8736         52.6409         79.2720     232.799E-03
             524         67.6564         52.5796         76.1105        -2.69700
             525         66.2624         52.3024         73.7902        -4.81578
             526         64.6537         51.9617         70.6670        -7.26251
             527         63.0514         51.5118         67.0203        -9.70635
             528         61.8019         50.5728         64.1788        -11.3820
             529         60.0877         49.8585         59.7739        -13.3164
             530         59.3014         49.8167         57.3280        -14.1933
             531         57.7224         49.3867         52.8906        -15.3569
             532         55.2648         47.3782         48.9728        -15.6142
             533         53.2611         47.0862         44.3522        -15.7151
             534         52.0509         46.6342         42.2656        -15.4832
             535         49.4780         45.7513         38.2140        -14.6392
             536         46.9776         44.9185         34.7268        -13.4555
             537         43.1391         44.1634         29.3076        -10.7388
             538         38.3436         41.1118         24.2692        -7.93317
             539         36.3181         40.9065         19.8544        -4.60581
             540         40.0839         45.2364         25.0369         4.69461
             541         42.1933         45.2748         28.3824         8.36489
             542         44.9236         45.6111         31.7743         11.2163
             543         47.8234         46.1902         35.2219         13.4147
             544         50.1088         46.4296         38.3455         14.8905
             545         51.7772         46.4101         41.1166         15.7547
             546         54.2367         46.9753         45.2974         16.4413
             547         56.0105         47.5921         48.7051         16.5122
             548         57.8659         48.0278         53.3789         15.8762
             549         58.7499         47.9369         56.3421         15.0559
             550         59.7938         49.6652         57.9337         14.4871
             551         60.8235         50.3646         61.3892         12.7294
             552         61.9911         49.8537         65.5892         10.4152
             553         62.9977         50.2221         68.4117         8.20704
             554         64.7241         49.9425         72.1377         5.59286
             555         66.1407         50.1000         74.6605         3.20871
             556         68.5570         50.3115         78.0715    -719.956E-03
             557         71.6761         49.4536         82.0092        -2.70506
             558         74.2724         49.1568         84.7249        -5.36920
             559         78.8196         48.1071         89.3366        -8.46452
             560         86.1377         45.5946         97.0103        -10.8471
             561         93.7804         41.6925         105.984        -8.99278
             562         99.9479         38.6117         113.056        -5.24139
             563         106.231         36.4747         119.650     960.289E-03
             564         103.179         39.0575         115.772         8.92421
             565         94.5519         44.4017         105.712         12.7450
             566         86.4166         48.5473         96.7657         12.1806
             567         79.6570         51.2508         89.6652         9.55962
             568         75.8089         52.7208         85.4431         7.56313
             569         71.9482         53.8123         81.1512         4.55345
             570         68.6204         54.4196         77.0627     881.028E-03
             571         66.5266         54.4723         73.9711        -2.32369
             572         64.5824         54.4098         70.1570        -5.93524
             573         63.7458         53.8027         68.1378        -8.00057
             574         62.6809         53.5133         65.0235        -10.2760
             575         61.9730         54.1731         61.8319        -12.0051
             576         61.1120         53.6963         58.5561        -13.7455
             577         59.8264         52.4725         55.0638        -15.0903
             578         59.2263         52.9874         51.6923        -15.9899
             579         57.2193         51.1696         48.2722        -16.2848
             580         55.4001         50.1544         44.9267        -16.2129
             581         54.8453         51.2869         42.0115        -15.9930
             582         51.6380         49.7677         37.6147        -14.6832
             583         49.5475         49.4588         34.5026        -13.2264
             584         47.3681         49.3597         31.3382        -11.1373
             585         44.1695         48.4644         27.2001        -7.75707
             586         42.2975         47.6250         24.4719        -5.40174
             587         44.7557         50.6359         29.0846         4.68621
             588         46.5351         50.5045         31.4753         8.44120
             589         48.8733         50.5779         34.1347         11.4274
             590         51.3554         50.7948         37.0234         13.7493
             591         53.1392         50.4696         39.7315         15.3105
             592         55.3378         51.0398         42.9434         16.3798
             593         56.5318         50.7828         45.7615         16.8002
             594         59.4074         52.4122         52.1659         16.2793
             595         59.8443         52.4522         54.1434         15.6902
             596         60.3915         51.4017         58.5874         13.9524
             597         60.8767         51.8093         60.8333         12.5539
             598         61.3637         52.0290         63.3111         10.7115
             599         62.0699         52.1359         66.3231         8.03295
             600         63.8068         51.9259         70.8021         3.58378
             601         66.0242         51.5204         74.4266     57.0100E-03
             602         68.8950         51.0255         78.0378        -3.41258
             603         73.5045         49.9909         83.1072        -7.10900
             604         79.0073         48.8506         88.0153        -11.6716
             605         87.0992         45.9949         96.9790        -13.2458
             606         97.5696         41.7571         108.412        -13.5389
             607         107.333         36.9987         119.817        -8.72578
             608         119.981         33.5958         133.142         2.08705
             609         109.008         37.8346         121.278         10.5097
             610         96.9542         46.9471         105.462         18.4846
             611         86.2108         50.9829         94.4701         15.5437
             612         79.6953         53.4707         87.6221         12.9076
             613         74.4492         55.0056         82.3208         9.45973
             614         70.5623         55.6806         78.4678         5.49675
             615         67.4542         55.5438         75.0499     584.481E-03
             616         65.5305         56.4311         71.7578        -1.82317
             617         64.0534         56.6633         68.5154        -5.16575
             618         63.1969         56.5297         65.7095        -8.06302
             619         62.6573         57.0831         62.7326        -10.2151
             620         62.4235         58.1646         58.6992        -12.6779
             621         61.6561         55.7703         57.8196        -13.8162
             622         61.4236         56.0306         55.6702        -14.7591
             623         60.9321         56.5814         51.2157        -16.1872
             624         59.4524         54.8170         48.8373        -16.5502
             625         59.3841         56.2972         45.7517        -16.7290
             626         57.9182         55.8719         42.6217        -16.3054
             627         56.6696         55.8551         40.1157        -15.5247
             628         51.7534         54.2400         34.0269        -11.8915
             629         50.9435         55.6015         32.1971        -9.26046
             630         47.1839         53.6886         27.8516        -4.59924
             631         49.2443         55.7771         33.1796         4.60750
             632         50.4632         55.2832         34.4647         8.32271
             633         52.3068         55.1291         36.2800         11.2640
             634         54.7080         55.8746         38.5558         13.4007
             635         56.2472         55.0379         40.9900         15.3883
             636         58.6293         56.1396         44.1406         16.4862
             637         58.9506         55.2302         45.9658         16.8389
             638         60.1982         56.1618         48.3956         16.7882
             639         60.1003         54.5671         51.2470         16.3770
             640         60.6569         55.3696         53.0173         15.6864
             641         60.6321         53.9667         56.7392         14.2189
             642         60.8761         54.1714         60.0255         11.8317
             643         61.0239         53.9125         62.0048         10.2566
             644         61.0514         54.2571         63.1544         8.59337
             645         61.5058         53.9392         65.8228         5.51684
             646         62.2056         53.6122         67.8964         2.91113
             647         63.6899         53.0257         70.6436    -175.701E-03
             648         67.0563         52.0474         74.9784        -4.77097
             649         70.4986         51.1679         78.4374        -8.42515
             650         76.1167         49.6769         83.6555        -12.6947
             651         85.4891         47.0991         92.5437        -17.1701
             652         98.7834         43.0994         105.683        -20.7078
             653         119.297         35.7868         130.423        -14.2415
             654         142.706         34.6123         156.587         4.72406
             655         119.724         39.4968         129.332         19.6232
             656         100.873         48.0449         107.015         22.7772
             657         88.4493         53.1347         92.2709         21.5163
             658         75.5759         56.5035         80.6837         13.7614
             659         71.0767         57.3862         76.9086         9.26051
             660         68.0807         57.6530         74.3110         4.94082
             661         65.7829         57.9450         71.4748     953.962E-03
             662         64.3006         58.7274         68.5988        -1.68173
             663         63.5249         58.7621         66.5695        -4.57159
             664         62.9804         59.3868         63.8972        -7.10724
             665         62.7924         59.8604         60.8825        -9.95648
             666         62.8774         60.3195         58.0060        -12.2383
             667         62.9156         60.3169         55.6008        -13.9339
             668         62.7702         60.0759         52.9950        -15.3432
             669         62.4714         59.9628         50.2146        -16.2956
             670         61.9981         59.6343         48.3847        -16.6515
             671         62.2823         61.1506         45.9123        -16.7264
             672         60.5418         59.7978         43.2364        -16.3869
             673         60.7177         61.6663         41.3742        -15.5293
             674         58.9170         60.9510         39.1793        -14.2501
             675         57.4669         61.3903         37.1586        -12.0290
             676         54.5873         60.6802         34.4199        -8.19681
             677         52.1436         59.3994         32.0366        -4.73556
             678         53.6288         60.6827         37.2871         4.69084
             679         54.3801         59.0312         37.5633         9.64227
             680         55.9629         59.3688         38.8195         11.6176
             681         58.2847         60.4644         40.7126         13.4822
             682         59.1500         58.7155         42.7244         15.6463
             683         60.4195         59.1861         44.5942         16.3119
             684         60.5758         58.2682         46.1475         16.6693
             685         61.7677         59.7285         47.8265         16.5024
             686         61.7208         58.8501         50.8240         15.8539
             687         61.2136         57.1796         53.3312         15.0868
             688         61.2996         57.7900         54.3776         14.1835
             689         60.9601         57.6731         56.6812         12.1953
             690         60.6488         57.2045         58.4587         10.5295
             691         60.4856         55.9710         61.6900         7.59283
             692         60.6076         55.4476         63.3357         5.75151
             693         60.7540         55.2036         64.6619         3.26709
             694         61.6031         54.4733         66.8523    -107.600E-03
             695         63.6542         53.3674         69.8045        -4.33580
             696         67.9505         51.6608         74.0916        -9.77247
             697         73.4331         49.8923         79.2932        -13.8069
             698         82.6302         46.0026         85.6618        -20.9302
             699         110.793         35.4939         112.586        -27.9008
             700         58.2527         65.6701         41.4622         5.30820
             701         59.0733         65.4639         41.4165         8.16672
             702         60.5654         65.0306         41.9238         11.6607
             703         61.2972         64.0648         42.5739         13.7599
             704         61.8444         62.8988         43.8127         15.3262
             705         62.6015         63.1576         44.9292         15.8014
             706         63.0359         62.7899         46.7275         16.1401
             707         63.1868         62.6940         47.9855         15.9982
             708         63.0146         62.2914         49.7683         15.4258
             709         62.0544         60.0259         51.8912         14.9416
             710         61.7334         60.1757         53.6447         13.4196
             711         61.2298         60.1552         55.0192         11.7334
             712         60.6043         59.5016         56.6226         9.92402
             713         60.0392         58.6413         58.4053         7.73907
             714         59.6474         57.5959         60.4916         4.66746
             715         59.7410         56.7766         61.9950         2.70097
             716         59.8978         56.0839         62.8183        -2.53631
             717         61.9567         54.2277         65.6906        -6.95188
             718         64.8938         52.4449         67.3707        -12.3178
             719         70.3583         49.8132         71.9686        -17.0727
             720         82.5105         44.4335         80.4666        -25.3914
             721         62.3102         70.4669         45.7313         4.00698
             722         62.6996         69.6726         44.2974         8.18577
             723         63.5728         69.3539         44.0669         10.7371
             724         64.9308         69.6758         44.5583         12.6553
             725         64.4764         67.7457         44.5141         14.1640
             726         65.1687         67.7375         45.4657         14.9576
             727         65.7537         68.1549         46.6007         15.0876
             728         65.0282         66.6586         47.6659         15.1724
             729         64.3814         65.9030         49.1939         14.4192
             730         63.4709         64.6595         50.5671         13.6664
             731         62.6409         64.0553         51.8429         12.3008
             732         61.6814         62.6078         53.4047         11.2005
             733         60.7897         61.8961         54.7031         9.26888
             734         59.8263         60.8438         56.2505         6.72284
             735         59.1200         59.8771         57.5391         3.84830
             736         58.8203         58.5439         59.0801     501.660E-03
             737         58.7428         58.1899         58.9316        -2.64168
             738         59.7113         56.5070         60.5164        -6.57683
             739         62.0959         54.5896         61.7647        -12.0099
             740         67.8121         51.5183         64.0388        -19.5154
             741         67.7040         76.3724         50.5594         4.32767
             742         67.2498         75.2791         48.2329         7.30537
             743         67.4821         74.5108         46.8430         9.96689
             744         67.8176         74.0495         46.3356         11.5475
             745         68.1897         73.5529         46.1691         12.9626
             746         67.8010         72.2229         46.2137         13.9380
             747         67.3566         71.1955         46.5448         14.3233
             748         66.4862         69.7405         47.4630         14.3065
             749         65.2562         67.9851         48.6734         13.8608
             750         64.8155         68.1509         49.2620         12.7412
             751         63.7814         67.0271         50.2307         11.8198
             752         61.9930         65.2565         51.9547         9.58840
             753         60.7772         64.1584         53.0685         7.44069
             754         59.5999         62.8619         54.2662         4.72532
             755         59.0275         62.3339         54.5983         2.65068
             756         58.4810         61.2578         55.2281    -414.143E-03
             757         58.4212         59.9184         55.9800        -3.79886
             758         59.1779         58.4377         56.5071        -8.08591
             759         63.5965         58.0413         52.2494        -18.0587
             760         67.6510         55.2837         54.2964        -22.9054
             761         71.3300         80.4124         54.1997         3.76564
             762         70.4368         79.0414         50.6278         7.12564
             763         70.2125         78.0177         48.6654         9.51269
             764         69.8935         76.4913         47.1362         11.8022
             765         69.8534         75.8096         46.7639         12.7892
             766         69.5730         75.1785         46.6852         13.1505
             767         68.8540         73.9154         46.7320         13.5119
             768         68.3763         73.5806         47.1002         13.0186
             769         67.0698         71.8980         47.6956         12.6936
             770         65.5576         70.0150         48.6290         12.0510
             771         64.6659         69.4650         49.1392         10.8794
             772         62.7513         67.9624         50.1987         8.37744
             773         61.5235         66.6084         51.1242         6.83314
             774         60.7928         66.9554         50.4609         3.87567
             775         58.7561         63.3809         52.5366        -1.27255
             776         58.7954         62.9779         51.6387        -5.04079
             777         60.6183         63.7572         47.8863        -11.0996
             778         63.4524         62.5496         46.2518        -17.0055
             779         70.0346         61.6893         42.9528        -25.1930
             780         74.5845         83.9883         57.4875         3.28003
             781         73.5102         82.8260         53.8346         5.89761
             782         72.8561         81.4921         50.4399         8.81892
             783         72.7642         80.8275         48.8364         10.3903
             784         72.2645         79.7350         47.7367         11.4307
             785         72.1387         79.4895         47.1986         11.6832
             786         70.4833         77.0378         46.7973         12.2234
             787         69.0411         75.2172         46.9351         12.0618
             788         68.3582         74.5888         47.0744         11.6128
             789         66.7733         72.9950         47.5777         10.6411
             790         65.5602         71.8240         48.0472         9.69289
             791         64.6734         71.4046         48.1427         8.24471
             792         62.9566         69.6906         48.9087         6.40779
             793         62.1510         69.4196         48.6516         4.24493
             794         61.1149         68.5265         48.5912         1.61594
             795         59.8367         66.5009         49.2190        -1.69908
             796         59.9784         65.8512         47.8677        -6.37343
             797         61.4268         66.9392         45.0093        -9.65122
             798         63.9944         66.9875         41.8950        -14.8234
             799         77.4661         87.1268         60.3944         2.85183
             800         75.8040         85.5399         54.9247         6.07456
             801         75.9751         85.6266         52.6696         7.66213
             802         74.4052         83.0562         48.6502         10.1925
             803         73.6563         81.9680         47.5306         10.6978
             804         72.5011         80.4526         46.7983         10.9355
             805         71.4079         79.1947         46.4381         10.7772
             806         70.2026         78.1448         46.1619         9.96963
             807         69.1165         76.9093         46.2712         9.65598
             808         67.8488         75.8909         46.2289         8.47113
             809         66.1698         74.4475         46.3272         6.80044
             810         64.6584         73.1705         46.3718         4.81265
             811         63.7708         72.6039         45.9277         2.61845
             812         62.4838         71.1565         45.9117     40.6759E-03
             813         62.8879         71.7937         44.1203        -2.67763
             814         62.6092         70.5753         43.1763        -6.37747
             815         64.5520         72.0394         39.9442        -9.29709
             816         67.3773         72.6144         35.9757        -13.9636
             817         79.8838         89.9514         61.8633         3.04328
             818         79.0085         89.3087         58.7919         4.48848
             819         77.9791         88.2482         54.5809         6.59752
             820         77.4537         87.5471         52.0436         7.79537
             821         76.8892         86.7646         50.2062         8.55008
             822         75.7559         85.2228         48.3107         9.29645
             823         74.3802         83.6347         46.6606         9.36099
             824         72.8798         81.7077         46.1280         9.60105
             825         71.7629         80.6794         45.5962         8.95199
             826         70.8371         80.0858         45.0101         7.80854
             827         69.1090         78.3478         44.8725         6.82614
             828         67.5842         77.1216         44.4063         4.92096
             829         65.8123         75.2804         44.5719         3.30948
             830         65.0508         74.6548         44.0606         1.44423
             831         64.5038         74.1177         43.2956    -765.310E-03
             832         64.7209         74.2613         41.8174        -3.20254
             833         65.9467         75.0568         39.1005        -6.36011
             834         67.2469         75.5887         36.7743        -8.86678
             835         69.7795         76.9510         33.1397        -11.5415
             836         82.4581         92.6934         64.7514         2.34877
             837         81.4225         92.2684         60.0500         4.11856
             838         79.7727         90.5623         55.7739         5.84352
             839         78.7082         89.3331         51.8797         7.24903
             840         77.8917         88.3084         49.8926         7.86144
             841         75.6186         85.4562         46.9620         8.62520
             842         74.6648         84.5963         45.7595         8.07170
             843         73.8913         83.9684         44.9251         7.37691
             844         72.1785         82.2448         44.0889         6.52635
             845         70.5746         80.5378         43.8309         5.86907
             846         69.2676         79.3990         43.2203         4.37605
             847         67.8733         78.0095         42.9684         2.99749
             848         67.2459         77.5318         42.0191         1.00789
             849         66.6265         76.8375         41.1451        -1.10524
             850         66.5553         76.5663         40.0090        -3.15311
             851         67.7599         77.4902         37.6769        -5.37626
             852         69.6041         78.8092         34.8397        -7.43251
             853         84.4478         94.8247         66.8288         1.88394
             854         83.1678         94.3003         61.7456         3.38802
             855         82.1190         93.5524         57.5816         4.57270
             856         80.9955         92.4193         54.0168         5.57730
             857         79.5997         90.7862         50.6980         6.49026
             858         78.6958         89.7877         48.6049         6.65567
             859         77.7095         88.6888         46.9889         6.64567
             860         76.5232         87.4622         45.3289         6.21866
             861         74.8780         85.5122         44.4304         6.31555
             862         73.5096         83.9971         43.8020         6.02124
             863         72.1120         82.6576         42.8922         4.94952
             864         71.3125         81.9881         42.0494         3.77821
             865         69.9207         80.5907         41.3664         2.35344
             866         69.8896         80.6727         40.3127         1.07845
             867         69.3419         80.0475         39.1712    -789.744E-03
             868         68.9506         79.2820         37.6361        -3.46094
             869         70.5521         80.6009         35.1602        -5.12479
             870         72.9497         82.4750         31.9581        -6.68210
             871         74.5627         83.0154         29.0509        -8.86479
             872         86.1014         96.5748         68.5867         1.45640
             873         84.6703         96.0158         63.2812         2.67814
             874         83.4501         95.2217         58.6728         3.70433
             875         82.2304         94.0981         54.7054         4.56014
             876         80.4461         92.1239         50.3220         5.42594
             877         79.3439         90.8702         48.1788         5.62389
             878         78.3314         89.7446         46.5209         5.55347
             879         77.6111         88.9996         45.3467         5.23033
             880         76.1505         87.3571         43.9403         5.01301
             881         74.7768         85.9656         42.3224         4.02357
             882         73.7695         84.8033         42.0702         4.00491
             883         72.6580         83.7123         40.7766         2.72078
             884         72.5723         83.6965         39.5519         1.59500
             885         71.8695         82.9107         38.3955     268.952E-03
             886         71.4723         82.3645         37.2007        -1.22497
             887         72.0703         82.8357         35.7697        -2.30328
             888         73.3044         83.7010         33.3748        -3.97064
             889         75.0015         84.9557         30.9606        -5.14718
             890         76.3588         85.5562         28.5223        -6.77088
             891         87.3904         97.9497         69.9021         1.08373
             892         85.8343         97.3386         64.4435         2.04908
             893         84.3703         96.5663         58.3013         2.84019
             894         83.1310         95.3569         54.9372         3.57673
             895         81.5940         93.7709         50.7202         4.00599
             896         80.5971         92.7279         48.2194         3.81248
             897         79.2096         91.0465         46.4186         4.33050
             898         76.8800         88.4192         43.4492         3.93610
             899         76.2556         87.7902         42.3089         3.26901
             900         75.1201         86.5372         40.9823         2.66315
             901         74.3213         85.6599         39.8207         1.94763
             902         73.8162         85.0912         38.8649         1.27806
             903         73.5055         84.6779         37.3151     142.912E-03
             904         73.5679         84.5777         35.6828        -1.08860
             905         74.1924         85.0345         34.1728        -1.97675
             906         74.9785         85.6369         32.7957        -2.64981
             907         76.4446         86.7267         30.5965        -3.63486
             908         88.2036         98.9287         70.3896     784.240E-03
             909         85.9259         97.9908         62.1306         1.74094
             910         85.1870         97.5165         59.3783         1.99369
             911         83.7862         96.3272         54.7621         2.40748
             912         82.5520         95.1003         51.2153         2.47372
             913         81.2713         93.6738         48.4523         2.66664
             914         79.9498         92.1433         46.1960         2.83821
             915         79.3887         91.5474         44.9693         2.32561
             916         78.3269         90.2886         43.6459         2.50544
             917         76.8387         88.5580         41.8452         2.33630
             918         75.9185         87.5037         40.3690         1.77959
             919         75.3599         86.8410         39.1180         1.23641
             920         74.7280         86.0665         37.8070     676.764E-03
             921         74.7948         86.0323         36.4525     36.7841E-03
             922         74.9942         86.0899         35.0248    -632.284E-03
             923         75.8153         86.7442         33.3423        -1.14674
             924         76.4745         87.2598         32.1805        -1.47823
             925         77.9408         88.3942         30.0213        -2.13421
             926         88.4166         99.5041         69.5260     479.173E-03
             927         87.0276         98.9836         64.4489     768.527E-03
             928         85.5043         98.0273         59.0342         1.08790
             929         84.3018         97.0300         55.0028         1.09231
             930         82.9986         95.7182         51.4288         1.22976
             931         81.6417         94.2113         48.4498         1.49879
             932         80.8139         93.2898         46.6915         1.10387
             933         79.9164         92.2507         45.1123     994.648E-03
             934         78.5434         90.6248         43.1017         1.22884
             935         77.4731         89.3538         41.6083         1.23649
             936         76.5465         88.2457         40.1949         1.07546
             937         76.0543         87.6289         38.9497     698.913E-03
             938         75.7512         87.1908         37.5771     339.350E-03
             939         75.5681         86.8344         35.9758     9.10506E-03
             940         75.8948         87.0030         34.4192    -362.274E-03
             941         76.4561         87.4126         33.0448    -619.541E-03
             942         77.4238         88.1606         31.3288    -936.264E-03
             943         78.8630         89.3437         29.5109    -965.576E-03
             944         89.1493         99.8431         71.6266     11.5325E-03
             945         87.1195         99.1623         64.2413     81.6923E-03
             946         85.9840         98.4844         60.1441     66.2214E-03
             947         84.4323         97.2084         55.0592    -115.818E-03
             948         83.1252         95.8998         51.4367    -135.878E-03
             949         81.9927         94.6611         48.8282     31.3860E-03
             950         80.6995         93.1830         46.2998     82.8764E-03
             951         79.4492         91.7197         44.1912    -59.8313E-03
             952         78.3665         90.4352         42.5319    -260.995E-03
             953         77.5546         89.4620         41.2505     84.2175E-03
             954         76.6975         88.4111         39.7233    -86.3504E-03
             955         76.1565         87.7114         38.3976    -130.626E-03
             956         75.8777         87.2691         36.8899    -52.5215E-03
             957         75.8802         87.2050         36.2348     10.6666E-03
             958         76.1075         87.2650         34.6348    -47.6970E-03
             959         76.8830         87.8069         32.5766    -234.358E-03
             960         77.8594         88.5800         30.9768    -111.268E-03
             961         79.1213         89.6026         29.3541     178.184E-03
             962         88.4776         99.4130         70.0812    -560.998E-03
             963         87.0668         98.9764         64.6999    -814.733E-03
             964         85.6236         98.1048         59.5021        -1.12323
             965         84.6317         97.3579         55.8659    -806.255E-03
             966         82.7234         95.4055         50.8680        -1.47114
             967         82.0226         94.6574         49.1260        -1.21909
             968         81.0701         93.5827         47.1761        -1.14445
             969         79.4603         91.7007         44.5163        -1.34060
             970         78.5346         90.6226         42.9680    -973.611E-03
             971         77.1962         89.0258         41.1092        -1.07595
             972         76.6890         88.4154         40.2606    -942.758E-03
             973         75.7995         87.3168         38.5694    -708.080E-03
             974         75.7383         87.1485         37.2545    -261.916E-03
             975         75.5163         86.7925         36.1164    -41.1660E-03
             976         75.9808         87.0932         34.3879     303.211E-03
             977         76.6647         87.5746         32.6478     682.772E-03
             978         77.7670         88.4631         30.9403     766.661E-03
             979         78.8876         89.3249         29.3696         1.31353
             980         87.8969         98.6654         69.8784    -930.111E-03
             981         86.3490         98.2329         63.6603        -1.56623
             982         85.1186         97.4827         59.0489        -1.98062
             983         83.6352         96.2520         53.8827        -2.11157
             984         82.4572         95.0071         50.9270        -2.42953
             985         81.1763         93.5628         48.2856        -2.69788
             986         79.9641         92.1414         46.3365        -2.98112
             987         79.2430         91.3658         44.8412        -2.44648
             988         78.1101         90.0481         43.2613        -2.35183
             989         76.8794         88.6194         41.6609        -2.11184
             990         76.2799         87.9271         40.7273        -1.80451
             991         75.4878         86.9836         39.0148        -1.11938
             992         75.0467         86.4200         37.7829    -644.985E-03
             993         74.9857         86.2443         36.4684    -87.1873E-03
             994         74.8328         85.9236         35.1223     669.584E-03
             995         76.1078         86.9348         32.6255         1.48467
             996         77.0363         87.6157         31.0178         2.13066
             997         78.2441         88.5876         29.5181         2.44993
             998         86.9381         97.5322         69.2383        -1.25519
             999         85.7936         97.3324         64.2360        -2.07508
            1000         84.2352         96.4051         58.1403        -2.96345
            1001         82.9129         95.1732         54.0900        -3.59644
            1002         82.0820         94.3712         51.4521        -3.64258
            1003         80.5745         92.6046         48.7123        -4.27165
            1004         79.3170         91.1955         46.4423        -4.20338
            1005         78.5405         90.3099         45.3470        -4.15002
            1006         76.9611         88.5394         43.3577        -3.77541
            1007         75.1665         86.5941         40.9489        -2.61963
            1008         74.4180         85.7734         39.5824        -1.76171
            1009         73.4594         84.6913         38.7801        -1.17181
            1010         73.3458         84.4933         37.2194    -6.42878E-03
            1011         73.6139         84.6266         35.6575         1.07551
            1012         74.3567         85.1721         33.9137         2.08132
            1013         75.2049         85.8082         32.4304         2.81670
            1014         77.0359         87.2658         30.0451         3.57809
            1015         85.6391         96.0569         68.1919        -1.55968
            1016         84.3126         95.8432         61.7850        -2.99855
            1017         82.8180         94.5581         57.3065        -4.17711
            1018         80.7810         92.5345         50.8775        -5.23897
            1019         79.5315         91.0360         48.7487        -5.74896
            1020         78.1789         89.5292         46.4843        -5.69725
            1021         77.3161         88.6681         45.0239        -5.18920
            1022         76.0337         87.2647         43.6896        -4.82263
            1023         75.1045         86.3206         42.5881        -4.16053
            1024         73.6833         84.8035         41.4539        -3.39672
            1025         72.0889         83.1436         39.9008        -1.76711
            1026         71.9074         82.9620         38.7367    -611.755E-03
            1027         71.8489         82.8229         37.4066     705.876E-03
            1028         72.2636         83.0526         35.6870         2.20818
            1029         73.5697         84.0785         33.4646         3.51549
            1030         74.7085         84.6934         31.2566         5.11992
            1031         77.2400         86.7358         28.3621         5.73043
            1032         83.5823         94.0681         65.2872        -2.32441
            1033         82.9603         93.9410         62.1648        -3.30902
            1034         81.8307         93.1968         57.2826        -4.75657
            1035         80.7267         92.0499         53.8974        -5.77163
            1036         79.7064         90.8518         51.3940        -6.50530
            1037         78.2019         89.0960         48.2954        -7.02169
            1038         77.3775         88.1791         47.0036        -7.00296
            1039         76.2714         87.0664         45.4370        -6.53906
            1040         74.7993         85.4704         44.2675        -6.15617
            1041         73.4288         84.1214         43.1700        -5.26757
            1042         72.2037         82.8675         42.5480        -4.54140
            1043         71.5372         82.1422         42.4332        -4.28967
            1044         70.2246         80.9309         41.3257        -2.47684
            1045         70.2402         81.0853         39.9073    -848.938E-03
            1046         69.9918         80.7860         38.7665     688.670E-03
            1047         70.1740         80.7844         37.1862         2.55138
            1048         70.7692         80.9806         35.2925         4.57802
            1049         72.5934         82.1787         32.3770         6.55466
            1050         74.8192         83.8401         29.5553         7.59714
            1051         81.5143         91.6586         63.8424        -2.52533
            1052         80.3482         90.9911         59.1174        -4.49976
            1053         80.2736         91.2088         56.1045        -5.60719
            1054         78.9547         89.6757         52.0817        -7.07306
            1055         77.8221         88.2100         49.8265        -7.91185
            1056         76.8177         86.9205         48.2980        -8.38971
            1057         75.6589         85.5957         46.7867        -8.43380
            1058         74.6967         84.6227         45.7974        -8.09738
            1059         73.1672         82.8811         45.1291        -7.91362
            1060         72.0467         81.9506         44.3418        -6.89130
            1061         70.6367         80.6780         43.6866        -5.67549
            1062         69.1159         79.1309         43.4885        -4.66700
            1063         69.0146         79.3193         42.6540        -3.43470
            1064         68.0795         78.5750         41.1114    -571.072E-03
            1065         68.0428         78.5248         39.8466         1.27331
            1066         66.8145         76.8855         39.7973         3.09880
            1067         68.4473         78.1653         36.8362         5.70457
            1068         68.9420         77.7121         35.1146         8.35918
            1069         71.8254         80.0370         31.5154         9.69784
            1070         79.1663         89.0387         61.7785        -2.79938
            1071         78.2989         88.5264         57.5731        -5.02906
            1072         77.6092         87.7712         54.2914        -6.75945
            1073         77.1122         87.0727         51.8356        -7.98271
            1074         75.6283         84.9354         48.8292        -9.46310
            1075         75.2748         84.5652         47.8293        -9.52334
            1076         72.7750         81.6321         46.0485        -9.50395
            1077         71.7494         80.6399         45.6251        -8.99528
            1078         70.4060         79.4692         45.1808        -7.97537
            1079         69.2106         78.2935         45.0773        -7.24663
            1080         66.6718         75.4865         45.6046        -6.04614
            1081         66.3912         76.0042         44.2555        -3.47421
            1082         66.2538         76.1421         43.4453        -2.03856
            1083         64.3060         73.8444         43.5897     592.188E-03
            1084         64.9449         74.5154         41.4551         3.45465
            1085         66.0412         74.8739         38.6870         7.19495
            1086         67.5459         75.5099         36.1833         9.72399
            1087         70.0403         77.0588         32.7686         11.8167
            1088         76.5040         86.0910         59.3623        -3.04776
            1089         75.9310         85.6977         55.7059        -5.54193
            1090         75.4890         85.0285         52.7634        -7.55323
            1091         75.1361         84.2925         50.4751        -9.07650
            1092         74.0560         82.5215         48.4952        -10.4018
            1093         73.8680         82.2845         47.6704        -10.5800
            1094         73.0677         81.2970         46.9247        -10.6864
            1095         71.8935         80.1122         46.2811        -10.2706
            1096         70.2755         78.1487         46.2113        -10.1210
            1097         68.6775         76.4933         46.2947        -9.37021
            1098         67.0509         74.9797         46.4724        -8.13785
            1099         64.6179         73.5160         45.7672        -3.69037
            1100         63.5365         72.3092         46.0485        -2.41710
            1101         62.5987         71.3489         45.7026     108.732E-03
            1102         62.0411         70.5013         45.1624         2.77021
            1103         62.9471         71.2788         42.8907         5.75216
            1104         64.3942         71.2598         40.0723         10.3023
            1105         66.8513         72.3247         36.6634         13.4870
            1106         73.5554         82.8462         56.5947        -3.29602
            1107         73.3792         82.6667         53.6673        -5.97325
            1108         73.1250         81.9756         51.1253        -8.25618
            1109         72.7432         80.8320         48.9088        -10.3133
            1110         72.2942         79.8714         47.9854        -11.2111
            1111         71.8171         78.9377         47.2270        -11.8904
            1112         71.1785         78.0107         46.8976        -12.1083
            1113         69.7588         76.0399         46.8271        -12.2770
            1114         68.3328         74.3637         47.1244        -11.8751
            1115         67.0890         73.6379         47.3355        -10.3832
            1116         65.8837         72.8604         47.5065        -8.87881
            1117         64.0434         71.0836         48.1673        -7.12967
            1118         63.2913         70.5914         48.2137        -5.81804
            1119         61.8556         69.3310         48.4436        -3.22421
            1120         60.7437         68.1172         48.5261    -419.831E-03
            1121         59.7593         66.3287         49.1815         2.23650
            1122         60.0508         66.2460         47.7039         5.83381
            1123         60.4794         65.4600         47.0088         8.94626
            1124         63.7357         66.6198         42.4029         14.7299
            1125         70.3054         79.2766         53.3300        -3.73247
            1126         71.1500         79.8332         50.9479        -7.31694
            1127         70.3577         78.2131         48.7653        -9.46836
            1128         69.8738         77.0120         47.6575        -10.8084
            1129         70.1260         76.5056         47.0049        -12.2642
            1130         69.5239         75.1253         46.6675        -13.1380
            1131         68.7505         73.7484         46.7665        -13.5358
            1132         67.5397         71.8950         47.2690        -13.6231
            1133         67.2785         72.2892         47.5977        -12.5953
            1134         66.3481         71.8921         47.9684        -11.2720
            1135         63.2027         68.2846         49.9804        -9.06737
            1136         62.1877         67.8813         50.2024        -6.99896
            1137         60.9440         66.8195         50.7227        -4.68303
            1138         59.8285         65.6186         51.2020        -1.98401
            1139         58.9742         64.0609         51.9989     675.740E-03
            1140         59.0886         63.3085         50.6674         6.42879
            1141         60.4789         64.1895         47.7524         10.3652
            1142         62.5053         62.1661         47.4846         15.6995
            1143         69.1013         64.2845         40.3680         23.1513
            1144         66.5929         75.0876         49.2797        -4.77060
            1145         66.7590         74.6764         47.7831        -7.42157
            1146         67.5293         74.5073         46.8285        -10.0833
            1147         67.2608         72.9443         45.8659        -12.1809
            1148         67.1168         71.6336         45.7303        -13.6364
            1149         66.9122         70.5812         46.1050        -14.4224
            1150         66.9367         70.3980         46.5728        -14.5402
            1151         66.3881         69.6829         47.6525        -14.1596
            1152         65.4018         68.4041         48.6248        -13.6630
            1153         64.9379         68.5997         49.1566        -12.4735
            1154         63.6758         67.4291         50.2044        -11.1456
            1155         62.1744         65.4146         51.7898        -9.86929
            1156         60.5225         63.6619         53.5157        -7.14407
            1157         59.7801         62.4485         54.6948        -5.71333
            1158         59.1386         62.0084         55.0462        -3.44382
            1159         58.4970         61.3318         55.1704     282.259E-03
            1160         58.3768         60.9778         54.9580         2.60750
            1161         59.2313         59.6243         54.3298         8.96183
            1162         61.2699         58.2097         54.0305         14.0409
            1163         65.8555         56.6039         53.0640         20.9824
            1164         62.5721         70.7609         46.0023        -3.96286
            1165         63.3098         70.4196         44.7946        -8.10469
            1166         63.9745         69.9346         44.3729        -10.5852
            1167         64.3350         68.8956         44.2197        -12.6958
            1168         64.5729         67.7762         44.6021        -14.2555
            1169         65.6702         68.3627         45.8816        -14.9508
            1170         64.9773         66.7397         46.3958        -15.4027
            1171         64.7998         66.1841         47.7584        -15.2607
            1172         64.4173         65.6720         48.8184        -14.8272
            1173         63.2495         64.2853         50.8881        -13.5358
            1174         61.5066         62.6238         53.6011        -10.7230
            1175         60.5836         62.1083         54.7063        -8.52184
            1176         59.7555         60.8508         56.2771        -6.46261
            1177         59.0882         59.9291         57.4683        -3.71176
            1178         58.7863         58.8110         58.7301    -784.413E-03
            1179         58.8975         57.7672         59.4037         3.39864
            1180         60.0052         56.5543         59.4115         8.80312
            1181         62.9638         54.8234         59.4937         15.0661
            1182         67.2885         52.2165         62.1309         19.8762
            1183         56.9511         64.3126         40.3535        -4.97179
            1184         58.6161         64.6833         40.9463        -8.63835
            1185         59.8019         64.7263         41.4672        -10.8206
            1186         61.2197         64.7316         42.3774        -12.9741
            1187         62.9891         65.0458         44.0484        -14.8501
            1188         62.8583         63.3225         45.3168        -15.8890
            1189         63.0830         62.8489         46.8027        -16.1295
            1190         63.2325         62.7580         48.2054        -15.9300
            1191         62.9581         62.1394         49.7400        -15.4829
            1192         62.3665         60.9850         51.4957        -14.8219
            1193         61.8841         60.5313         53.2381        -13.5877
            1194         61.0890         59.6570         55.5554        -11.5582
            1195         60.6262         59.3897         56.6703        -10.0417
            1196         60.0375         58.2547         58.8956        -7.59696
            1197         59.7142         57.5482         60.5082        -4.99608
            1198         60.1632         55.7797         63.4715         2.58335
            1199         61.6597         54.4382         64.7459         7.55020
            1200         65.1230         52.3459         68.3375         11.6632
            1201         70.2358         49.9874         72.8669         15.9914
            1202         79.9735         45.4036         77.7201         24.6483
            1203         52.3572         59.3053         36.1078        -4.53773
            1204         53.8569         59.2750         37.1749        -8.33882
            1205         55.8346         59.4757         38.6987        -11.3165
            1206         57.1111         59.2731         39.9070        -13.1811
            1207         58.9410         58.9519         42.2282        -15.3289
            1208         60.7161         59.8528         44.5042        -16.1984
            1209         60.8852         59.0623         45.8836        -16.5665
            1210         61.3323         58.5587         48.4239        -16.5660
            1211         61.0815         57.2491         50.5360        -16.2557
            1212         61.2204         57.1838         53.3313        -15.0931
            1213         61.1488         57.2706         55.2585        -13.7894
            1214         60.9284         56.6129         57.0890        -12.6501
            1215         60.6277         56.1378         60.0812        -9.78667
            1216         60.3423         56.6917         60.5523        -8.03058
            1217         60.3890         55.9062         62.6649        -5.70936
            1218         60.7829         55.1716         64.7917        -3.01966
            1219         62.5634         53.8277         68.6082     948.453E-03
            1220         64.3974         53.0545         70.8546         4.86569
            1221         67.4865         51.8068         73.5436         9.51989
            1222         72.1659         50.3731         78.3702         12.6006
            1223         81.9645         46.0401         84.6890         21.0187
            1224         108.637         33.8643         106.028         31.6425
            1225         48.0334         54.4794         32.0422        -4.40236
            1226         50.1354         55.0204         34.1943        -8.13313
            1227         52.1827         54.5972         36.2988        -11.6388
            1228         53.8921         54.6893         38.1400        -13.4738
            1229         56.9537         55.6360         41.6232        -15.6164
            1230         57.9721         54.8570         44.1491        -16.5753
            1231         59.0755         55.4667         45.9592        -16.8356
            1232         59.8383         55.1569         48.8438        -16.7998
            1233         60.1441         54.3553         51.9498        -16.2047
            1234         60.3725         54.0790         54.1030        -15.4812
            1235         60.6849         54.3787         56.4843        -14.2206
            1236         60.8412         53.8764         59.5699        -12.3804
            1237         60.8921         54.5415         61.2567        -10.3557
            1238         61.1822         53.9965         63.8432        -8.14449
            1239         61.8155         53.3892         66.4072        -5.95141
            1240         62.5823         53.2519         68.6288        -2.91410
            1241         64.4977         52.5074         71.9937     120.320E-03
            1242         66.8159         51.9989         74.9600         3.62048
            1243         70.6017         51.1490         78.5245         8.53870
            1244         74.4005         50.1007         81.7850         12.0285
            1245         84.0022         46.9692         89.6436         18.4822
            1246         103.869         41.5203         111.943         19.8451
            1247         117.461         36.8630         127.536         17.0701
            1248         143.307         34.6114         157.273        -3.94785
            1249         121.247         40.5066         129.969        -21.8525
            1250         99.9578         48.5155         106.010        -22.6768
            1251         85.0032         53.8895         89.6674        -19.2644
            1252         76.2036         56.1318         81.7286        -13.7140
            1253         70.4494         57.8125         75.8088        -9.24759
            1254         67.7195         58.3873         73.1346        -5.72470
            1255         65.7478         58.6594         70.9060        -2.12105
            1256         64.0841         59.1905         67.9441         1.68378
            1257         63.2477         59.3612         65.4198         5.16918
            1258         62.8533         60.2156         62.2995         8.05812
            1259         62.6716         58.9864         60.3348         11.0602
            1260         62.8755         60.1945         56.4829         13.4113
            1261         62.5566         59.5179         53.2922         15.3050
            1262         62.3987         59.5809         51.1458         16.0741
            1263         62.8672         61.3227         48.0668         16.6231
            1264         62.7061         62.0400         45.5599         16.6725
            1265         60.0852         59.5669         42.5152         16.1964
            1266         59.9578         61.1385         40.5907         15.1775
            1267         58.4194         61.0857         38.4293         13.5651
            1268         56.5480         60.8056         36.3991         11.3832
            1269         55.0035         61.0549         34.7465         8.40250
            1270         53.8855         61.4392         33.5215         4.64466
            1271         58.5986         66.8297         37.6276         4.70424
            1272         59.6001         65.6084         38.0826         9.93260
            1273         60.8379         65.3930         39.1750         12.2760
            1274         62.6188         66.0420         40.7841         14.0200
            1275         63.7148         65.9220         42.4340         15.3900
            1276         64.3811         65.6445         44.1634         16.1700
            1277         64.7832         65.4704         45.8150         16.4418
            1278         64.7122         64.8305         47.4731         16.4183
            1279         64.5219         64.1451         50.4687         15.6919
            1280         64.4591         64.2843         52.3892         14.6706
            1281         64.0661         63.6195         53.7579         13.9901
            1282         63.1565         62.6789         58.5183         10.0593
            1283         62.8534         61.9417         61.2636         7.19555
            1284         62.8380         62.1664         62.6052         4.33905
            1285         63.3497         61.2356         65.2156         1.12930
            1286         64.0859         60.7581         66.8847        -1.37548
            1287         64.9116         60.5942         67.8934        -3.92817
            1288         68.9632         59.2901         71.6588        -10.8671
            1289         75.4088         57.1095         78.2337        -16.0454
            1290         84.1373         54.5557         85.4335        -22.0965
            1291         101.449         48.9123         100.214        -30.3189
            1292         43.7209         49.4853         28.1460        -4.59478
            1293         47.2163         50.5276         32.2836        -9.40407
            1294         47.2260         48.5776         33.0974        -11.2970
            1295         50.1214         49.2082         36.3663        -13.6347
            1296         53.3342         50.6264         39.9052        -15.3768
            1297         55.1037         50.4734         43.0866        -16.4026
            1298         56.3778         50.2697         46.0525        -16.7891
            1299         58.0687         51.4364         48.9531        -16.8111
            1300         58.7865         50.8445         52.2977        -16.2756
            1301         59.6174         51.2606         55.0521        -15.4689
            1302         60.3730         51.9199         57.9330        -14.1523
            1303         60.9007         52.2942         60.7473        -12.3924
            1304         61.8326         51.1391         65.1133        -9.96925
            1305         62.1789         52.0414         66.6530        -7.83153
            1306         63.0554         51.6898         69.0320        -5.97153
            1307         64.0017         51.9135         71.1791        -3.15693
            1308         66.3722         51.1082         75.0019    -618.745E-03
            1309         68.7575         51.1437         77.7890         3.61466
            1310         72.5783         50.3710         81.8487         7.16401
            1311         78.5509         48.8512         87.9130         10.7974
            1312         83.9844         47.4095         92.9960         13.7398
            1313         94.5090         43.3152         104.713         14.4525
            1314         114.087         35.1225         126.773         7.37683
            1315         122.344         33.5758         135.355        -4.63295
            1316         111.430         38.5879         122.807        -13.9640
            1317         96.6874         46.3297         105.780        -17.4483
            1318         84.4833         51.0248         93.3020        -14.0160
            1319         77.8888         54.0053         85.8282        -11.8151
            1320         74.0958         54.4764         82.5788        -8.20242
            1321         68.6240         56.5847         75.8148        -4.06206
            1322         66.9995         56.1316         74.1599    -632.006E-03
            1323         65.2218         56.8791         71.0613         1.90064
            1324         64.1771         56.5503         68.8623         4.93034
            1325         63.1869         57.5267         65.4215         7.45592
            1326         62.6948         56.4870         63.3691         10.0623
            1327         62.1459         56.5377         59.7724         12.5466
            1328         61.9365         56.7534         57.6122         13.7320
            1329         61.4606         56.2991         55.2239         14.9131
            1330         61.1606         56.7761         51.9229         16.0113
            1331         60.4100         56.3066         49.3966         16.5356
            1332         59.7292         56.5309         46.4095         16.7487
            1333         57.0757         55.2303         41.6309         16.0563
            1334         56.8588         56.5109         39.7799         15.3298
            1335         55.1212         56.3633         37.1660         13.8445
            1336         52.6972         55.9865         34.1804         11.3702
            1337         50.6674         55.8441         31.7211         8.44254
            1338         49.0217         55.7784         29.4073         4.73988
            1339         39.4625         43.9845         25.0409        -5.68658
            1340         42.4858         45.4164         28.7189        -8.60087
            1341         44.9737         44.7256         32.3721        -11.8626
            1342         47.1021         44.8845         35.1412        -13.4954
            1343         50.4695         46.1934         39.1272        -15.1638
            1344         51.8874         45.7918         41.9452        -15.8824
            1345         55.3415         48.3411         46.0766        -16.6349
            1346         55.8607         47.3804         48.6149        -16.4874
            1347         57.4941         47.2407         53.3319        -15.8012
            1348         58.5211         48.4381         54.9303        -15.5119
            1349         59.9758         49.1335         59.1490        -14.0308
            1350         60.8692         49.2466         62.1813        -12.5901
            1351         62.4188         48.8159         66.8637        -10.1057
            1352         62.9928         50.1203         68.3750        -8.32424
            1353         64.1229         50.1821         70.9902        -6.22742
            1354         67.9968         50.2611         77.3685    -204.869E-03
            1355         70.8638         49.8547         80.9225         2.71428
            1356         76.3689         48.6739         86.9250         6.78404
            1357         81.0640         47.2039         91.9290         8.78684
            1358         84.5652         45.9981         95.5773         9.94630
            1359         95.2246         41.6092         107.017         10.5933
            1360         101.252         38.2542         114.282         5.77053
            1361         106.104         36.6473         119.503        -2.12022
            1362         103.669         39.3029         116.049        -9.93907
            1363         93.3740         44.6616         104.662        -12.1696
            1364         85.8717         48.9328         96.0710        -12.2599
            1365         80.1286         51.4149         89.8892        -10.3067
            1366         76.6410         51.8170         86.8060        -7.10822
            1367         70.7334         54.1498         79.6891        -3.45487
            1368         69.5648         53.6028         78.5762        -1.11007
            1369         67.3440         54.0599         75.3680         1.50455
            1370         65.3991         54.3371         71.9273         4.44643
            1371         64.2383         54.1597         69.3603         6.80601
            1372         62.5848         53.8204         64.5302         10.4741
            1373         62.0362         53.7788         62.4751         11.7336
            1374         61.1017         53.3387         59.0363         13.5652
            1375         59.7128         52.0993         55.2696         15.0118
            1376         59.3228         52.9041         52.2375         15.8658
            1377         58.2425         52.2667         49.5305         16.2881
            1378         56.9237         52.2255         45.6122         16.4768
            1379         54.5306         50.6959         42.1113         15.9689
            1380         53.3811         51.2997         39.0666         15.2292
            1381         51.1982         50.4867         36.1641         14.0275
            1382         47.3271         49.0319         31.5354         11.3649
            1383         46.0588         50.1898         28.7958         8.53347
            1384         43.9203         49.7794         25.3609         4.84008
            1385         33.4535         37.5324         19.8385        -4.52691
            1386         35.6927         37.6266         24.1933        -7.81470
            1387         40.7809         40.1307         29.7769        -10.9683
            1388         44.0387         39.7447         34.8003        -13.3146
            1389         46.5177         40.5336         37.9879        -14.3483
            1390         49.5484         41.8609         41.9238        -15.2761
            1391         52.1699         43.1496         45.6186        -15.7816
            1392         54.4463         44.2321         49.3762        -15.8527
            1393         56.3171         44.9777         53.1235        -15.4477
            1394         58.0384         45.8474         56.7287        -14.7104
            1395         59.4429         46.5395         59.9514        -13.7049
            1396         60.9355         46.9235         63.7171        -12.1282
            1397         62.5135         47.3690         67.3773        -10.2634
            1398         63.5127         48.3400         69.4597        -8.75840
            1399         66.0552         48.8536         74.3537        -5.18264
            1400         67.4569         49.0877         76.6224        -3.21760
            1401         69.3241         49.4311         79.2397    -352.003E-03
            1402         72.3973         48.8052         83.0940         1.84717
            1403         77.3050         47.8069         88.5574         5.22178
            1404         80.9868         46.7568         92.4252         7.11239
            1405         86.2887         44.6288         98.2768         7.78120
            1406         91.7982         42.2143         104.243         7.72075
            1407         97.1355         39.5403         110.325         4.56689
            1408         97.5079         39.2777         111.019     364.960E-03
            1409         97.7105         39.6935         111.061        -3.90327
            1410         92.6886         43.2820         105.093        -8.60263
            1411         87.1782         46.5868         98.7758        -9.56894
            1412         82.0771         48.6477         93.4654        -7.77049
            1413         76.1378         50.7215         87.0130        -4.70649
            1414         73.2270         51.5435         83.6317        -2.69954
            1415         70.5140         52.0597         80.2458    -254.562E-03
            1416         68.6843         52.2321         77.7129         1.74691
            1417         66.8865         51.7635         74.9299         4.41509
            1418         64.5043         52.2080         70.2980         7.38108
            1419         63.1634         52.3185         66.9989         9.46604
            1420         61.8856         50.2937         64.6010         11.1968
            1421         60.4279         50.1356         60.5095         13.0414
            1422         59.0642         49.4722         57.0446         14.2493
            1423         57.4845         49.1220         52.5703         15.3864
            1424         55.7020         47.6129         49.8031         15.5633
            1425         53.8905         46.8899         46.1592         15.6977
            1426         50.6874         45.9461         40.3188         15.1113
            1427         48.8850         45.6444         37.2589         14.3616
            1428         45.3196         43.5870         33.3509         12.8506
            1429         42.2752         42.9169         29.1037         10.7601
            1430         40.7393         43.4116         26.0885         8.69977
            1431         38.5752         43.4939         21.4723         4.80212
            1432         28.4016         31.9045         15.8725        -3.79553
            1433         31.0380         32.9737         20.7460        -6.57686
            1434         36.6575         35.5480         27.4578        -10.0374
            1435         38.2746         34.1195         31.1569        -11.4472
            1436         41.8910         35.3207         35.7045        -12.8270
            1437         45.7942         37.2071         40.3947        -13.9520
            1438         49.9609         39.9397         45.1248        -14.9101
            1439         51.4434         39.9944         48.2558        -14.6993
            1440         54.4808         40.8938         54.1090        -13.9140
            1441         56.9541         43.0293         57.3279        -13.8147
            1442         58.9560         44.6515         60.5051        -13.2013
            1443         61.1209         45.0093         65.3676        -11.2422
            1444         63.9478         46.2569         70.6039        -8.76798
            1445         64.9889         47.2927         72.3781        -7.55701
            1446         67.1629         47.6703         76.0220        -5.26130
            1447         69.5825         48.0195         79.5930        -2.75851
            1448         73.2910         47.8290         84.3780    -95.5957E-03
            1449         74.8748         47.8410         86.2160         1.72668
            1450         78.5210         47.1345         90.2860         3.99616
            1451         81.6880         46.2152         93.7981         4.96272
            1452         85.6012         44.7374         97.8868         6.41644
            1453         89.8483         42.8086         102.719         5.36193
            1454         93.0834         41.1985         106.428         2.88537
            1455         94.3633         40.7360         107.877    -821.781E-03
            1456         92.8739         41.7541         106.262        -3.01931
            1457         90.4514         43.5136         103.362        -5.82861
            1458         86.6441         45.7724         99.0179        -6.82697
            1459         83.1425         47.4324         95.1924        -6.23049
            1460         78.2914         49.3836         89.7824        -4.60758
            1461         75.0739         50.0378         86.2084        -2.16720
            1462         71.1544         50.8838         81.3001     562.042E-03
            1463         69.3829         50.6331         78.8928         2.63228
            1464         67.3728         50.3361         75.8468         4.84636
            1465         65.5300         50.1748         72.6941         6.82274
            1466         63.8484         48.9167         69.7885         8.70179
            1467         62.0651         48.4300         66.2287         10.4535
            1468         60.1034         47.1761         62.5494         11.9059
            1469         58.2338         46.8681         58.0275         13.5031
            1470         55.1400         44.0429         53.7417         13.8974
            1471         53.5813         43.9069         49.9800         14.6013
            1472         51.2661         43.3869         45.1377         14.9081
            1473         47.3558         40.5000         40.7624         14.0431
            1474         44.4521         40.2432         35.5128         13.2219
            1475         41.4923         39.0976         31.7008         11.9370
            1476         37.7484         37.7276         26.9144         9.87587
            1477         33.2486         35.4846         21.3202         7.03087
            1478         30.7905         34.4226         16.6811         4.43786
            1479         23.5205         26.3125         13.0133        -3.36314
            1480         28.1070         28.6874         20.4116        -6.73198
            1481         29.0995         27.0214         23.9038        -7.98218
            1482         36.1258         31.1474         30.7460        -10.7588
            1483         39.4149         32.3987         34.7614        -11.8565
            1484         43.0351         33.4579         39.9100        -12.5842
            1485         47.1116         35.3012         45.5629        -12.9843
            1486         50.2806         37.3370         49.5027        -13.3148
            1487         53.4115         38.8834         54.5097        -12.7682
            1488         56.6402         40.6507         59.6776        -11.8344
            1489         58.8571         42.4211         62.6028        -11.5640
            1490         61.9772         43.9076         67.9484        -9.65694
            1491         64.6013         45.0237         72.2063        -7.81981
            1492         65.8841         46.2761         73.9992        -7.01785
            1493         68.7258         47.0009         78.2973        -4.60890
            1494         74.3856         47.6766         85.7094    -357.867E-03
            1495         76.1896         47.5581         87.8328         1.37025
            1496         80.1241         46.9800         92.3120         3.05847
            1497         82.8636         46.1286         95.3179         4.07829
            1498         85.7440         44.9314         98.4587         4.58197
            1499         89.1709         43.3662         102.320         3.59297
            1500         90.5378         42.7868         103.947         1.73162
            1501         91.5902         42.2910         105.085    -722.260E-03
            1502         90.6518         43.0047         104.054        -2.30007
            1503         86.4745         45.5841         99.2252        -5.07862
            1504         79.8750         48.4091         91.9404        -3.38091
            1505         76.6522         49.2957         88.1998        -2.17213
            1506         74.0354         49.3792         85.1240     256.270E-03
            1507         71.4781         49.3661         81.8487         2.11753
            1508         68.0458         49.0802         77.0075         4.85644
            1509         66.6054         47.6715         75.0338         6.07194
            1510         64.1966         47.3891         71.0440         8.06111
            1511         61.6611         46.2821         66.7667         9.87198
            1512         59.0103         44.4231         62.7011         10.9963
            1513         56.7129         43.0116         59.0394         11.8333
            1514         54.1993         41.1954         55.5022         12.1990
            1515         49.1567         37.8365         48.5995         12.4057
            1516         48.1923         38.6338         45.2123         13.3229
            1517         45.1356         37.5362         40.2959         13.1282
            1518         40.3987         34.4965         35.1587         11.8147
            1519         36.8616         32.8938         30.8287         10.6527
            1520         28.8655         28.9366         21.5782         7.18033
            1521         28.1714         29.6960         19.0404         6.18233
            1522         24.4418         27.4547         12.2258         3.15313
            1523         18.8445         20.6499         12.2240        -3.25032
            1524         22.8528         22.9360         17.8545        -5.38265
            1525         24.3605         22.0465         21.4674        -6.31973
            1526         31.5846         25.9801         28.8527        -8.93935
            1527         35.4194         27.8808         33.0630        -10.0971
            1528         40.2142         29.5260         39.6610        -10.6994
            1529         44.5041         31.7227         45.3640        -10.8852
            1530         48.2838         33.9929         50.3295        -10.8566
            1531         51.3204         35.7075         54.8578        -10.1361
            1532         54.8751         38.3385         59.1100        -10.2247
            1533         57.9874         40.4650         63.2624        -9.71076
            1534         61.5567         42.6549         68.3933        -8.35580
            1535         65.0302         44.6470         73.2740        -6.78103
            1536         67.4425         45.8809         76.5812        -5.54854
            1537         69.9144         46.8670         79.9355        -4.00649
            1538         73.1589         47.7045         84.1458        -1.83670
            1539         75.5667         48.1048         87.0942    -412.948E-03
            1540         77.7855         48.0595         89.7239     924.841E-03
            1541         81.1603         47.5459         93.5793         2.49041
            1542         83.3462         46.9073         96.0331         3.08716
            1543         85.9842         45.5036         98.9378         3.46597
            1544         87.2217         45.1635         100.395         2.76630
            1545         89.0819         43.8681         102.437         1.96643
            1546         89.1528         44.1270         102.610     113.681E-03
            1547         88.6787         44.5093         102.049        -1.91243
            1548         87.5956         45.2256         100.799        -2.93750
            1549         85.9093         46.1675         98.8598        -3.64306
            1550         82.8419         47.6039         95.4023        -3.49182
            1551         80.8437         48.4720         93.1806        -2.59407
            1552         78.5768         48.9895         90.5756        -1.59633
            1553         75.2275         49.2470         86.5897     370.413E-03
            1554         72.8597         49.0043         83.6376         1.86782
            1555         70.4741         48.4317         80.5463         3.37900
            1556         67.7020         47.5180         76.7879         5.10007
            1557         65.2564         46.3757         73.3912         6.45481
            1558         62.0035         44.6020         68.7758         8.01097
            1559         58.1069         42.1790         63.2577         9.37994
            1560         55.5223         40.5166         59.6007         10.0616
            1561         53.1501         39.2687         55.8295         10.9289
            1562         46.9984         34.8802         48.1733         10.8297
            1563         44.3492         33.4536         44.4323         10.9529
            1564         40.4826         31.8350         38.7314         10.9281
            1565         36.3509         28.9659         34.5600         9.81544
            1566         30.1016         26.0688         27.0829         8.14579
            1567         28.3092         26.9865         23.0178         7.40474
            1568         20.4777         21.7793         14.6735         4.05225
            1569         18.9402         21.3353         9.43484         2.29603
            1570         12.4078         13.7910         8.68515        -1.64400
            1571         16.3256         15.0235         15.4822        -3.35239
            1572         19.7663         15.4255         20.2529        -4.28149
            1573         24.7041         18.4978         25.1135        -5.83037
            1574         32.1949         21.7464         34.0229        -6.97428
            1575         37.2611         25.0824         39.6143        -7.82280
            1576         41.9380         28.1830         45.1550        -8.12696
            1577         46.1228         31.0817         50.3256        -8.01632
            1578         49.9355         33.8527         55.1114        -7.65829
            1579         53.5805         36.8170         58.8961        -8.46554
            1580         58.0877         39.9764         65.0298        -6.99641
            1581         61.4153         42.3243         69.1573        -6.44940
            1582         65.7170         45.1352         74.6906        -4.96742
            1583         68.5992         46.6329         78.3168        -4.07614
            1584         71.7080         48.3124         82.2253        -2.54614
            1585         73.7213         48.5758         84.7546        -1.72310
            1586         77.1219         49.7499         88.8393    -132.855E-03
            1587         79.7149         49.1840         91.9433         1.15025
            1588         81.7482         48.8409         94.3002         1.87139
            1589         83.5658         48.2636         96.3877         2.25832
            1590         85.0488         47.5485         98.0833         2.29608
            1591         86.7366         45.8887         99.9280         2.40958
            1592         87.5868         45.6135         100.948         1.29049
            1593         88.0075         45.3196         101.430     202.014E-03
            1594         87.4876         45.8313         100.853        -1.22562
            1595         86.6421         46.3995         99.8703        -2.14369
            1596         85.1354         47.6415         98.1816        -2.32527
            1597         83.6415         48.1351         96.4402        -2.60518
            1598         81.4313         49.5942         93.9167        -1.71749
            1599         78.5812         49.8717         90.5691    -792.143E-03
            1600         76.4044         49.9911         87.9488     250.069E-03
            1601         74.0467         49.7035         85.0553         1.36862
            1602         71.6185         49.0311         82.0349         2.42934
            1603         69.2289         47.9134         78.9933         3.73431
            1604         65.3766         45.9342         74.1330         4.95592
            1605         62.2381         44.0287         70.0214         6.19148
            1606         57.7745         40.9167         64.4544         6.99064
            1607         54.2341         38.4672         59.7864         7.89554
            1608         49.9843         35.0926         54.9100         7.71932
            1609         46.8554         33.3832         50.1442         8.95401
            1610         41.2327         29.1649         43.7531         8.39163
            1611         36.8881         26.6945         38.1949         8.34427
            1612         32.0377         23.1089         33.2843         7.15799
            1613         25.5006         19.4678         26.0128         5.80328
            1614         21.3220         18.0058         20.9014         4.82679
            1615         17.8533         17.2353         16.0110         3.70944
            1616         13.2102         14.8425         8.58164         1.62651
            1617         7.88025         7.53017         8.04168    -652.916E-03
            1618         12.0299         6.98786         13.6581        -1.26298
            1619         17.2105         9.23146         19.3677        -2.21107
            1620         22.5009         11.9003         25.2778        -2.97305
            1621         27.5956         15.2900         30.9933        -3.69824
            1622         35.1680         20.9636         39.6067        -4.43179
            1623         40.0106         24.8591         45.2057        -4.58602
            1624         44.6289         28.7372         50.5877        -4.49255
            1625         49.0498         32.5772         55.7157        -4.29847
            1626         53.3420         36.3237         60.6172        -4.21727
            1627         57.7569         39.9263         65.5475        -4.55888
            1628         61.7325         43.4213         70.3567        -3.18340
            1629         66.7438         46.8373         76.1847        -2.89699
            1630         70.1495         49.0774         80.2324        -2.05965
            1631         73.1550         50.7006         83.8200        -1.29633
            1632         75.7750         51.6970         86.9739    -604.201E-03
            1633         77.9949         51.3322         89.7516     36.8058E-03
            1634         80.3610         51.4491         92.5908     716.649E-03
            1635         82.2126         50.9047         94.8171         1.15045
            1636         83.7725         50.0350         96.6739         1.36159
            1637         85.0423         48.9674         98.1607         1.36004
            1638         86.0371         47.8421         99.2959         1.20721
            1639         86.8529         46.7835         100.201     854.701E-03
            1640         86.9246         46.7826         100.296     79.6962E-03
            1641         86.6502         47.0254         99.9821    -845.858E-03
            1642         85.8178         47.9494         99.0448        -1.26755
            1643         84.6828         49.1096         97.7426        -1.40237
            1644         83.3186         50.2786         96.1393        -1.29569
            1645         81.5519         50.7733         94.0382        -1.18774
            1646         79.4972         51.6599         91.5367    -536.906E-03
            1647         77.3283         51.8805         88.8763     100.762E-03
            1648         74.9147         51.5631         85.9185     753.448E-03
            1649         72.2448         50.6538         82.6783         1.38565
            1650         69.2560         49.0409         79.1058         2.08812
            1651         65.7154         46.5437         74.8711         3.22914
            1652         62.0326         44.1664         70.6264         3.08727
            1653         56.5974         39.7198         64.1666         4.35627
            1654         52.1773         36.0208         59.1129         4.46931
            1655         47.6754         32.1269         53.9796         4.51705
            1656         43.1588         28.2221         48.8136         4.51109
            1657         38.6418         25.2277         42.9657         5.61621
            1658         32.7878         20.2330         36.6535         4.61147
            1659         27.5907         16.2041         30.8996         3.85523
            1660         22.4871         12.9766         25.1613         3.19865
            1661         17.3438         10.6805         19.3582         2.49999
            1662         12.1190         9.08208         13.3533         1.56536
            1663         7.29748         7.54796         6.92718     440.310E-03
            1664         63.3473         72.1397         41.6644         5.11455
            1665         64.6863         72.3454         41.7234         8.71996
            1666         65.5883         72.0091         41.8886         11.2283
            1667         66.1640         71.0061         42.3670         13.5297
            1668         66.4984         70.0044         43.3382         15.0232
            1669         66.7093         69.2687         44.6465         15.8248
            1670         67.7897         70.4369         46.2047         15.8507
            1671         66.8265         68.6012         47.7555         15.8656
            1672         66.4872         68.0330         48.7645         15.6171
            1673         66.0578         68.0347         51.2217         14.0961
            1674         65.1591         67.0285         53.1461         12.7892
            1675         64.3089         66.3674         55.1573         10.7908
            1676         63.8638         66.4126         56.2029         8.97698
            1677         63.1424         65.0251         58.3294         7.05338
            1678         62.7931         64.7349         59.6550         4.29786
            1679         62.8289         63.0867         62.4657         1.45249
            1680         63.2026         62.8239         63.4490        -1.63980
            1681         63.9371         62.7592         63.6189        -5.61387
            1682         68.0001         60.2430         68.3418        -12.1286
            1683         73.8610         57.9815         71.7430        -19.2033
            1684         82.5595         54.8261         73.8894        -28.2936
            1685         67.9964         77.5349         45.8432         4.64391
            1686         69.2363         77.8867         45.0584         8.29686
            1687         69.6413         77.5307         44.5668         10.1324
            1688         70.6532         76.3418         44.5828         13.9010
            1689         70.0182         74.6607         44.9522         14.8749
            1690         70.1582         74.4666         45.8027         15.1633
            1691         68.4003         71.9919         48.7788         14.4692
            1692         67.6585         71.3120         49.9694         13.6474
            1693         67.0369         71.5057         51.1531         11.8601
            1694         65.6576         70.0206         52.9203         10.2142
            1695         64.6256         69.1268         54.3583         8.18024
            1696         63.8825         68.6464         55.3514         5.90312
            1697         63.1056         67.5359         56.8299         3.14351
            1698         62.7985         66.9510         57.5953    -138.581E-03
            1699         62.8369         66.5536         57.9103        -2.55736
            1700         63.6798         64.2761         60.6100        -6.97369
            1701         66.3332         62.6903         61.7354        -13.2786
            1702         72.2585         60.2469         63.3024        -21.5884
            1703         73.9302         84.3511         51.4641         3.78883
            1704         71.9994         81.5418         47.6564         7.06413
            1705         73.2825         81.8224         46.5392         10.2870
            1706         73.9476         82.1168         46.3316         11.2999
            1707         72.9696         79.8266         45.4219         13.1021
            1708         72.7604         78.8414         45.5678         14.0749
            1709         72.8533         78.8026         46.0203         14.2175
            1710         70.3923         74.9850         47.1525         14.6595
            1711         70.1705         75.2303         47.9999         13.8005
            1712         69.7686         75.5618         48.7234         12.4596
            1713         68.6090         74.8140         49.7204         10.9198
            1714         66.8149         72.9911         51.3270         9.10091
            1715         65.6750         72.0071         52.3888         7.21007
            1716         64.3962         70.5381         53.8355         4.84586
            1717         63.7927         70.1628         54.2083         1.96304
            1718         63.6720         70.2055         53.6099        -2.23603
            1719         63.4121         68.5282         54.9495        -4.86903
            1720         64.7452         68.3367         53.4632        -10.2830
            1721         68.4015         66.8801         52.4224        -17.9231
            1722         72.2589         64.8990         53.2616        -23.3044
            1723         77.5520         88.4417         54.5873         3.66974
            1724         76.3505         86.6072         50.4863         7.12272
            1725         76.2482         85.6862         48.3738         9.60221
            1726         75.8888         84.2964         46.8367         11.6578
            1727         76.1641         84.2123         46.4625         12.4260
            1728         75.0508         82.2962         46.0492         13.2803
            1729         74.6152         81.6550         46.1965         13.3908
            1730         73.5306         80.3056         46.5765         13.2759
            1731         73.1667         80.2328         46.8597         12.6481
            1732         71.3245         78.2566         47.8107         11.8142
            1733         70.3066         77.6886         48.3893         10.4127
            1734         68.1859         76.0297         49.6092         7.73516
            1735         67.1896         75.0520         50.2894         6.50493
            1736         66.6920         75.3313         49.9592         3.67839
            1737         65.4089         73.6786         50.9817         1.51800
            1738         65.0364         73.2391         50.7377        -1.57503
            1739         64.7747         71.8037         50.8639        -5.91806
            1740         66.2726         72.2962         48.5809        -10.2863
            1741         68.6162         71.4532         46.9700        -15.8387
            1742         81.0737         92.4149         57.8553         3.25999
            1743         80.0044         91.1180         53.9662         5.86381
            1744         79.3298         89.6670         50.2405         8.82903
            1745         79.2800         89.0372         48.4767         10.3911
            1746         78.6744         87.8246         47.2312         11.4568
            1747         78.8090         87.9213         46.6821         11.6309
            1748         76.9571         85.3030         46.1825         12.2810
            1749         76.0003         84.2307         46.1435         12.0929
            1750         75.2391         83.7606         46.1702         11.2640
            1751         73.2664         81.6018         46.7563         10.6201
            1752         71.6951         80.4415         47.2268         8.90654
            1753         70.8424         79.9743         47.3777         7.46347
            1754         69.3634         78.3611         48.1931         6.44749
            1755         68.3241         77.5843         48.4707         4.47276
            1756         67.3376         76.9036         48.2641     902.750E-03
            1757         66.4762         75.6968         48.6071        -1.39314
            1758         66.4088         75.1649         47.9693        -4.65154
            1759         67.5602         75.4238         45.9423        -8.75745
            1760         70.0875         75.9531         42.7199        -13.7005
            1761         84.1520         95.8682         60.7424         2.85635
            1762         82.6005         94.1633         54.9661         6.07303
            1763         82.9213         94.3119         52.4900         7.66904
            1764         81.2362         91.5020         48.1640         10.2312
            1765         80.5347         90.4522         47.0559         10.7438
            1766         79.6018         89.2769         46.2112         10.8966
            1767         76.7981         86.3252         45.5445         10.0540
            1768         75.0686         84.5836         45.7326         9.26746
            1769         74.2284         84.2576         45.4933         7.61660
            1770         73.0124         83.0950         45.7646         6.69443
            1771         71.8582         82.3194         45.6204         4.52175
            1772         70.2325         80.6704         46.0435         2.53209
            1773         70.4649         81.2229         44.7771    -159.922E-03
            1774         69.5184         79.9170         44.7781        -2.55129
            1775         69.7567         79.5792         43.5096        -5.84604
            1776         71.6003         80.6695         40.7133        -9.05122
            1777         74.3041         81.7047         37.0128        -12.9049
            1778         86.8090         98.9804         62.1388         3.05417
            1779         86.0457         98.3059         58.9043         4.49908
            1780         85.1530         97.2009         54.4275         6.60966
            1781         84.6704         96.4191         51.6393         7.84896
            1782         83.8929         95.2412         49.3938         8.78852
            1783         83.1419         94.2009         47.5383         9.25610
            1784         81.5517         92.1574         46.1618         9.67677
            1785         80.5809         91.1387         45.3789         9.37297
            1786         78.5716         88.9308         44.9076         8.97738
            1787         78.0810         88.8063         44.3512         7.78296
            1788         76.2888         87.1114         44.1936         6.53906
            1789         74.9212         85.7723         44.3080         5.58258
            1790         74.2053         85.3242         43.8619         3.86521
            1791         73.7625         85.0760         43.2193         1.99967
            1792         72.7558         84.0020         43.0474     144.559E-03
            1793         72.6069         83.6982         42.0222        -2.42797
            1794         72.8372         83.4200         40.6390        -5.32121
            1795         74.2117         83.9608         38.2425        -8.29327
            1796         77.0887         85.9537         34.5802        -10.5062
            1797         89.5300         101.991         65.0388         2.36531
            1798         88.7402         101.571         60.0477         4.14623
            1799         87.1698         99.7521         55.5564         5.87229
            1800         86.0663         98.2379         51.0517         7.43101
            1801         84.9336         96.6801         48.8670         8.22919
            1802         85.1069         96.9847         47.7588         7.91878
            1803         83.4832         94.8925         46.2674         8.45820
            1804         82.4817         93.7711         45.2708         8.28376
            1805         81.5137         92.9114         44.1600         7.41215
            1806         79.3505         90.5923         43.6186         6.79367
            1807         78.1562         89.4609         43.2789         5.88354
            1808         77.4321         88.9152         42.7277         4.59361
            1809         76.5247         88.1176         42.2357         3.11787
            1810         74.6688         86.1818         42.2147         1.18016
            1811         74.8922         86.4301         41.0671    -731.240E-03
            1812         76.0206         87.5026         39.3748        -2.41226
            1813         76.0005         87.0679         38.2830        -4.57900
            1814         76.5411         86.9273         36.6629        -6.95290
            1815         91.6441         104.340         67.0912         1.90901
            1816         90.6197         103.803         61.6601         3.43507
            1817         89.7723         103.033         57.3002         4.60930
            1818         88.9049         102.016         53.6612         5.52757
            1819         88.1785         101.110         50.5786         6.00224
            1820         87.0277         99.6430         48.1006         6.43724
            1821         85.6637         98.0046         45.7406         6.42791
            1822         84.6613         96.8700         44.4323         6.15513
            1823         83.3843         95.4187         43.5153         5.96656
            1824         81.6879         93.4734         43.0467         5.95379
            1825         80.2192         92.0387         42.0838         4.70094
            1826         79.4721         91.3601         41.3398         3.51086
            1827         78.9294         90.8537         40.6289         2.31171
            1828         78.7059         90.6312         39.6774     878.841E-03
            1829         78.7302         90.5423         38.3850    -928.353E-03
            1830         77.9041         89.4182         37.7619        -2.83317
            1831         78.8368         89.9702         36.0167        -4.61267
            1832         81.6858         92.4115         33.1030        -5.65622
            1833         82.2272         92.0939         31.1733        -7.72704
            1834         93.3947         106.273         68.8049         1.48742
            1835         92.2231         105.696         63.0342         2.74232
            1836         91.2170         104.844         58.2566         3.75670
            1837         90.2792         103.811         54.4334         4.52369
            1838         89.1071         102.391         50.1688         5.03606
            1839         88.0365         101.023         48.2601         5.51069
            1840         86.5762         99.2014         46.0960         5.84453
            1841         86.1199         98.7360         44.7403         5.27970
            1842         84.8904         97.3801         42.7896         4.44990
            1843         83.2105         95.4463         42.0029         4.42597
            1844         81.9762         94.0931         41.4251         4.01501
            1845         81.1982         93.3137         40.2129         2.64783
            1846         81.0160         93.1154         39.2922         1.62833
            1847         80.9126         92.9300         38.1299     360.125E-03
            1848         80.7561         92.5963         36.9527        -1.10251
            1849         81.1361         92.8184         35.9652        -2.04492
            1850         82.2459         93.6085         34.2087        -3.35857
            1851         83.5534         94.5277         32.4219        -4.44495
            1852         84.4899         94.8899         30.5754        -5.79912
            1853         94.7619         107.785         70.1085         1.10624
            1854         93.4765         107.174         64.0768         2.09178
            1855         92.3736         106.288         59.0113         2.91703
            1856         91.3851         105.245         55.0825         3.54945
            1857         90.5719         104.332         51.1711         3.57672
            1858         89.4688         102.948         48.7149         4.01631
            1859         87.9529         101.062         45.9037         4.24832
            1860         87.1533         100.122         44.1883         3.77926
            1861         85.7172         98.4138         42.3986         3.51813
            1862         84.7062         97.2374         41.3955         3.24722
            1863         83.6707         96.0543         40.5229         2.86624
            1864         83.4226         95.7481         39.4003         1.97906
            1865         82.8991         95.0970         38.2879         1.14459
            1866         82.2587         94.3173         37.4441     319.657E-03
            1867         82.6526         94.4823         35.7133        -1.06174
            1868         83.1381         94.8162         34.7427        -1.72774
            1869         83.8080         95.3202         33.7487        -2.29444
            1870         85.0666         96.2689         32.1285        -3.12795
            1871         95.6877         108.863         70.7390     778.143E-03
            1872         93.7315         107.786         61.7732         1.83208
            1873         92.6580         106.800         57.1317         2.37776
            1874         91.7705         105.847         53.2458         2.51995
            1875         90.6596         104.497         50.0111         2.85563
            1876         89.9070         103.563         48.0928         2.93022
            1877         88.7164         102.083         45.6004         2.90357
            1878         87.9190         101.110         43.8215         2.38187
            1879         86.8710         99.8217         42.4511         2.42513
            1880         85.7537         98.4638         40.9163         2.09812
            1881         85.0617         97.6280         40.0839         1.90283
            1882         84.4600         96.8652         38.9026         1.35779
            1883         84.0208         96.2547         37.6861     764.019E-03
            1884         84.0383         96.1695         36.8766     356.138E-03
            1885         83.8636         95.7905         35.6161    -395.238E-03
            1886         84.7234         96.4566         34.1719    -923.571E-03
            1887         85.3343         96.9251         33.2491        -1.24399
            1888         86.6005         97.9166         31.6703        -1.82788
            1889         96.1180         109.510         70.3686     450.359E-03
            1890         94.8563         108.953         64.1264     706.107E-03
            1891         93.9365         108.268         59.6671     826.112E-03
            1892         92.8183         107.145         55.0130         1.01021
            1893         91.7153         105.856         51.3752         1.30293
            1894         90.5935         104.472         48.2732         1.37880
            1895         89.3556         102.915         45.7126         1.61515
            1896         88.3485         101.653         43.6658         1.18795
            1897         87.2676         100.303         42.1339         1.39253
            1898         86.4897         99.3388         41.1183         1.43853
            1899         85.5545         98.1486         39.5028         1.01439
            1900         85.2083         97.6698         38.6152     699.425E-03
            1901         84.8187         97.0807         37.3482     389.623E-03
            1902         84.6710         96.7442         36.1424     87.4190E-03
            1903         85.0338         96.9259         34.8752    -215.201E-03
            1904         85.4345         97.1714         33.8670    -481.526E-03
            1905         86.2757         97.8079         32.5678    -781.682E-03
            1906         87.5201         98.8516         31.2881    -827.657E-03
            1907         96.4311         109.792         70.9670     7.92036E-03
            1908         95.0242         109.156         64.2381    -100.743E-03
            1909         94.3129         108.642         60.8421    -139.507E-03
            1910         92.6450         106.976         53.9181    -77.7197E-03
            1911         91.6247         105.766         50.5942    -82.5835E-03
            1912         90.5720         104.458         47.7914     31.5406E-03
            1913         89.4886         103.093         45.4571    -57.2747E-03
            1914         88.6053         101.977         43.8199    -62.1154E-03
            1915         87.5986         100.708         42.2007    -428.132E-03
            1916         86.7543         99.6372         40.8489    -239.380E-03
            1917         85.9525         98.6016         39.4972    -93.1014E-03
            1918         85.5446         98.0591         38.7312    -208.216E-03
            1919         85.0164         97.1925         36.6376     6.97706E-03
            1920         85.0616         97.0823         35.6287    -2.62306E-03
            1921         85.2908         97.1745         34.7176    -33.9178E-03
            1922         85.8245         97.5279         33.5321    -149.341E-03
            1923         86.7205         98.2275         32.2631    -95.0866E-03
            1924         87.7790         99.1105         31.1731     146.468E-03
            1925         96.2032         109.386         71.4341    -512.108E-03
            1926         95.2209         109.185         65.7705    -576.950E-03
            1927         93.6715         107.997         58.8233        -1.07980
            1928         92.9742         107.284         56.1066        -1.37784
            1929         91.8576         106.029         51.7770        -1.25718
            1930         90.6424         104.535         48.3482        -1.29205
            1931         89.5743         103.193         46.0270        -1.40698
            1932         88.7510         102.154         44.7425        -1.82297
            1933         87.4297         100.502         42.2051        -1.12087
            1934         86.2517         99.0189         40.3822    -912.160E-03
            1935         85.5626         98.1275         39.1791    -706.285E-03
            1936         85.0594         97.4547         38.1912    -585.425E-03
            1937         84.6376         96.8761         37.2941    -446.062E-03
            1938         84.7682         96.8195         35.9547    -38.1708E-03
            1939         85.1265         97.0085         34.7773     193.261E-03
            1940         85.7792         97.4294         33.2993     594.031E-03
            1941         86.6565         98.1397         32.2021     650.290E-03
            1942         87.5157         98.8174         31.1999         1.12229
            1943         95.4205         108.570         70.4716    -899.367E-03
            1944         94.2918         108.251         63.9009        -1.48332
            1945         93.1789         107.377         58.5361        -1.95488
            1946         91.9906         106.125         53.5669        -2.24450
            1947         91.1441         105.108         50.9891        -2.52127
            1948         90.2042         103.952         48.3427        -2.52635
            1949         89.2342         102.732         46.4735        -2.79666
            1950         87.6276         100.739         43.8976        -2.91417
            1951         86.9683         99.9408         42.4821        -2.32996
            1952         85.7699         98.4772         40.7658        -1.94702
            1953         85.0403         97.5743         39.6170        -1.55025
            1954         84.6314         97.0642         38.9916        -1.33625
            1955         84.0607         96.3042         37.7373    -784.810E-03
            1956         84.2239         96.3128         36.4753    -179.909E-03
            1957         83.7905         95.7353         35.7611     335.950E-03
            1958         84.5785         96.2228         33.8428         1.39005
            1959         85.7342         97.1596         32.4422         1.82082
            1960         86.8180         98.0551         31.3343         2.09902
            1961         94.3203         107.304         69.6537        -1.24504
            1962         93.5129         107.167         64.4656        -2.04878
            1963         92.2850         106.251         57.9784        -2.94069
            1964         91.1246         104.963         53.7329        -3.61206
            1965         90.5092         104.251         51.0657        -3.63082
            1966         89.2111         102.637         47.8823        -3.91826
            1967         87.6005         100.613         45.6127        -4.45641
            1968         86.6249         99.4743         43.7157        -3.92691
            1969         85.2116         97.7965         42.4512        -3.93064
            1970         85.2836         97.9165         41.5265        -3.01799
            1971         83.8464         96.2528         40.4004        -2.71234
            1972         83.3663         95.6768         39.2318        -1.85432
            1973         82.4960         94.6627         38.3275        -1.11733
            1974         82.3113         94.3692         37.4017    -305.078E-03
            1975         82.5340         94.3899         35.9190     935.875E-03
            1976         83.1502         94.7922         34.5905         1.89678
            1977         83.8769         95.3300         33.5137         2.53006
            1978         85.5749         96.7334         31.7397         3.08704
            1979         92.9002         105.678         68.5631        -1.55799
            1980         91.9918         105.533         61.8693        -2.98630
            1981         90.6694         104.201         57.1458        -4.16798
            1982         88.9638         102.193         50.2399        -5.20574
            1983         87.6803         100.567         47.7403        -5.65733
            1984         86.2296         98.7926         45.5495        -5.79524
            1985         85.6253         98.1494         44.2400        -5.27109
            1986         84.8311         97.2827         43.0261        -4.72006
            1987         82.8680         95.0316         42.1277        -4.64849
            1988         82.3717         94.5659         41.1017        -3.64520
            1989         81.2333         93.3487         40.3095        -2.75994
            1990         80.7298         92.8122         39.5823        -1.83988
            1991         80.1723         92.1812         38.8088    -714.929E-03
            1992         80.4796         92.3868         37.5618     567.688E-03
            1993         80.9701         92.6698         36.1460         1.96450
            1994         82.2289         93.6540         34.4003         3.10151
            1995         83.1716         94.1664         32.7033         4.48133
            1996         85.4159         96.0322         30.4939         4.90623
            1997         90.7827         103.498         65.5824        -2.32551
            1998         90.3503         103.395         62.3018        -3.30820
            1999         89.4877         102.674         57.1578        -4.75271
            2000         88.5363         101.531         53.5703        -5.75621
            2001         87.6041         100.320         50.9080        -6.47777
            2002         86.4229         98.8430         47.5946        -6.78549
            2003         85.3976         97.6135         45.9467        -6.78902
            2004         84.5228         96.6448         44.6949        -6.47516
            2005         83.4175         95.4278         43.6621        -6.11619
            2006         80.6615         92.5712         41.8405        -4.45182
            2007         79.2492         91.0618         41.7223        -3.94764
            2008         79.1363         91.0626         40.7862        -2.62984
            2009         78.2379         90.1277         39.8627    -787.152E-03
            2010         78.2477         90.0607         38.8575     685.908E-03
            2011         78.6111         90.2157         37.4986         2.42625
            2012         79.6839         90.9283         35.6387         4.16362
            2013         80.7602         91.4996         33.7870         5.77267
            2014         82.7947         93.0546         31.4429         6.65970
            2015         88.5164         100.845         64.1610        -2.52821
            2016         87.5775         100.174         59.2068        -4.49394
            2017         87.7533         100.490         55.9759        -5.60212
            2018         86.6030         98.9683         51.7026        -7.05004
            2019         85.7052         97.7380         49.7284        -7.74834
            2020         84.9635         96.7525         48.1616        -8.12327
            2021         83.4914         94.9539         46.0453        -8.29809
            2022         82.8008         94.1531         45.4493        -8.26086
            2023         80.9351         92.0847         44.4148        -7.91922
            2024         80.5895         92.0096         43.5989        -6.82061
            2025         79.0148         90.4482         43.0749        -5.86121
            2026         77.4002         88.8549         42.8114        -4.71806
            2027         76.8707         88.4764         42.2157        -3.36440
            2028         76.0869         87.7729         41.3976        -1.28696
            2029         75.7220         87.3551         40.5746     580.512E-03
            2030         75.9648         87.4379         39.3969         2.44485
            2031         76.3813         87.3783         37.7933         4.93674
            2032         77.1368         87.5819         36.2107         6.82368
            2033         79.1381         88.8194         33.4513         8.68140
            2034         85.9864         97.9651         62.1050        -2.80387
            2035         85.3412         97.4848         57.7127        -5.00628
            2036         84.8122         96.7727         54.2824        -6.69932
            2037         84.4129         96.0814         51.5830        -7.94274
            2038         83.2400         94.3112         48.5560        -9.23736
            2039         82.3272         93.0532         47.2608        -9.71351
            2040         81.6849         92.3175         46.2772        -9.66985
            2041         80.9177         91.5281         45.5248        -9.39105
            2042         79.7796         90.4141         44.8539        -8.82483
            2043         78.4497         89.1382         44.4451        -8.06481
            2044         76.9355         87.7251         44.2168        -7.00400
            2045         75.3892         86.2875         44.1626        -5.72562
            2046         73.8492         84.7575         44.3833        -4.53918
            2047         73.2729         84.5010         43.5403        -1.99426
            2048         72.9876         84.2739         42.6404     350.536E-03
            2049         72.6021         83.6299         41.8214         2.92067
            2050         74.4749         85.2580         39.2210         5.26629
            2051         74.6600         84.5683         37.9247         7.98457
            2052         76.9737         85.6455         34.5592         10.8828
            2053         83.1237         94.7240         59.6933        -3.05591
            2054         82.7705         94.4082         55.9000        -5.49731
            2055         82.5383         93.9003         52.9179        -7.39386
            2056         82.2428         93.1750         50.4129        -8.90799
            2057         81.5317         91.9026         48.0654        -10.1386
            2058         80.2968         90.1060         47.0031        -10.8699
            2059         79.2742         88.7862         46.2185        -11.0879
            2060         77.9831         87.2731         45.8342        -11.0165
            2061         76.9741         86.3244         45.6671        -10.4850
            2062         76.4306         86.2560         45.3326        -9.25031
            2063         74.1840         83.8425         45.8237        -8.48277
            2064         72.4807         82.4505         46.0457        -6.62424
            2065         71.8459         82.1594         45.8414        -5.05072
            2066         70.3740         80.9055         45.8000        -2.20873
            2067         70.7171         81.5386         44.5719     119.868E-03
            2068         70.5665         81.1874         43.5993         3.00237
            2069         69.6275         79.6187         43.8767         5.06907
            2070         72.2329         81.1665         39.9063         9.59388
            2071         74.7135         81.8498         36.4800         13.3892
            2072         79.9497         91.1438         56.9140        -3.31253
            2073         79.9579         91.0504         53.8136        -5.97014
            2074         80.0800         90.8013         51.4195        -8.01910
            2075         78.8156         88.4858         48.4823        -10.3541
            2076         78.4986         87.6447         47.3714        -11.3761
            2077         78.0886         86.8561         46.6188        -11.9675
            2078         77.3791         85.8980         46.2265        -12.1507
            2079         75.7343         83.8401         46.1825        -12.1880
            2080         74.9296         83.3651         46.2559        -11.2728
            2081         73.5708         82.0614         46.6081        -10.5040
            2082         72.3832         81.2271         46.8978        -9.15529
            2083         70.9401         80.0221         47.3660        -7.65404
            2084         69.6987         79.1531         47.6327        -5.60038
            2085         68.2417         77.8718         48.0155        -2.97095
            2086         67.1066         76.6078         48.3646    -413.261E-03
            2087         67.2599         76.8265         47.3043         2.45738
            2088         66.6827         75.3635         47.4409         5.52542
            2089         68.7868         76.8562         44.1371         9.46716
            2090         70.7584         76.3941         41.8462         14.3340
            2091         76.4927         87.2419         53.6815        -3.72149
            2092         77.3865         87.6752         50.5549        -7.71016
            2093         76.8789         86.3997         48.5370        -9.71589
            2094         76.5223         85.2557         47.2167        -11.3019
            2095         76.1128         84.1742         46.4808        -12.3812
            2096         75.7566         83.3697         46.1847        -12.9863
            2097         75.2767         82.6428         46.1659        -13.1748
            2098         73.9234         80.7792         46.4205        -13.3459
            2099         73.3382         80.5750         46.8127        -12.4721
            2100         71.8991         79.2441         47.5001        -11.5136
            2101         69.6043         76.5763         48.9121        -10.5506
            2102         68.6154         76.2272         49.4168        -8.60952
            2103         67.5558         75.4495         50.0088        -6.91417
            2104         66.6718         75.3039         49.9773        -3.66070
            2105         65.8830         74.6363         50.0203    -656.186E-03
            2106         64.7216         72.6433         51.3802         1.20367
            2107         64.7487         72.3049         50.8858         4.25551
            2108         65.9597         71.3968         49.4866         10.6057
            2109         69.0350         71.8823         46.2589         16.1666
            2110         72.6126         82.7668         49.7167        -4.66870
            2111         73.2767         82.7557         47.9526        -7.95557
            2112         72.7693         81.2536         46.3227        -10.1868
            2113         72.7790         80.0466         45.4606        -12.4048
            2114         73.5657         80.7000         45.6607        -12.9013
            2115         72.6750         78.6887         45.5747        -14.1292
            2116         71.0235         75.8430         46.0668        -14.8758
            2117         71.0459         76.0727         46.9621        -14.4633
            2118         70.2827         75.5144         48.0188        -13.6326
            2119         69.1859         74.7148         49.1622        -12.3910
            2120         68.6880         74.9894         49.6498        -10.8434
            2121         67.6691         74.4745         50.3981        -9.05670
            2122         66.1549         72.3425         51.9661        -8.20401
            2123         65.0805         71.8684         52.6980        -5.18479
            2124         64.1184         70.7792         53.6535        -2.60359
            2125         63.5109         69.8157         54.3295     502.608E-03
            2126         63.3626         68.6817         54.9142         4.23002
            2127         63.8456         68.2406         54.5977         7.40169
            2128         66.2659         67.2027         53.5209         14.2270
            2129         71.2635         67.6461         49.5917         21.5858
            2130         68.1370         77.6486         45.8560        -4.87279
            2131         68.9210         77.4691         44.8063        -8.40926
            2132         69.2493         77.0315         44.3122        -10.1894
            2133         69.6018         75.8844         43.9890        -12.7674
            2134         69.9454         75.1914         44.3971        -14.2102
            2135         70.1176         74.5748         45.3486        -15.0603
            2136         69.4436         73.2616         45.9340        -15.3885
            2137         69.2312         72.9135         47.2188        -15.1641
            2138         68.6517         72.5225         48.7285        -14.2944
            2139         67.8794         71.8989         49.9238        -13.3571
            2140         67.1350         71.5595         51.0303        -12.0272
            2141         65.2784         70.3536         53.3025        -8.57332
            2142         64.1047         69.0656         54.9197        -6.22468
            2143         63.2734         68.0038         56.3184        -3.51686
            2144         62.7409         66.4831         58.1696    -57.5611E-03
            2145         63.0148         64.7723         60.3349         3.79237
            2146         63.6987         64.2557         60.6631         6.99230
            2147         66.0068         62.9250         61.4747         12.7344
            2148         69.0264         63.0503         58.6911         18.6651
            2149         61.5917         70.3029         40.3060        -4.47572
            2150         64.5625         72.5760         41.8527        -7.89282
            2151         66.1942         71.1143         42.3549        -13.4478
            2152         67.0945         70.8102         43.5836        -14.9913
            2153         67.3906         70.4960         44.5385        -15.5768
            2154         67.2560         69.6387         45.8400        -15.9661
            2155         67.7450         70.2841         47.6718        -15.5724
            2156         66.4131         67.9699         49.2215        -15.4230
            2157         65.7611         67.4184         51.5149        -14.1251
            2158         65.2315         66.9351         52.8574        -13.1523
            2159         64.6376         66.9042         54.4830        -11.2337
            2160         63.6302         65.2404         56.8995        -9.43540
            2161         63.0959         65.5614         58.1967        -6.09343
            2162         62.7990         65.0293         59.3843        -4.08760
            2163         62.7055         64.2567         60.9785    -992.136E-03
            2164         63.2966         62.8545         63.4668         2.37430
            2165         64.6261         62.0233         65.0217         6.70009
            2166         67.1823         60.9293         66.4032         12.0775
            2167         71.6799         58.8018         70.6312         16.7813
            2168         80.6364         55.3355         75.1367         25.5108
            2169         57.0979         65.0925         36.3162        -4.76742
            2170         59.7937         66.5181         38.2254        -8.79635
            2171         61.5548         66.7594         39.4719        -11.6799
            2172         62.7765         66.8368         40.5915        -13.4048
            2173         63.5259         65.3755         42.6394        -15.6103
            2174         63.4500         64.0052         44.2700        -16.3597
            2175         64.5029         64.9121         45.9937        -16.5043
            2176         65.1330         65.5082         47.8188        -16.2979
            2177         64.7921         64.7047         49.6496        -15.9038
            2178         64.6196         64.7556         52.4936        -14.4462
            2179         64.1274         64.1067         54.3047        -13.3535
            2180         63.3986         62.8016         57.0691        -11.5829
            2181         62.9478         61.5517         59.7611        -9.67510
            2182         62.8555         61.5659         61.5513        -7.33379
            2183         62.9711         61.2454         63.7420        -4.29010
            2184         63.1292         61.4554         64.4647        -2.20124
            2185         64.2197         60.5590         67.2574         1.44436
            2186         66.0471         60.0028         69.5354         5.74537
            2187         68.9788         59.2161         71.9457         10.5780
            2188         73.3813         57.6515         76.8210         14.0059
            2189         82.5337         54.8802         82.1718         22.7843
            2190         105.951         45.7623         102.131         33.5380
            2191         2.95199     29.9178E-03         2.96098     61.7486E-03
            2192         9.47568    -202.428E-03         9.37277    -21.7797E-03
            2193         15.0893         1.10932         15.6134    -287.529E-06
            2194         20.1811         3.74551         21.7914     9.74037E-03
            2195         25.0219         7.40225         27.8879     16.5048E-03
            2196         29.7786         11.7818         33.8669     23.2286E-03
            2197         32.1568         14.1604         36.8067     28.5052E-03
            2198         36.9339         19.1634         42.5768     40.2034E-03
            2199         41.7230         24.3067         48.1769     24.9391E-03
            2200         46.4837         29.4394         53.5878     21.8824E-03
            2201         51.1572         34.4142         58.7860     23.1661E-03
            2202         55.6840         39.1077         63.7539     27.8315E-03
            2203         59.9973         43.3986         68.4657     17.4147E-03
            2204         64.0504         47.1789         72.9156     16.2173E-03
            2205         67.7813         50.3540         77.0678     18.4625E-03
            2206         71.1671         52.8633         80.9189     11.8789E-03
            2207         74.1774         54.6111         84.4502     6.81297E-03
            2208         76.8091         55.5646         87.6493     1.65052E-03
            2209         79.0738         55.7251         90.5020    -4.43386E-03
            2210         80.0764         55.5204         91.7942    -7.41158E-03
            2211         81.8471         54.6092         94.1053    -12.2028E-03
            2212         83.3312         53.1727         96.0384    -13.2610E-03
            2213         84.5610         51.4323         97.5952    -16.3741E-03
            2214         85.5347         49.6895         98.7663    -17.7461E-03
            2215         86.2243         48.2597         99.5479    -15.6734E-03
            2216         86.5901         47.4136         99.9420    -6.03968E-03
            2217         86.5902         47.3257         99.9391     1.13165E-03
            2218         86.2282         47.9933         99.5465     6.74293E-03
            2219         85.5346         49.2740         98.7667     10.9645E-03
            2220         84.5466         50.9188         97.5952     13.3375E-03
            2221         83.2984         52.6123         96.0384     14.2345E-03
            2222         81.7958         54.0561         94.1026     12.6236E-03
            2223         80.9427         54.6054         92.9945     11.5812E-03
            2224         79.0137         55.2456         90.5045     9.94917E-03
            2225         76.7508         55.1802         87.6487     3.44939E-03
            2226         74.1315         54.3286         84.4511    -2.25177E-03
            2227         71.1378         52.6881         80.9202    -6.85016E-03
            2228         67.7727         50.2976         77.0694    -11.8110E-03
            2229         64.0535         47.2221         72.9102    -12.0077E-03
            2230         60.0146         43.5121         68.4656    -20.3316E-03
            2231         55.7122         39.2958         63.7582    -19.4193E-03
            2232         51.1823         34.6560         58.7869    -20.8436E-03
            2233         46.4999         29.7097         53.5878    -23.2245E-03
            2234         41.7259         24.5851         48.1775    -26.1678E-03
            2235         36.9192         19.4296         42.5766    -27.4054E-03
            2236         34.5188         16.8921         39.7116    -27.4195E-03
            2237         29.7390         12.0154         33.8667    -24.8561E-03
            2238         24.9743         7.58755         27.8881    -19.7248E-03
            2239         20.1444         3.86930         21.7984    -12.5626E-03
            2240         15.0684         1.17185         15.6201    -959.113E-06
            2241         9.46040    -169.158E-03         9.37465     15.6510E-03
            2242         2.94361     84.4581E-03         2.98000    -63.2541E-03
            2243         2.95198         2.96097     29.9273E-03    -61.7307E-03
            2244         9.47609         9.37284    -203.093E-03     21.8227E-03
            2245         15.0920         15.6133         1.10319     626.899E-06
            2246         20.1882         21.7916         3.72595    -8.86915E-03
            2247         25.0318         27.8876         7.36329    -15.6969E-03
            2248         29.7874         33.8664         11.7282    -21.8154E-03
            2249         32.1632         36.8060         14.1063    -26.7281E-03
            2250         36.9339         42.5749         19.1336    -37.5238E-03
            2251         41.7218         48.1751         24.3579    -22.6200E-03
            2252         46.4951         53.5856         29.6612    -19.9276E-03
            2253         51.2082         58.7828         34.9331    -21.2897E-03
            2254         55.8166         63.7494         40.0906    -26.6387E-03
            2255         60.2684         68.4606         45.0534    -16.0394E-03
            2256         64.5300         72.9088         49.7719    -17.3734E-03
            2257         68.5482         77.0589         54.1915    -19.2416E-03
            2258         72.3081         80.9116         58.3009    -15.3275E-03
            2259         75.7705         84.4432         62.0502    -13.3040E-03
            2260         78.9154         87.6421         65.4261    -12.3758E-03
            2261         81.7242         90.4953         68.4166    -11.2231E-03
            2262         82.9975         91.7884         69.7637    -11.4406E-03
            2263         85.2763         94.1024         72.1631    -14.2531E-03
            2264         87.1872         96.0409         74.1683    -8.01770E-03
            2265         88.7236         97.6036         75.7653    -5.90240E-03
            2266         89.8798         98.7814         76.9598    -5.33874E-03
            2267         90.6532         99.5694         77.7572    -5.55993E-03
            2268         91.0398         99.9611         78.1600    -1.75582E-03
            2269         91.0398         99.9635         78.1547     1.64567E-03
            2270         90.6529         99.5699         77.7551    -775.549E-06
            2271         89.8798         98.7804         76.9620     1.04075E-03
            2272         88.7232         97.6029         75.7654     3.20809E-03
            2273         87.1864         96.0410         74.1655     5.43852E-03
            2274         85.2752         94.1005         72.1638     7.89120E-03
            2275         84.1815         92.9906         71.0123     9.58156E-03
            2276         81.7232         90.4969         68.4091     12.2865E-03
            2277         78.9144         87.6419         65.4231     9.04558E-03
            2278         75.7694         84.4434         62.0456     11.9040E-03
            2279         72.3067         80.9123         58.2931     14.6171E-03
            2280         68.5495         77.0615         54.1888     18.5608E-03
            2281         64.5260         72.9048         49.7668     14.2781E-03
            2282         60.2650         68.4595         45.0391     20.7819E-03
            2283         55.8177         63.7529         40.0797     20.4186E-03
            2284         51.2075         58.7833         34.9238     20.6306E-03
            2285         46.4940         53.5851         29.6502     22.2366E-03
            2286         41.7219         48.1754         24.3438     24.5175E-03
            2287         36.9351         42.5751         19.1143     25.7190E-03
            2288         34.5469         39.7104         16.5697     25.5973E-03
            2289         29.7888         33.8665         11.7212     22.6080E-03
            2290         25.0347         27.8887         7.35620     17.4289E-03
            2291         20.2014         21.7999         3.71186     11.2383E-03
            2292         15.1172         15.6265         1.07591     389.650E-06
            2293         9.49677         9.38269    -224.122E-03    -14.5327E-03
            2294         2.95765         2.96081     18.9642E-03     64.1621E-03
            2295         2.94476     86.0165E-03         2.98184     65.0425E-03
            2296         9.46114    -169.725E-03         9.37510    -13.7003E-03
            2297         15.0662         1.17401         15.6189     3.53320E-03
            2298         20.1428         3.87007         21.7970     14.7164E-03
            2299         24.9739         7.58666         27.8874     21.6083E-03
            2300         29.7388         12.0149         33.8665     28.0191E-03
            2301         32.1234         14.4122         36.8056     32.8299E-03
            2302         36.9174         19.4407         42.5750     44.6372E-03
            2303         41.7258         24.5952         48.1773     26.7731E-03
            2304         46.5008         29.7168         53.5883     25.7057E-03
            2305         51.1833         34.6628         58.7873     27.0624E-03
            2306         55.7109         39.3073         63.7547     29.6385E-03
            2307         60.0175         43.5286         68.4660     17.3413E-03
            2308         64.0573         47.2213         72.9153     15.2485E-03
            2309         67.7714         50.2960         77.0681     17.5957E-03
            2310         71.1383         52.6954         80.9192     11.2299E-03
            2311         74.1315         54.3310         84.4506     6.19484E-03
            2312         76.7512         55.1785         87.6496     1.21156E-03
            2313         79.0118         55.2481         90.5017    -4.58812E-03
            2314         80.0160         55.0073         91.7937    -7.25213E-03
            2315         81.7965         54.0494         94.1043    -11.5054E-03
            2316         83.2974         52.6080         96.0375    -12.3253E-03
            2317         84.5457         50.9136         97.5943    -14.8488E-03
            2318         85.5334         49.2699         98.7654    -15.5224E-03
            2319         86.2289         47.9862         99.5472    -12.7679E-03
            2320         86.5928         47.3187         99.9419    -3.55089E-03
            2321         86.5878         47.4215         99.9397     4.21782E-03
            2322         86.2234         48.2678         99.5470     9.86301E-03
            2323         85.5358         49.6949         98.7676     13.1621E-03
            2324         84.5620         51.4383         97.5961     15.0042E-03
            2325         83.3322         53.1774         96.0393     15.4454E-03
            2326         81.8463         54.6163         94.1035     13.3488E-03
            2327         80.9993         55.1465         92.9953     12.1031E-03
            2328         79.0758         55.7218         90.5050     10.1462E-03
            2329         76.8089         55.5655         87.6489     3.35232E-03
            2330         74.1776         54.6073         84.4512    -2.51837E-03
            2331         71.1666         52.8549         80.9202    -7.19337E-03
            2332         67.7825         50.3549         77.0692    -12.2314E-03
            2333         64.0460         47.1790         72.9099    -12.2773E-03
            2334         59.9944         43.3826         68.4651    -20.4241E-03
            2335         55.6855         39.0963         63.7577    -19.8108E-03
            2336         51.1566         34.4045         58.7864    -20.8662E-03
            2337         46.4828         29.4270         53.5875    -23.0542E-03
            2338         41.7232         24.2914         48.1772    -25.6776E-03
            2339         36.9344         19.1442         42.5763    -26.9726E-03
            2340         34.5432         16.6175         39.7113    -26.8838E-03
            2341         29.7797         11.7750         33.8667    -24.1814E-03
            2342         25.0247         7.39474         27.8888    -18.7490E-03
            2343         20.1945         3.73158         21.8000    -11.4538E-03
            2344         15.1144         1.08210         15.6264    -530.381E-06
            2345         9.49632    -223.418E-03         9.38260     14.5223E-03
            2346         2.95764     18.9655E-03         2.96080    -64.1583E-03
            2347         3.26212         3.24790    -11.1555E-03    -81.8669E-03
            2348         10.4103         10.3120    -193.752E-03     17.8015E-03
            2349         16.6386         17.1839         1.15027     3.00382E-03
            2350         22.3088         23.9812         3.84437    -9.41551E-03
            2351         27.6832         30.6777         7.55981    -18.7317E-03
            2352         32.9372         37.2533         11.9930    -24.9986E-03
            2353         35.5461         40.4869         14.4014    -28.6159E-03
            2354         40.7485         46.8324         19.4811    -35.7410E-03
            2355         45.9266         52.9934         24.7577    -23.7323E-03
            2356         51.0510         58.9440         30.1046    -23.2997E-03
            2357         56.0833         64.6615         35.4146    -22.5463E-03
            2358         60.9800         70.1230         40.5966    -20.4300E-03
            2359         65.7007         75.3102         45.5832    -19.6586E-03
            2360         70.2007         80.1976         50.3162    -22.3195E-03
            2361         74.4460         84.7659         54.7629    -20.6576E-03
            2362         78.4085         89.0021         58.8837    -15.4872E-03
            2363         82.0575         92.8868         62.6439    -13.5262E-03
            2364         85.3718         96.4056         66.0299    -12.5285E-03
            2365         88.3321         99.5437         69.0292    -11.2825E-03
            2366         89.6747         100.966         70.3807    -11.6635E-03
            2367         92.0777         103.511         72.7876    -14.3346E-03
            2368         94.0930         105.644         74.7999    -8.04653E-03
            2369         95.7156         107.363         76.4038    -5.82893E-03
            2370         96.9366         108.658         77.6045    -5.06531E-03
            2371         97.7527         109.524         78.4053    -2.75658E-03
            2372         98.1613         109.958         78.8014     341.293E-06
            2373         98.1607         109.960         78.7953     176.285E-06
            2374         97.7533         109.526         78.3998    -860.294E-06
            2375         96.9363         108.658         77.6038     1.81152E-03
            2376         95.7152         107.363         76.4024     3.77062E-03
            2377         94.0926         105.644         74.7962     5.83635E-03
            2378         92.0765         103.510         72.7879     8.15718E-03
            2379         90.9236         102.289         71.6331     9.88843E-03
            2380         88.3316         99.5454         69.0214     12.5283E-03
            2381         85.3709         96.4053         66.0269     9.18548E-03
            2382         82.0567         92.8869         62.6398     11.8367E-03
            2383         78.4074         89.0022         58.8771     13.2170E-03
            2384         74.4461         84.7658         54.7638     14.5296E-03
            2385         70.1983         80.1945         50.3167     18.2815E-03
            2386         65.6984         75.3087         45.5741     21.6498E-03
            2387         60.9819         70.1261         40.5892     20.8103E-03
            2388         56.0830         64.6615         35.4071     21.0600E-03
            2389         51.0506         58.9437         30.0984     22.8700E-03
            2390         45.9268         52.9932         24.7496     25.9577E-03
            2391         40.7504         46.8332         19.4697     29.3818E-03
            2392         38.1483         43.6783         16.8953     28.6041E-03
            2393         32.9378         37.2535         11.9909     22.3312E-03
            2394         27.6826         30.6777         7.56153     22.7346E-03
            2395         22.3090         23.9806         3.84223     12.7862E-03
            2396         16.6402         17.1847         1.14841     594.057E-06
            2397         10.4148         10.3154    -196.017E-03    -13.2085E-03
            2398         3.26380         3.24966    -10.9527E-03     83.4212E-03
            2399         128.086         36.2299         124.939        -36.5496
            2400         101.653         48.7880         76.6894        -44.0201
            2401         89.4944         58.7210         57.6036        -39.2660
            2402         82.4123         66.7520         45.8258        -33.1407
            2403         80.3538         70.1684         41.7532        -30.1085
            2404         78.3850         76.0861         36.0646        -24.4845
            2405         78.3681         81.0532         32.6505        -19.5986
            2406         78.8220         83.2535         31.5336        -17.4420
            2407         80.2626         87.1779         30.1206        -13.6710
            2408         81.1359         88.9268         29.7197        -12.0371
            2409         82.9790         92.0316         29.3359        -9.21849
            2410         85.5950         95.7700         29.3836        -5.92377
            2411         87.6621         98.4411         29.7229        -3.48801
            2412         88.6221         99.6315         29.9495        -2.18998
            2413         89.3568         100.527         30.1491    -521.980E-03
            2414         89.3569         100.527         30.1494     521.485E-03
            2415         88.6225         99.6325         29.9511         2.18743
            2416         87.6619         98.4418         29.7251         3.48478
            2417         85.5831         95.7541         29.3797         5.93500
            2418         82.9842         92.0339         29.3259         9.22157
            2419         81.1417         88.9314         29.7111         12.0372
            2420         80.2691         87.1842         30.1112         13.6697
            2421         78.8268         83.2602         31.5238         17.4388
            2422         78.3723         81.0601         32.6415         19.5953
            2423         78.3867         76.0909         36.0584         24.4824
            2424         80.3490         70.1677         41.7617         30.1039
            2425         82.3961         66.7529         45.8637         33.1221
            2426         89.3564         58.4877         57.8539         39.1596
            2427         101.759         48.6167         76.9574         44.0084
            2428         129.708         35.2088         126.508         36.6717
            2429         135.027         21.1730         131.115        -33.5108
            2430         123.797         24.7687         111.304        -41.1515
            2431         95.2103         42.4350         67.9145        -42.9489
            2432         83.7930         52.3589         51.8378        -37.8894
            2433         76.9129         60.1286         41.7857        -31.9720
            2434         73.4762         66.4032         35.4780        -26.3725
            2435         72.3700         71.5885         31.5821        -21.4164
            2436         72.7106         75.9559         29.2485        -17.1625
            2437         73.2148         77.8888         28.4892        -15.2872
            2438         74.5820         81.3111         27.5379        -11.9970
            2439         75.3551         82.8166         27.2747        -10.5623
            2440         76.9190         85.4444         27.0311        -8.05738
            2441         78.3620         87.5809         27.0243        -5.96353
            2442         79.0005         88.4693         27.0694        -5.04401
            2443         80.0616         89.8895         27.1967        -3.40495
            2444         80.4712         90.4222         27.2617        -2.66431
            2445         81.0270         91.1334         27.3627        -1.29214
            2446         81.1675         91.3113         27.3905    -641.127E-03
            2447         81.1677         91.3115         27.3906     640.966E-03
            2448         81.0274         91.1340         27.3632         1.29153
            2449         80.4718         90.4234         27.2629         2.66190
            2450         80.0621         89.8907         27.1982         3.40159
            2451         78.9995         88.4693         27.0719         5.04119
            2452         78.3616         87.5823         27.0305         5.96168
            2453         76.9083         85.4310         27.0468         8.07359
            2454         75.3598         82.8192         27.2683         10.5650
            2455         74.5876         81.3166         27.5324         11.9964
            2456         73.2125         77.8878         28.4883         15.2847
            2457         72.7077         75.9499         29.2538         17.1665
            2458         72.3703         71.5815         31.5901         21.4233
            2459         73.4876         66.3978         35.4824         26.3863
            2460         76.8827         60.1241         41.8334         31.9436
            2461         83.7887         52.2531         52.0644         37.8593
            2462         95.6357         42.3387         68.2243         43.1569
            2463         124.112         24.5936         111.599         41.1873
            2464         135.371         21.1689         131.936         32.9801
            2465         22.4453         9.43315         25.3915         1.78904
            2466         22.4588         25.4076         9.44065        -1.78796
            2467         21.8455         24.4814         7.61824        -1.45518
            2468         27.4295         31.0168         11.0423        -1.90581
            2469         35.6628         40.7223         17.2910        -2.49533
            2470         19.4152         7.96978         21.9416         1.51327
            2471         24.5600         11.1932         27.9221         1.89735
            2472         32.1763         17.4985         36.7934         2.52913
            2473         21.9965         9.45677         24.9281         1.70712
            2474         27.0890         13.1245         30.8832         2.09077
            2475         29.6204         15.2356         33.8360         2.30107
            2476         24.6600         27.7606         9.22436        -1.67830
            2477         30.1821         34.2635         13.0034        -2.11545
            2478         32.9212         37.4952         15.0829        -2.30654
            2479         6.24400         7.20810         3.68477    -61.6435E-03
            2480         3.57570         3.67246         3.37879    -292.804E-03
            2481         9.47050         10.8096         4.18210    -432.149E-03
            2482         15.9000         17.7931         5.42527        -1.05120
            2483         8.42583         4.26901         9.67672     383.331E-03
            2484         14.0240         5.70087         15.8540         1.03347
            2485         5.64763         3.87914         6.47852     39.2331E-03
            2486         11.2411         4.90349         12.7830     728.924E-03
            2487         16.7420         6.71994         18.8967         1.29555
            2488         12.7315         14.3710         4.89574    -807.123E-03
            2489         18.9578         21.1823         6.32784        -1.25242
            2490         41.1493         47.1492         21.9126        -2.78180
            2491         46.3739         53.3129         26.3398        -2.49938
            2492         51.4732         59.2037         31.0745        -2.48454
            2493         56.4501         64.8789         35.8128        -2.46886
            2494         61.1881         70.2328         40.3942        -2.35554
            2495         65.7783         75.3546         44.8071        -2.39589
            2496         70.2080         80.2707         49.0003        -2.45227
            2497         74.4033         84.9139         53.1236        -2.18323
            2498         78.2569         89.1391         57.0047        -1.84204
            2499         81.7630         92.9762         60.3937        -1.67355
            2500         84.9349         96.4549         63.3627        -1.54985
            2501         89.0485         100.984         67.1013        -1.35089
            2502         91.3736         103.557         69.1507        -1.19068
            2503         93.4226         105.697         71.4695    -845.802E-03
            2504         94.9774         107.386         72.9439    -652.879E-03
            2505         96.1367         108.659         73.9903    -468.695E-03
            2506         96.9255         109.497         74.8033    -273.378E-03
            2507         97.2739         109.912         74.9985    -94.0418E-03
            2508         97.2042         109.894         74.7231     109.197E-03
            2509         96.8018         109.441         74.4014     313.680E-03
            2510         96.0563         108.567         73.9312     480.134E-03
            2511         94.8629         107.264         72.8263     667.309E-03
            2512         93.2582         105.539         71.2321     885.225E-03
            2513         90.1272         102.165         68.1077         1.25813
            2514         87.5328         99.3533         65.5392         1.53464
            2515         84.7009         96.1888         63.1960         1.52408
            2516         81.4847         92.6729         60.1209         1.68693
            2517         77.9230         88.7758         56.6585         1.87643
            2518         74.1278         84.6044         53.0157         1.97769
            2519         70.0174         80.0683         48.9549         2.21117
            2520         65.5621         75.1049         44.5573         2.50126
            2521         60.8916         69.8741         40.0585         2.56660
            2522         56.0618         64.4414         35.4363         2.45391
            2523         51.1015         58.7779         30.7175         2.48112
            2524         45.9954         52.8612         26.0184         2.56147
            2525         38.0205         43.4976         19.1899         2.58064
            2526         32.6353         37.1619         14.7390         2.20190
            2527         27.1801         30.7289         11.0307         1.98140
            2528         21.5643         24.1550         7.46962         1.43623
            2529         15.6791         17.5217         5.21322     998.156E-03
            2530         9.32159         10.6218         3.96575     394.106E-03
            2531         8.50236         4.32207         9.76421    -396.394E-03
            2532         14.1676         5.64828         16.0019        -1.02295
            2533         19.5413         7.91804         22.0778        -1.47743
            2534         24.6665         11.1968         28.0479        -1.86443
            2535         29.6687         15.1277         33.9110        -2.19271
            2536         34.6045         19.3929         39.6643        -2.40410
            2537         37.3265         22.1695         42.7009         2.89067
            2538         41.8581         26.0352         48.0291        -2.44385
            2539         42.2414         26.4205         48.4557         2.48706
            2540         46.5621         30.4785         53.3841        -2.33068
            2541         46.9799         30.9003         53.8415         2.38718
            2542         51.1445         34.8353         58.5350        -2.23634
            2543         51.6032         35.2832         59.0244         2.35772
            2544         55.6162         38.9752         63.5160        -2.26315
            2545         56.0229         39.3492         63.9749         2.21917
            2546         59.8155         42.7282         68.2389        -1.94754
            2547         60.1042         43.0317         68.5738         1.75732
            2548         63.7580         46.1022         72.6911        -1.51499
            2549         64.0086         46.2157         72.9774         1.65431
            2550         67.3203         48.6805         76.7705        -1.38366
            2551         67.6243         48.8783         77.1219         1.38619
            2552         70.6547         50.8762         80.6447        -1.00385
            2553         70.9587         51.1211         80.9909     929.341E-03
            2554         73.6545         52.4476         84.1964    -605.854E-03
            2555         73.8947         52.5664         84.4813     572.955E-03
            2556         76.2946         53.2776         87.3990    -242.861E-03
            2557         76.4872         53.2722         87.6419     222.402E-03
            2558         78.5919         53.1882         90.2722     122.515E-03
            2559         79.8032         53.0960         91.7696    -314.317E-03
            2560         80.6662         52.8405         92.8456     455.911E-03
            2561         81.6924         52.2698         94.1300    -636.605E-03
            2562         83.1728         51.4205         95.9460     729.534E-03
            2563         83.3012         51.3157         96.1030    -731.819E-03
            2564         84.4917         50.1258         97.5383     753.619E-03
            2565         85.5369         48.7949         98.7579     677.523E-03
            2566         86.2924         47.6970         99.6070     507.153E-03
            2567         86.6759         47.1527         100.030     153.909E-03
            2568         86.6725         47.2182         100.028    -193.395E-03
            2569         86.3350         47.7868         99.6573    -542.841E-03
            2570         55.7662         63.5329         39.6755         2.58098
            2571         60.1148         68.2732         44.1804         2.37962
            2572         64.2455         72.7236         48.5442         2.04371
            2573         85.6284         48.8741         98.8615    -755.613E-03
            2574         84.6047         50.2679         97.6658    -804.027E-03
            2575         83.3096         51.6376         96.0970    -737.654E-03
            2576         81.7038         52.5316         94.1236    -617.540E-03
            2577         79.8244         53.3187         91.7711    -277.482E-03
            2578         76.5197         53.4097         87.6606     266.851E-03
            2579         73.9300         52.6278         84.5140     612.227E-03
            2580         70.9746         51.0621         81.0202     972.189E-03
            2581         67.6270         48.6748         77.1598         1.44752
            2582         64.0010         45.9335         73.0159         1.71299
            2583         60.0749         42.6952         68.5947         1.78384
            2584         55.9968         38.9372         64.0138         2.18222
            2585         51.5929         34.8292         59.0969         2.20709
            2586         47.0964         30.4996         54.0539         2.20903
            2587         42.4755         26.0989         48.7673         2.41783
            2588         37.7142         21.9137         43.1754         2.83864
            2589         32.5201         17.1614         37.1934         2.44830
            2590         25.0008         11.0146         28.3816         1.89866
            2591         19.8248         8.21262         22.3763         1.69766
            2592         14.3760         5.90274         16.2360         1.16280
            2593         8.63250         4.22178         9.89638     423.541E-03
            2594         51.2121         58.5573         35.0338         2.43829
            2595         3.55758         3.55328         3.48745    -277.195E-03
            2596         46.5901         53.4094         30.3374         2.45090
            2597         68.0662         76.8098         52.3453         2.14985
            2598         71.7133         80.6842         56.1228         1.94134
            2599         75.0788         84.2326         59.6332         1.69709
            2600         78.1129         87.4328         62.7249         1.52072
            2601         80.7564         90.3114         65.0928         1.52805
            2602         83.2082         92.8683         67.6603         1.24855
            2603         86.1717         95.9312         70.7955     870.135E-03
            2604         87.6921         97.4973         72.3991     652.528E-03
            2605         88.8105         98.6859         73.4770     474.037E-03
            2606         84.6036         49.9617         97.6709    -774.974E-03
            2607         89.4681         99.4871         73.8471     317.412E-03
            2608         85.6334         48.6281         98.8665    -702.893E-03
            2609         89.9023         99.9044         74.3800     105.585E-03
            2610         86.3411         47.6284         99.6613    -470.263E-03
            2611         90.0247         99.9271         74.7698    -83.5477E-03
            2612         86.6752         47.1606         100.029    -118.471E-03
            2613         89.5479         99.5496         73.9816    -294.203E-03
            2614         86.6730         47.2161         100.028     236.335E-03
            2615         88.8434         98.7819         73.3501    -487.258E-03
            2616         86.2856         47.8648         99.6021     579.707E-03
            2617         87.7857         97.6242         72.4164    -658.924E-03
            2618         85.5319         49.0615         98.7524     724.692E-03
            2619         86.3280         96.0866         70.9755    -846.684E-03
            2620         84.4936         50.4442         97.5331     779.255E-03
            2621         84.3713         94.1400         68.6922        -1.18893
            2622         83.1825         51.7405         95.9409     732.950E-03
            2623         82.1956         91.7998         66.6427        -1.34777
            2624         80.6828         53.0875         92.8420     427.096E-03
            2625         78.3376         87.6824         62.9062        -1.54381
            2626         78.6070         53.3494         90.2705     76.4320E-03
            2627         75.3578         84.5211         59.9416        -1.66476
            2628         76.3089         53.3877         87.3989    -291.338E-03
            2629         72.0527         81.0295         56.5498        -1.83816
            2630         73.6569         52.4535         84.1966    -658.517E-03
            2631         68.3984         77.1643         52.6636        -2.18398
            2632         70.6410         50.7655         80.6452        -1.05892
            2633         64.5218         73.0182         48.7263        -2.24040
            2634         67.2923         48.4634         76.7725        -1.43610
            2635         60.4213         68.6219         44.5810        -2.12373
            2636         63.7231         45.8256         72.6960        -1.55669
            2637         56.2085         64.0288         40.1544        -2.47447
            2638         59.7728         42.3486         68.2479        -1.98418
            2639         51.7117         59.1161         35.5550        -2.38803
            2640         55.5712         38.5211         63.5272        -2.28877
            2641         47.1383         54.0502         30.8772        -2.31776
            2642         51.1021         34.3516         58.5425        -2.25064
            2643         42.4868         48.7577         26.2744        -2.48632
            2644         46.5337         29.9671         53.3961        -2.33372
            2645         37.7415         43.1956         22.0093        -2.87864
            2646         41.8432         25.4961         48.0409        -2.43074
            2647         32.5512         37.2285         17.1936        -2.45583
            2648         34.5879         18.8240         39.6380        -2.37718
            2649         25.0141         28.3968         11.0196        -1.89899
            2650         29.6481         14.5484         33.8534        -2.14595
            2651         19.8444         22.4000         8.22413        -1.69557
            2652         24.6665         10.6069         27.9858        -1.78589
            2653         14.3821         16.2440         5.90834        -1.16081
            2654         19.5668         7.29510         22.0119        -1.37774
            2655         8.63265         9.89681         4.22324    -422.741E-03
            2656         14.3036         4.73402         15.9879    -867.068E-03
            2657         3.55780         3.48763         3.55355     277.179E-03
            2658         8.74335         3.52503         9.93342    -347.532E-03
            2659         8.74276         9.93276         3.52410     346.514E-03
            2660         14.3037         15.9878         4.73074     863.859E-03
            2661         19.5683         22.0147         7.29925         1.37657
            2662         24.6999         28.0239         10.6010         1.77449
            2663         29.6686         33.8789         14.5345         2.12946
            2664         34.5950         39.6434         18.8510         2.39250
            2665         41.8688         48.0496         25.6700         2.49779
            2666         5.84475         3.95521         6.71129     78.6582E-03
            2667         11.5070         4.85540         13.0527     782.936E-03
            2668         17.1944         7.23414         19.4059         1.53960
            2669         27.5134         12.8666         31.3397         2.04121
            2670         30.0011         14.9196         34.2612         2.22151
            2671         35.1245         19.5465         40.1951         2.68881
            2672         40.1009         23.9800         45.9848         2.65538
            2673         44.8092         28.2980         51.4555         2.27332
            2674         49.3503         32.6781         56.5893         2.19637
            2675         53.8199         36.9243         61.5812         2.21955
            2676         58.0424         40.8477         66.3141         1.96698
            2677         62.0592         44.3996         70.8203         1.72225
            2678         65.8706         47.2947         75.1525         1.69011
            2679         69.3507         49.9556         79.1400         1.19670
            2680         72.5043         51.9498         82.8162     785.060E-03
            2681         75.2722         53.1159         86.1343     439.966E-03
            2682         77.6949         53.5457         89.1115     86.4513E-03
            2683         78.7940         53.5179         90.4798    -95.1168E-03
            2684         80.7972         52.9748         92.9917    -457.558E-03
            2685         82.5422         52.1573         95.1546    -693.157E-03
            2686         83.9926         50.9806         96.9303    -778.690E-03
            2687         85.1529         49.5480         98.3120    -800.501E-03
            2688         86.0252         48.2745         99.3114    -672.802E-03
            2689         86.5469         47.4452         99.8914    -365.842E-03
            2690         86.7190         47.1121         100.077    -29.2869E-03
            2691         86.5341         47.3451         99.8736     360.109E-03
            2692         85.9529         48.1952         99.2288     611.609E-03
            2693         85.0480         49.4498         98.1934     726.885E-03
            2694         83.8651         50.7955         96.7875     754.835E-03
            2695         82.4110         51.9913         95.0095     668.035E-03
            2696         81.5781         52.4759         93.9779     575.750E-03
            2697         79.6646         53.0774         91.6023     303.865E-03
            2698         77.4872         53.3320         88.8835    -67.1677E-03
            2699         75.0173         52.9666         85.8380    -419.345E-03
            2700         72.1966         51.7386         82.4621    -804.111E-03
            2701         69.0317         49.8498         78.7512        -1.20359
            2702         65.5901         47.4921         74.7772        -1.44457
            2703         61.8365         44.4955         70.5210        -1.68848
            2704         57.7257         40.8447         65.8754        -2.24069
            2705         53.3971         36.9487         61.0443        -2.24698
            2706         48.8646         32.6718         55.9796        -2.27620
            2707         44.2238         28.2599         50.7306        -2.39221
            2708         39.4623         23.8053         45.2797        -2.46492
            2709         37.0431         21.5838         42.4906        -2.44889
            2710         32.1470         17.2257         36.8068        -2.30862
            2711         27.1845         13.1000         31.0016        -2.03391
            2712         22.1391         9.45494         25.0911        -1.67495
            2713         16.9026         6.64116         19.0632        -1.26348
            2714         11.3672         4.90767         12.9190    -736.625E-03
            2715         5.72272         3.94884         6.56180    -49.8763E-03
            2716         5.84511         6.71163         3.95614    -78.4952E-03
            2717         11.5089         13.0556         4.85833    -781.473E-03
            2718         17.2143         19.4299         7.24681        -1.53815
            2719         27.5373         31.3670         12.8742        -2.04075
            2720         30.0288         34.2933         14.9330        -2.22144
            2721         35.1594         40.2308         19.6102        -2.71038
            2722         40.1198         45.9911         24.1064        -2.70701
            2723         44.8292         51.4443         28.5569        -2.36127
            2724         49.4273         56.5985         33.2123        -2.33619
            2725         53.9871         61.6050         37.8806        -2.45773
            2726         58.3172         66.3398         42.3750        -2.26844
            2727         62.4834         70.8345         46.7032        -2.13362
            2728         66.5074         75.1463         50.6640        -2.35475
            2729         70.2675         79.1466         54.6540        -1.99620
            2730         73.7490         82.8204         58.3043        -1.74012
            2731         76.8882         86.1429         61.4737        -1.60276
            2732         79.7055         89.1370         64.2498        -1.47841
            2733         80.9919         90.5084         65.5002        -1.41065
            2734         83.3230         93.0170         67.6906        -1.27991
            2735         85.3960         95.1565         69.9030        -1.00284
            2736         87.1152         96.9055         71.7851    -742.884E-03
            2737         88.3594         98.2527         72.9213    -575.790E-03
            2738         89.2309         99.2139         73.6723    -395.653E-03
            2739         89.8386         99.7828         74.4560    -181.375E-03
            2740         90.0343         99.9657         74.7078     4.35107E-03
            2741         89.6558         99.7368         73.8983     224.998E-03
            2742         89.1901         99.1329         73.7303     399.844E-03
            2743         88.3035         98.1378         73.0124     558.990E-03
            2744         86.9793         96.7599         71.6570     755.621E-03
            2745         85.2783         95.0078         69.8559     986.474E-03
            2746         84.2938         93.9886         68.8202         1.10960
            2747         82.0192         91.6351         66.3982         1.39629
            2748         79.4904         88.9224         63.9913         1.51771
            2749         76.6381         85.8727         61.2455         1.58994
            2750         73.4314         82.4999         57.9096         1.82109
            2751         69.9275         78.7915         54.2627         2.06216
            2752         66.2003         74.8134         50.5123         2.07770
            2753         62.2216         70.5549         46.4153         2.15814
            2754         57.9520         65.9067         41.8897         2.63348
            2755         53.4951         61.0595         37.3694         2.50017
            2756         48.9088         56.0043         32.6837         2.43556
            2757         44.2402         50.7532         27.9936         2.47855
            2758         39.4655         45.2888         23.3638         2.49679
            2759         37.0393         42.4848         21.0856         2.46074
            2760         32.1351         36.7727         16.6518         2.27169
            2761         27.1947         30.9668         12.4888         1.94733
            2762         22.1529         25.0279         8.84479         1.58004
            2763         16.9449         18.9878         5.90124         1.12848
            2764         11.5984         12.9894         3.87014     602.797E-03
            2765         5.90309         6.80971         3.63337     67.0668E-03
            2766         34.7675         19.8608         39.7641         2.76252
            2767         39.7934         24.2635         45.6009         2.69562
            2768         44.6350         28.6674         51.1916         2.40931
            2769         49.3078         33.1179         56.4542         2.38317
            2770         53.8415         37.3593         61.5283         2.31758
            2771         58.0700         41.2209         66.2847         1.96789
            2772         62.0785         44.7051         70.7921         1.67722
            2773         65.8666         47.5539         75.1042         1.62163
            2774         69.3423         50.0885         79.1070         1.14488
            2775         72.4744         51.9404         82.7814     746.906E-03
            2776         75.2318         53.0075         86.1024     399.389E-03
            2777         77.6640         53.3742         89.0978     42.4280E-03
            2778         78.7671         53.3167         90.4721    -136.800E-03
            2779         80.7810         52.7316         92.9946    -486.991E-03
            2780         82.5319         51.8579         95.1613    -699.521E-03
            2781         83.9877         50.6589         96.9356    -761.420E-03
            2782         85.1553         49.2680         98.3170    -759.553E-03
            2783         86.0315         48.0697         99.3163    -609.221E-03
            2784         86.5518         47.3319         99.8941    -291.405E-03
            2785         86.7191         47.1165         100.078     49.2062E-03
            2786         86.5285         47.4594         99.8697     444.180E-03
            2787         85.9460         48.4163         99.2232     670.893E-03
            2788         85.0461         49.7490         98.1880     763.028E-03
            2789         83.8711         51.1211         96.7824     769.362E-03
            2790         82.4241         52.2970         95.0048     660.279E-03
            2791         81.5936         52.7576         93.9737     557.248E-03
            2792         79.6810         53.2819         91.5997     265.417E-03
            2793         77.5032         53.4727         88.8830    -114.911E-03
            2794         75.0269         53.0290         85.8383    -469.576E-03
            2795         72.1909         51.6854         82.4623    -858.534E-03
            2796         69.0102         49.6824         78.7522        -1.25827
            2797         65.5586         47.2469         74.7806        -1.49113
            2798         61.7970         44.1714         70.5272        -1.72737
            2799         57.6867         40.4165         65.8935        -2.27240
            2800         53.3493         36.4765         61.0502        -2.26412
            2801         48.8282         32.1734         55.9888        -2.28534
            2802         44.2010         27.7331         50.7418        -2.38776
            2803         39.4497         23.2551         45.2830        -2.44881
            2804         37.0299         21.0250         42.4806        -2.42995
            2805         32.1242         16.6510         36.7596        -2.27498
            2806         27.1569         12.5083         30.9218        -1.97177
            2807         22.1384         8.83506         25.0108        -1.57921
            2808         16.9440         5.89935         18.9859        -1.13084
            2809         11.5988         3.87202         12.9900    -604.855E-03
            2810         5.90369         3.63375         6.81038    -67.4183E-03
            2811         38.4233         43.9591         19.5929        -2.66794
            2812         43.7612         50.2420         24.0687        -2.62968
            2813         48.9396         56.2907         28.6970        -2.46928
            2814         53.9878         62.0769         33.4608        -2.49389
            2815         58.8310         67.5766         38.1067        -2.41399
            2816         63.4964         72.8156         42.6269        -2.34693
            2817         68.0122         77.8315         46.8904        -2.50048
            2818         72.3669         82.6648         51.0532        -2.40639
            2819         76.3763         87.0814         55.1193        -1.99165
            2820         80.0544         91.1059         58.7561        -1.74803
            2821         83.3936         94.7631         61.9312        -1.60948
            2822         86.3927         98.0558         64.7091        -1.48287
            2823         87.7636         99.5636         65.9611        -1.41385
            2824         90.2545         102.322         68.1482        -1.28206
            2825         92.4458         104.675         70.3809        -1.00313
            2826         94.2581         106.596         72.2946    -739.754E-03
            2827         95.6024         108.077         73.4896    -564.304E-03
            2828         96.5767         109.129         74.4333    -370.438E-03
            2829         97.1612         109.758         75.0039    -183.402E-03
            2830         97.2735         109.960         74.8216     3.19281E-03
            2831         97.0224         109.720         74.4642     219.305E-03
            2832         96.4838         109.059         74.2341     398.143E-03
            2833         95.5115         107.968         73.4411     570.922E-03
            2834         94.1101         106.454         72.0822     772.896E-03
            2835         92.3139         104.522         70.2954         1.00094
            2836         91.2732         103.399         69.2631         1.12237
            2837         88.8705         100.809         66.8438         1.40468
            2838         86.1734         97.8262         64.4505         1.52325
            2839         83.1364         94.4753         61.7259         1.58812
            2840         79.7386         90.7665         58.4097         1.79282
            2841         76.0682         86.7389         54.8785         1.93107
            2842         72.1190         82.3921         51.0468         2.06283
            2843         67.8417         77.6486         46.7700         2.40775
            2844         63.2267         72.4848         42.2770         2.62449
            2845         58.4973         67.1885         37.7728         2.50033
            2846         53.6006         61.6417         33.0828         2.45846
            2847         48.5713         55.8560         28.3625         2.52061
            2848         43.3815         49.8047         23.7017         2.59039
            2849         40.7232         46.6824         21.4225         2.59885
            2850         35.3015         40.2952         16.9927         2.48069
            2851         29.9374         33.9735         12.9925         2.20946
            2852         24.3546         27.4098         9.11463         1.69326
            2853         18.6793         20.8525         6.13404         1.20706
            2854         12.5063         14.0861         4.60191     737.923E-03
            2855         6.14756         7.09774         3.56198     46.6913E-03
            2856         137.454         38.3868         148.488         18.8897
            2857         137.184         33.9555         149.954        -9.49244
            2858         133.807         34.0752         145.614         12.9155
            2859         138.403         38.8315         149.841        -18.3779
            2860         125.900         36.3684         136.120        -17.7889
            2861         123.139         43.4835         129.452         26.7258
            2862         126.834         42.6280         134.015        -25.9557
            2863         125.547         34.8865         133.471         21.4977
            2864         117.132         33.3693         119.799         27.3996
            2865         113.744         45.2626         115.119         30.8050
            2866         113.803         37.2114         118.832        -24.9437
            2867         114.604         46.2260         118.863        -28.0617
            2868         100.312         36.3152         93.4331         33.6992
            2869         104.804         35.5053         101.930        -31.3712
            2870         99.2176         48.1513         94.0025        -32.7376
            2871         97.3825         37.6250         90.4770        -33.0947
            2872         91.6820         50.9439         79.8782         34.1520
            2873         95.1039         49.4022         84.7587        -34.6764
            2874         92.4303         39.7684         82.6627         33.7444
            2875         85.0576         43.5193         73.8935         32.1268
            2876         85.2741         54.3838         71.4254         32.1292
            2877         89.5595         41.1752         79.9481        -32.7906
            2878         90.3054         52.1155         75.4783        -35.0031
            2879         81.2219         45.4889         70.5662        -30.3212
            2880         78.9875         58.0652         64.3486         28.6536
            2881         85.6842         55.5141         67.2462        -34.0148
            2882         77.8851         47.3706         66.8117         29.0010
            2883         75.0593         51.1613         58.4536         29.3833
            2884         78.9662         48.6236         62.1515        -31.7834
            2885         81.7822         58.9939         60.3751        -32.2731
            2886         77.4484         61.8674         56.2584         28.7877
            2887         75.2693         52.0989         56.2320        -30.1041
            2888         76.0978         65.3189         50.6431         27.4927
            2889         78.7798         62.3520         54.7274        -30.1980
            2890         71.1281         54.9871         52.7514         26.7927
            2891         70.7928         58.6616         46.8123         26.6152
            2892         76.6475         65.5377         50.0804        -28.0104
            2893         72.8709         55.4042         51.1233        -28.6321
            2894         75.1619         68.5111         46.3493         25.7081
            2895         74.6691         71.4438         42.9503         23.7702
            2896         70.1706         61.7830         42.7335         25.3036
            2897         74.8530         76.7541         37.9801         19.8697
            2898         69.3386         64.5464         39.9358        -23.2698
            2899         68.7189         66.8778         38.0249         21.1878
            2900         74.4253         74.0674         40.4193        -21.7039
            2901         68.7730         69.4238         35.9625         19.2650
            2902         69.0206         67.1985         37.5158        -21.3055
            2903         74.6396         76.6141         38.2433        -19.7380
            2904         75.3858         79.1583         36.1992         18.0006
            2905         75.1343         79.0156         36.4975        -17.8279
            2906         69.0727         71.7854         34.3717         17.3577
            2907         76.1180         81.4021         34.7932         16.2206
            2908         69.0166         69.6694         35.5925        -19.3421
            2909         75.8556         81.2712         35.1089        -16.0185
            2910         69.6522         73.9689         33.0714         15.6265
            2911         69.3015         71.9664         34.0640        -17.4609
            2912         76.9928         83.4832         33.6969         14.5613
            2913         77.9646         85.4205         32.8456         13.0214
            2914         76.7549         83.3780         33.9966        -14.3553
            2915         69.8644         74.1321         32.7915        -15.7173
            2916         70.7060         76.1877         31.6339         14.1913
            2917         70.6837         76.1954         31.6644        -14.1480
            2918         71.7729         78.2011         30.5375         12.7993
            2919         77.8340         85.4107         33.0400        -12.8254
            2920         78.9944         87.2306         32.1970         11.5883
            2921         72.7046         79.9143         29.8528         11.4622
            2922         78.9690         87.3136         32.3032        -11.3937
            2923         80.0304         88.8965         31.7313         10.2664
            2924         71.6393         78.1526         30.7252        -12.6698
            2925         73.6062         81.5474         29.4558        -10.0382
            2926         74.2077         82.6617         29.3875         8.93322
            2927         81.1532         90.6195         31.4434        -8.84404
            2928         81.9255         91.7565         31.3474         7.87818
            2929         75.4852         84.3490         28.7457        -7.78063
            2930         83.4195         93.5799         30.8101        -6.72205
            2931         76.2389         85.5181         28.7575         6.61597
            2932         79.6975         89.7723         27.9715         2.66390
            2933         88.0111         99.0791         30.3438         2.23384
            2934         87.4196         98.4254         30.4338        -2.82085
            2935         79.0903         89.0935         28.1636        -3.34803
            2936         78.6708         88.5149         28.0721         4.12149
            2937         77.8842         87.5749         28.2787        -4.94686
            2938         86.9288         97.8147         30.3505         3.48671
            2939         86.1459         96.9121         30.4483        -4.19857
            2940         79.2390         89.2113         28.0032         3.37535
            2941         87.5273         98.5144         30.3361         2.84095
            2942         78.5207         88.3895         28.2236        -4.11888
            2943         86.8232         97.7252         30.4441        -3.48193
            2944         87.9325         99.0158         30.4166        -2.20123
            2945         80.0565         90.2082         27.9550         1.98486
            2946         79.5852         89.6868         28.0984        -2.62138
            2947         88.3904         99.5196         30.3564         1.65927
            2948         88.8206         100.024         30.3944    -496.774E-03
            2949         80.4527         90.6994         27.9778    -595.582E-03
            2950         88.8769         100.086         30.3918     39.0668E-03
            2951         80.5095         90.7633         27.9661     47.2640E-03
            2952         88.8229         100.022         30.3840     571.420E-03
            2953         80.4616         90.7019         27.9573     685.955E-03
            2954         88.6474         99.8275         30.3958        -1.04263
            2955         80.2830         90.5027         27.9991        -1.24827
            2956         79.9897         90.1623         28.0417        -1.92153
            2957         88.3479         99.4889         30.4038        -1.60870
            2958         88.6627         99.8352         30.3702         1.10845
            2959         80.3132         90.5192         27.9501         1.32894
            2960         84.3530         94.8044         30.7756         5.71812
            2961         71.1876         58.6304         46.6471        -27.0132
            2962         75.2962         68.5508         46.2337        -25.8334
            2963         98.5722         47.8671         90.1646         34.6961
            2964         127.370         35.4232         139.050         13.6501
            2965         126.802         33.2746         139.457        -7.38134
            2966         126.276         33.1873         139.055         6.39106
            2967         129.431         35.9715         140.860        -15.0946
            2968         80.0138         90.0810         33.2308         7.67672
            2969         79.4492         89.3041         33.4041        -8.25133
            2970         72.4301         81.1380         31.3822         8.64466
            2971         72.0664         80.4717         31.4405        -9.29946
            2972         75.8123         83.7939         35.4291         12.1052
            2973         68.7334         75.0351         34.1895         12.7867
            2974         82.2973         92.9946         32.6302         5.61425
            2975         74.1614         83.3602         30.3822        -7.31605
            2976         82.3571         92.8114         32.1096        -6.26791
            2977         74.0486         83.6302         31.0751         6.38589
            2978         93.7381         41.7546         95.4080        -25.3273
            2979         91.6302         51.5064         89.0464         28.2865
            2980         92.1398         41.4537         92.1288         26.4744
            2981         91.1504         52.2940         91.4168        -25.8017
            2982         25.9043         14.1966         29.0692         3.51923
            2983         25.9519         29.1179         14.2564        -3.53652
            2984         88.2654         42.7047         87.7965        -25.8726
            2985         88.9204         52.5475         86.4392        -27.1783
            2986         81.0114         90.3954         31.4526         9.04471
            2987         80.0726         89.0354         31.7922        -10.0698
            2988         72.6280         79.9349         29.9980        -11.3025
            2989         73.5132         81.3844         29.4871         10.1827
            2990         85.3787         95.9793         30.4798        -4.96327
            2991         77.1650         86.6356         28.3722        -5.82432
            2992         88.3266         99.5890         30.7397     89.4144E-03
            2993         79.8051         90.1698         28.6267     108.376E-03
            2994         79.7446         90.1079         28.6572    -508.575E-03
            2995         88.2652         99.5172         30.7359     609.098E-03
            2996         88.2686         99.5290         30.7576    -433.043E-03
            2997         79.7523         90.1023         28.6177     721.338E-03
            2998         88.0741         99.3217         30.8017    -962.790E-03
            2999         88.0904         99.3196         30.7440         1.12983
            3000         79.5514         89.8993         28.7275        -1.13379
            3001         79.5926         89.9114         28.6277         1.33459
            3002         87.7303         98.9547         30.8832        -1.51018
            3003         79.2097         89.5286         28.8532        -1.77772
            3004         79.3263         89.5979         28.6628         1.95373
            3005         87.8040         98.9980         30.7681         1.65691
            3006         78.9507         89.1584         28.7298         2.58770
            3007         87.2289         98.4193         31.0129        -2.08017
            3008         87.4058         98.5519         30.8122         2.19867
            3009         78.7097         88.9848         29.0463        -2.44351
            3010         78.4461         88.5741         28.8539         3.24460
            3011         86.8789         97.9649         30.8943         2.76419
            3012         86.6085         97.7481         31.1669        -2.67447
            3013         78.0934         88.3002         29.2704        -3.13486
            3014         77.4719         87.5541         29.3963        -3.90706
            3015         77.8048         87.8389         29.0603         3.91747
            3016         86.2131         97.2283         31.0371         3.35336
            3017         85.9566         97.0062         31.2568        -3.33916
            3018         68.5350         74.8565         34.4378        -12.7212
            3019         75.6956         83.9111         35.6574        -11.6812
            3020         73.2348         79.5602         38.3264        -14.3044
            3021         66.6472         70.4218         37.4053        -15.4663
            3022         71.6440         74.9742         41.7702        -17.3077
            3023         65.8923         67.7850         39.5602         16.9662
            3024         72.8365         77.6067         39.2771         16.2053
            3025         65.9976         65.7868         41.0347        -18.6501
            3026         66.3265         70.0990         37.8721         15.3387
            3027         72.3448         77.3163         39.8786        -15.8001
            3028         66.2046         68.1676         39.0287        -17.0634
            3029         73.7375         79.8173         37.7078         14.7679
            3030         73.0430         50.0088         63.0757        -25.8854
            3031         70.1960         51.4619         61.2810         23.6461
            3032         72.3304         62.3463         58.0100         23.0663
            3033         78.2956         87.6970         33.8917        -9.36281
            3034         71.0286         78.6811         31.9597         10.7634
            3035         78.0938         87.3237         33.9110         9.73795
            3036         70.9566         78.8155         32.1728        -10.3856
            3037         71.1978         49.8565         65.9470         22.5264
            3038         76.2025         59.5906         62.1535        -26.4354
            3039         72.3790         49.2914         66.6102        -23.4909
            3040         72.6607         60.2214         63.0488         22.1711
            3041         71.1908         70.2710         46.3432         20.3224
            3042         66.4292         58.7227         49.2026         21.8548
            3043         65.4751         65.2461         41.9361         18.3254
            3044         71.1551         72.5395         44.0593        -18.7607
            3045         65.9937         63.3056         43.5015        -20.0755
            3046         72.0681         75.2654         41.2209         17.6283
            3047         112.342         38.9174         120.162        -21.1540
            3048         109.449         46.0091         115.049         25.2931
            3049         110.995         44.6337         117.825        -23.8326
            3050         113.119         38.7968         120.822         21.4485
            3051         110.688         42.8364         119.168         20.9802
            3052         109.335         42.3772         118.424        -19.5997
            3053         109.650         39.3509         119.221        -17.8165
            3054         107.373         39.6719         117.183         17.0481
            3055         71.7120         78.4883         40.2507         13.1819
            3056         64.1565         68.5865         40.8806         13.4732
            3057         68.0709         53.5596         57.7081         22.5507
            3058         68.8572         52.5865         59.4436        -22.8645
            3059         70.3896         62.3613         59.2517        -20.4125
            3060         71.6916         65.0042         53.4067         22.6091
            3061         27.4228         29.9681         17.1065        -4.96456
            3062         27.2827         16.9531         29.8470         4.90210
            3063         75.1251         84.2124         36.7664         9.94107
            3064         66.8973         74.0002         36.6752        -11.0774
            3065         67.5426         74.6125         35.8386         11.3222
            3066         84.4507         95.2406         31.4591        -4.74901
            3067         76.0349         85.7560         29.6964        -5.53722
            3068         69.2692         73.7309         44.6647        -14.8348
            3069         63.1425         64.4249         44.6522         15.4845
            3070         69.8423         74.1842         43.8533         15.3272
            3071         63.6488         64.8091         43.8603        -16.0184
            3072         130.367         32.7495         143.496         3.22842
            3073         131.518         32.9402         144.664        -4.04535
            3074         85.2358         96.1668         31.3434        -4.03663
            3075         77.0786         86.9992         29.3178         4.59459
            3076         76.7887         86.7073         29.5232        -4.71179
            3077         85.4588         96.3894         31.2201         3.95346
            3078         77.3514         87.3184         35.3949         8.09440
            3079         77.7916         87.9545         35.2440        -7.59978
            3080         70.2944         78.7988         33.3900         9.09673
            3081         83.5847         94.3248         31.8770         5.16005
            3082         73.1373         81.9852         30.8589        -8.27043
            3083         80.5833         90.8657         33.1165        -7.06043
            3084         75.2837         84.9413         30.1727         5.91949
            3085         97.9240         50.1533         97.8288         28.3414
            3086         98.5467         41.5529         102.231        -24.3688
            3087         99.0308         40.2786         101.300         25.8412
            3088         91.9387         52.2923         94.6237        -23.8933
            3089         75.4934         84.8443         36.5764        -9.41903
            3090         68.6863         76.2397         34.6033         10.7406
            3091         68.3180         76.1114         35.1539        -10.2343
            3092         71.0135         70.0560         46.6985        -20.2141
            3093         66.2507         60.7004         46.4956        -21.3313
            3094         76.7935         46.7682         74.3087        -23.5475
            3095         79.1767         57.0467         67.6861        -27.6555
            3096         104.330         48.7147         107.006         27.5315
            3097         101.917         49.3511         104.774        -26.7329
            3098         102.927         40.9146         108.259        -23.3027
            3099         106.288         39.6895         111.242         24.2360
            3100         78.2622         46.9760         80.3334        -20.3183
            3101         82.5179         54.8566         81.9301        -22.9624
            3102         87.1884         44.9197         90.7556         21.7882
            3103         87.0178         45.4019         91.3089        -20.9686
            3104         85.0591         54.2436         88.1352        -20.8617
            3105         87.3051         53.5555         87.9814         23.9802
            3106         68.3635         67.3096         51.8445         17.7461
            3107         63.0870         57.5050         53.5998         17.1510
            3108         73.8531         82.3319         37.8326         10.9432
            3109         74.0372         82.8586         37.7853        -10.3129
            3110         66.0277         72.8503         37.7685         11.2172
            3111         91.6669         44.7949         97.2215        -20.8104
            3112         91.3049         51.8359         96.2456        -21.4114
            3113         61.5458         64.0772         46.5472         12.8837
            3114         67.4837         72.8405         46.9494        -12.4350
            3115         61.8878         64.1535         46.1155        -13.4939
            3116         68.1602         73.5109         45.8639         13.0379
            3117         73.5351         82.9953         38.7280         8.82375
            3118         65.9178         73.5357         38.1138         9.79331
            3119         82.0282         93.0225         33.4359         4.75312
            3120         73.5574         83.5165         32.1725         5.40214
            3121         74.6608         58.3150         67.8027        -22.5854
            3122         71.4062         49.2353         69.8706        -20.2725
            3123         84.6683         95.4900         31.4045         4.58047
            3124         76.3307         86.1039         29.5698         5.29737
            3125         114.475         37.7962         125.873         14.0184
            3126         116.083         39.0558         126.430        -17.3505
            3127         112.825         36.2466         124.757        -11.1569
            3128         116.963         35.5806         128.766         11.7647
            3129         70.0827         77.3659         42.3710         11.6744
            3130         62.5567         67.4207         43.2847         11.7262
            3131         64.2219         54.3436         59.2836        -17.1111
            3132         64.8499         54.0450         59.4448         17.9225
            3133         66.8676         63.6213         59.1289         15.1574
            3134         67.9882         62.5319         60.6654        -16.5870
            3135         121.010         35.7239         132.945        -12.1395
            3136         119.468         33.6429         132.604         2.46154
            3137         117.836         34.0794         130.735        -5.40371
            3138         118.453         35.1147         130.943         9.12722
            3139         26.3372         27.3288         18.7434        -5.99167
            3140         26.0933         18.5363         27.1218         5.89943
            3141         83.5253         94.1556         31.6777        -5.48809
            3142         75.1433         84.6269         29.9851        -6.40958
            3143         77.3812         56.7048         72.6037        -23.2242
            3144         74.1181         48.2997         75.7339        -18.9994
            3145         78.3156         88.5858         34.9372         7.30801
            3146         78.5146         89.0241         35.1342        -6.64920
            3147         70.8733         79.7784         33.1668         8.25426
            3148         70.7425         79.5770         33.2264        -8.40781
            3149         76.0197         86.2009         30.6648         4.13927
            3150         84.5528         95.6809         32.2145         3.59955
            3151         68.2463         76.6302         35.6002         9.05616
            3152         76.2851         85.8680         35.9921         8.96741
            3153         79.6834         47.8679         84.8004         17.5710
            3154         78.8020         48.0941         83.8928        -17.2574
            3155         80.3042         55.5858         83.6956        -18.3150
            3156         80.4730         55.6611         82.6790         19.5272
            3157         75.4505         48.7415         79.8731        -16.6380
            3158         79.3545         55.9741         81.4666        -19.0372
            3159         68.5054         69.5988         48.9068         16.9408
            3160         63.7250         59.4740         49.9169         18.2645
            3161         72.6446         80.3785         39.0674         11.9785
            3162         65.1148         71.3804         39.0162        -11.6548
            3163         71.9815         80.1952         39.9669        -10.9219
            3164         64.3872         70.1378         40.1357         11.9799
            3165         69.5804         77.9449         34.0571        -9.32230
            3166         76.6769         86.4789         35.8377        -8.47740
            3167         74.0576         83.8078         31.3527        -5.92693
            3168         82.6982         93.5443         32.6726        -5.07560
            3169         69.1157         64.5840         55.6403        -19.1791
            3170         65.1189         55.0598         56.6873         19.2928
            3171         68.5828         65.0886         55.1072         18.4131
            3172         63.8978         55.9819         55.7573        -17.9023
            3173         79.0659         89.8557         35.1640        -5.78927
            3174         78.8811         89.4461         34.9227         6.47369
            3175         70.7221         80.2733         34.1320        -6.65118
            3176         71.2060         80.4765         33.2569         7.39836
            3177         62.1827         65.8445         44.5487         12.6476
            3178         60.9311         62.2534         48.9084         12.7776
            3179         66.7471         70.7471         49.1980        -13.0409
            3180         61.5901         62.1966         48.2939        -14.0988
            3181         69.1771         75.5187         43.8658         12.5283
            3182         67.1847         71.3876         48.2600         13.3384
            3183         67.3892         51.2188         66.9700        -16.9615
            3184         71.5858         59.2456         67.9079        -18.4954
            3185         86.2366         97.0003         30.3935         4.16758
            3186         78.0147         87.7021         28.1808         4.89877
            3187         109.149         40.5782         119.602         16.4870
            3188         108.617         38.0576         119.816         13.5799
            3189         65.1279         52.6069         64.1559         15.6335
            3190         67.2276         62.3456         61.8244         14.8863
            3191         27.4237         28.8927         18.8186        -5.96795
            3192         23.7600         25.4528         15.9530        -4.76951
            3193         27.0827         18.4825         28.6222         5.82097
            3194         23.6296         15.8399         25.3277         4.73117
            3195         80.5944         91.0074         33.3245         6.71730
            3196         72.7492         81.9092         31.6210         7.60482
            3197         84.4398         95.7532         32.7789         2.92313
            3198         75.8077         86.2335         31.4398         3.33147
            3199         76.9575         56.7315         78.7642         17.9686
            3200         75.8967         48.7805         80.7310         16.3439
            3201         71.4941         72.8109         43.5697         19.0088
            3202         65.1710         62.2989         45.2390         19.4754
            3203         64.4558         69.1402         40.3177        -13.3696
            3204         70.9674         78.0606         41.2023        -12.4038
            3205         68.4718         77.2754         35.6795        -8.18579
            3206         75.2183         85.4319         37.6997        -7.27255
            3207         71.3623         67.5009         49.7388        -21.7537
            3208         66.7897         58.0156         50.0650        -22.3092
            3209         72.2836         49.5736         76.2767        -15.6049
            3210         76.2204         56.9890         75.5529        -19.6574
            3211         115.412         34.8169         128.482        -4.95048
            3212         110.760         35.3843         123.892        -4.09802
            3213         81.8215         93.0404         34.0970         4.00137
            3214         73.2103         83.4502         33.0667         4.53933
            3215         91.0862         45.4814         98.8837        -17.7717
            3216         88.8573         51.5302         95.4952        -18.6352
            3217         73.1320         83.2609         39.7545         6.96386
            3218         65.2546         73.6115         39.3662         7.90832
            3219         61.2860         65.4825         45.8620         11.0731
            3220         68.0859         75.0528         45.2945         10.8114
            3221         69.6839         78.0959         42.9471        -9.42371
            3222         63.1109         69.4785         42.0084        -10.1603
            3223         100.045         41.7536         109.946         16.0025
            3224         102.981         45.2295         111.247         20.1257
            3225         29.1988         29.9674         20.8799        -6.93463
            3226         28.7267         20.3963         29.6634         6.69123
            3227         101.917         40.1948         112.944         13.6007
            3228         103.403         42.7749         113.503         16.6807
            3229         76.7734         87.5261         37.0120        -5.85827
            3230         68.6251         78.1255         36.3002        -6.43113
            3231         77.3729         88.0550         36.3676         6.12710
            3232         68.6208         77.9326         36.0550         6.95732
            3233         68.2886         69.1624         49.5550        -16.8478
            3234         63.4240         60.2845         49.0410        -17.6992
            3235         64.3069         53.3167         62.5144        -15.4673
            3236         69.5824         60.7749         64.1821        -17.6015
            3237         67.2480         51.2215         69.1959        -14.7749
            3238         71.4703         58.7820         71.3400        -15.8827
            3239         21.2128         23.5794         12.3408        -3.30091
            3240         26.3003         26.5070         19.7509        -6.39069
            3241         29.6930         32.5012         18.5170        -5.30073
            3242         21.1557         12.2899         23.5165         3.29186
            3243         26.1304         19.6223         26.3564         6.33188
            3244         29.5008         18.3645         32.3016         5.25520
            3245         83.5988         94.9734         33.4297         2.95535
            3246         86.2931         97.4889         31.4739         2.59318
            3247         74.9481         85.4377         32.2780         3.34185
            3248         77.7407         88.0246         29.6951         3.02157
            3249         78.2856         56.2457         77.3405         21.0837
            3250         76.0892         56.7828         79.7889         15.5955
            3251         75.0100         49.6461         81.3705         13.9084
            3252         77.3627         47.3452         79.7021         19.7019
            3253         66.5074         75.2971         38.0432        -7.54613
            3254         73.7663         84.0722         39.2735        -6.65184
            3255         85.0338         47.2750         93.0997        -15.5942
            3256         82.5207         53.0674         89.8590        -15.1378
            3257         73.9061         84.3741         39.3336         6.18414
            3258         67.0717         75.7068         37.2026         8.15576
            3259         112.023         35.0404         125.329         1.35180
            3260         109.590         35.6528         122.953        -1.29240
            3261         108.059         40.8152         118.577        -16.2303
            3262         106.331         39.0425         117.171        -14.4640
            3263         71.8655         81.0873         32.5473        -7.51300
            3264         80.4336         91.1075         33.9011        -6.00984
            3265         62.7557         68.7165         42.6313         10.4622
            3266         70.6438         78.9333         41.6673         10.2118
            3267         83.0769         94.3131         33.3553         3.65482
            3268         74.4833         84.7802         32.1352         4.15722
            3269         102.955         37.8946         115.800        -6.88920
            3270         107.064         39.0697         118.921        -12.1137
            3271         66.4537         69.2834         50.8708         13.5715
            3272         61.7749         60.0181         50.7919         15.0841
            3273         80.3119         55.2789         84.9579        -17.0566
            3274         78.5010         48.9386         85.4966        -14.6268
            3275         66.4527         65.2822         56.3050         14.8285
            3276         62.7680         56.0021         56.7946         15.9016
            3277         80.7504         91.7686         34.3592         4.88888
            3278         72.2676         82.2160         33.3023         5.54030
            3279         59.5188         60.9710         52.0655         9.80982
            3280         60.0794         60.4950         51.9241        -11.4735
            3281         65.4972         70.4593         50.6717        -10.4568
            3282         64.8743         69.2572         52.3892         9.93010
            3283         66.9015         64.4438         57.4375        -15.5480
            3284         61.7676         55.5527         59.1220        -13.1416
            3285         76.1532         51.7938         87.4340     428.374E-03
            3286         85.3200         95.7477         67.7613         1.66206
            3287         78.7239         88.5454         61.3913         2.83898
            3288         82.5333         50.6653         95.2031        -1.24199
            3289         25.0179         14.4613         28.0142         3.51613
            3290         25.1363         28.2512         13.5150         3.30963
            3291         42.4436         47.9659         27.0517         4.70808
            3292         40.9336         26.5292         46.0834         4.85231
            3293         77.8731         87.6041         60.6153        -2.92531
            3294         83.0296         50.5067         95.7926         1.28290
            3295         42.3450         26.7981         47.9261        -4.55971
            3296         25.0380         13.5054         28.1215        -3.34059
            3297         76.9158         51.7387         88.3840    -308.452E-03
            3298         84.7590         95.1721         67.1010        -1.82294
            3299         41.6171         46.8751         26.4558        -4.99730
            3300         84.5958         96.3885         60.9470        -2.93010
            3301         83.0444         50.4117         95.8129         1.29184
            3302         76.9309         51.8710         88.3876    -214.247E-03
            3303         91.9806         104.707         67.4490        -1.82211
            3304         27.9409         31.4028         14.2001        -3.59783
            3305         25.2982         14.5466         28.3588        -3.49760
            3306         42.3960         27.5970         47.9086        -4.57237
            3307         44.7682         50.7885         26.0004        -4.80343
            3308         76.1832         51.6938         87.4822     508.331E-03
            3309         92.5670         105.360         67.9953         1.69307
            3310         46.5060         52.8253         27.3708         4.79586
            3311         27.3603         30.6842         14.1530         3.69827
            3312         85.5147         97.4296         61.7167         2.84753
            3313         82.5150         50.7331         95.1797        -1.22009
            3314         41.5141         26.2191         46.8366         4.84155
            3315         67.7206         61.1732         64.8660        -14.1937
            3316         64.5159         52.7484         65.2259        -13.7362
            3317         102.520         44.7616         111.312        -19.1397
            3318         100.020         41.6716         110.076        -15.6835
            3319         103.142         41.9086         113.911        -15.0570
            3320         102.401         39.3820         114.065        -11.7798
            3321         75.7368         50.6828         87.0531     624.422E-03
            3322         84.5928         95.5037         65.0211         2.38092
            3323         77.9845         87.9639         59.2293         3.90968
            3324         82.6425         49.7701         95.3377        -1.67475
            3325         26.0491         17.4521         28.1568         4.91829
            3326         26.0453         28.5331         16.1021         4.63266
            3327         43.3278         47.9296         28.4793         6.68295
            3328         42.4467         28.6422         46.9417         6.38584
            3329         84.3203         96.2237         58.7710        -4.16550
            3330         82.9080         49.5724         95.6476         1.76306
            3331         76.2316         50.8806         87.6421    -433.128E-03
            3332         91.7538         104.794         65.2459        -2.40324
            3333         28.9844         31.8150         17.1468        -5.14490
            3334         26.5697         17.6665         28.7887        -4.95476
            3335         77.4832         87.4192         58.5358        -4.17328
            3336         82.8684         49.4551         95.6067         1.72804
            3337         43.1212         28.1872         47.8415        -6.44538
            3338         25.8000         16.1089         28.1792        -4.69075
            3339         84.3889         95.2328         64.9987        -2.40598
            3340         76.1967         50.5116         87.6369    -568.858E-03
            3341         43.6601         48.2343         28.7987        -6.81612
            3342         43.2296         29.2570         47.8255        -6.44918
            3343         46.1680         51.6703         27.8382        -6.45760
            3344         75.7809         50.3451         87.1414     734.956E-03
            3345         91.9798         105.113         65.0501         2.42719
            3346         47.3397         52.8969         28.7816         6.75883
            3347         27.5698         30.1439         16.6344         5.03855
            3348         84.8345         96.8080         59.4509         3.91651
            3349         82.6007         49.6574         95.2948        -1.63410
            3350         43.4206         28.4714         48.1382         6.53193
            3351         61.3863         66.4487         45.2461         10.2010
            3352         68.9499         76.4354         43.9365         10.6395
            3353         69.0269         76.5909         43.8160        -10.5611
            3354         62.7208         67.9091         42.8852        -11.4806
            3355         28.5902         28.6640         21.3047        -7.13117
            3356         28.4193         21.1252         28.5714         7.03878
            3357         106.441         36.8678         119.295         6.76374
            3358         103.156         40.8780         114.638         13.0950
            3359         77.9047         88.8920         36.4659        -5.13563
            3360         69.6473         79.4456         35.6348        -5.78303
            3361         77.7519         88.6847         36.4875         5.32104
            3362         75.7241         86.0442         37.3449         7.05210
            3363         69.8115         79.7177         35.6506         5.46946
            3364         67.8259         76.8276         36.6225         7.53403
            3365         69.4244         50.5318         73.1996        -14.2245
            3366         73.6506         57.8568         74.5453        -16.6629
            3367         22.8974         23.9170         16.5351        -4.97757
            3368         22.7983         16.4654         23.8163         4.95248
            3369         65.4109         73.8500         39.2053        -7.81071
            3370         67.5821         76.7406         37.0830        -7.04386
            3371         73.1297         83.1250         39.6186        -7.34512
            3372         75.1653         85.8322         38.3512        -5.87673
            3373         87.4848         46.4619         96.0291        -15.6524
            3374         86.3559         51.3127         94.2345        -16.1207
            3375         72.6004         83.1581         40.8673         5.28729
            3376         65.1856         74.1838         40.0291         6.14021
            3377         110.638         35.4452         123.773         4.15503
            3378         105.448         36.6863         118.738        -3.19966
            3379         105.772         37.8524         118.614        -7.64640
            3380         64.7899         67.1141         54.9089         11.0091
            3381         60.0381         58.9095         54.2879         11.3305
            3382         79.7199         54.9480         85.5527        -15.4669
            3383         77.3018         56.4168         80.9450        -16.4040
            3384         80.1535         48.6520         87.9028        -14.2280
            3385         76.0391         49.3788         82.3963        -14.4125
            3386         81.5380         92.9135         34.6956         3.43683
            3387         72.9020         83.3316         33.8187         3.87286
            3388         62.9036         69.8681         42.3396         8.96018
            3389         69.8069         78.7973         42.9391         8.24044
            3390         64.9951         65.3571         57.3785         11.6991
            3391         61.1049         56.7239         57.1052         12.8380
            3392         58.9904         61.5228         52.3144         7.67133
            3393         61.4232         60.2708         50.7772        -14.4026
            3394         59.2306         60.8811         52.6178        -8.87976
            3395         66.2572         68.6048         51.7796        -13.5967
            3396         64.8528         70.8157         51.2031        -8.06727
            3397         64.5863         70.6753         51.6308         7.29547
            3398         66.3288         66.4909         54.4693        -14.5291
            3399         60.0727         57.6610         56.5398        -10.7599
            3400         31.8736         20.0770         34.8476         5.71903
            3401         32.0397         35.0321         20.1824        -5.74453
            3402         77.1898         87.6139         30.4426         2.73862
            3403         85.8260         97.1284         32.0118         2.35737
            3404         74.2065         84.8235         33.2701         2.98708
            3405         82.9028         94.3939         34.1945         2.65506
            3406         72.6351         49.7035         77.3712         14.8855
            3407         73.8891         57.7307         75.4618         16.2147
            3408         79.1497         55.8150         83.1842         17.0555
            3409         78.1962         48.9054         84.8089         15.0329
            3410         25.8936         20.4852         25.2773         6.57523
            3411         25.9606         25.3590         20.5069        -6.59221
            3412         94.5686         49.4449         101.407         20.2405
            3413         91.6254         44.8853         100.885         15.6098
            3414         98.2523         44.6011         108.292         15.9892
            3415         96.6453         41.8349         107.722         12.8139
            3416         67.6489         51.3575         65.2219         18.5698
            3417         69.3120         61.4642         62.3581         17.9866
            3418         19.9302         11.7243         22.2758         2.87012
            3419         75.0650         84.5053         58.0268        -3.16649
            3420         73.6141         51.1869         84.3345         1.07143
            3421         86.7964         97.3089         69.3201         1.26095
            3422         84.4423         49.5206         97.4621         1.38332
            3423         47.0180         53.2366         31.1266         4.64652
            3424         46.8590         30.6630         53.1804        -4.39926
            3425         19.8871         22.3440         10.5296         2.62324
            3426         19.8605         10.4767         22.3172        -2.60967
            3427         76.0856         85.6199         59.0415         3.02662
            3428         74.5258         51.3148         85.4621    -928.673E-03
            3429         86.3417         96.8332         68.8255        -1.39678
            3430         84.0239         49.7281         96.9735        -1.36297
            3431         45.8696         52.0065         30.0468        -4.44069
            3432         45.4141         30.1481         51.4161         4.47286
            3433         22.3617         25.1432         11.0182        -2.79859
            3434         81.5748         92.9756         58.3537        -3.17854
            3435         73.6670         51.0370         84.4200         1.13471
            3436         94.1285         107.082         69.5166         1.29108
            3437         84.4574         49.3869         97.4826         1.35380
            3438         51.4792         58.6480         31.4611         4.68519
            3439         46.9108         31.4211         53.1587        -4.38941
            3440         20.1706         11.6061         22.5982        -2.81364
            3441         21.6516         24.3510         10.6511         2.69187
            3442         74.5453         51.5146         85.4617    -831.090E-03
            3443         82.6771         94.2119         59.4025         3.02131
            3444         84.0086         49.8487         96.9525        -1.38079
            3445         93.6595         106.533         69.2160        -1.39143
            3446         45.7805         29.6855         52.0071         4.23245
            3447         49.6363         56.5316         29.8954        -4.62765
            3448         63.6649         72.3959         42.0824         5.40722
            3449         70.8159         81.2042         42.7815         4.63841
            3450         89.7786         49.3781         98.3704        -16.3565
            3451         92.2181         44.1650         102.303        -14.2126
            3452         65.9280         73.7976         38.1979        -9.31398
            3453         73.0200         82.3730         39.2295        -8.92754
            3454         68.2685         74.8146         45.1491        -11.5864
            3455         62.2762         66.0810         44.3017        -12.6027
            3456         74.6870         57.5728         73.5715         19.0304
            3457         73.5040         48.6999         75.8893         17.9608
            3458         86.3306         52.6576         92.5530         18.1449
            3459         81.7363         48.0921         88.7094         15.9670
            3460         71.2403         58.6908         72.6675         14.3169
            3461         69.8022         50.6439         74.5495         13.2336
            3462         81.1925         52.6195         89.5243        -13.1598
            3463         84.4615         47.2370         93.4956        -13.8736
            3464         66.8041         76.2332         38.3926        -5.89037
            3465         74.8324         85.7853         39.1682        -4.71459
            3466         21.3530         15.2589         22.7941         4.13762
            3467         74.8485         84.3978         56.2899        -4.52813
            3468         73.2680         50.1495         84.0247         1.51357
            3469         86.0104         97.0508         66.5157         1.82503
            3470         84.3967         48.6799         97.3804         1.88006
            3471         47.6917         53.0794         32.0084         6.62129
            3472         47.3839         31.5006         52.9582        -6.23399
            3473         20.9036         22.8020         13.4819         3.77195
            3474         20.8105         13.3432         22.7313        -3.72527
            3475         74.1249         50.0334         85.1145        -1.32169
            3476         75.7830         85.4561         57.2557         4.27989
            3477         84.0008         48.9974         96.9225        -1.85911
            3478         85.6244         96.6229         66.1373        -1.98168
            3479         46.1659         31.4831         51.3882         6.25075
            3480         47.0751         52.5431         31.4437        -6.29098
            3481         23.4845         25.8400         14.1126        -4.05450
            3482         81.4578         92.8967         56.5228        -4.52884
            3483         73.3665         49.7893         84.1894         1.58511
            3484         84.4311         48.7208         97.4212         1.86481
            3485         93.4838         106.824         66.4561         1.87128
            3486         47.4791         32.5256         52.9333        -6.22107
            3487         52.0912         58.5548         32.3032         6.65430
            3488         22.1801         24.4222         13.4549         3.78934
            3489         21.6282         14.9953         23.3031        -4.05479
            3490         82.4483         94.0435         57.5032         4.27060
            3491         74.1629         50.4803         85.1131        -1.17920
            3492         93.0953         106.328         66.4216        -1.97272
            3493         83.9643         48.9368         96.8805        -1.86036
            3494         50.2898         56.5203         30.8858        -6.48760
            3495         46.8471         31.0046         52.4862         5.94088
            3496         74.5232         50.4775         85.5651         1.07390
            3497         85.3460         96.3246         65.8254         2.09283
            3498         75.7816         85.5169         55.9542         5.28751
            3499         83.8272         48.4956         96.6889        -2.26676
            3500         23.6862         16.2644         25.4734         4.54311
            3501         23.4916         25.7162         14.6472         4.18975
            3502         45.5398         50.5421         30.2398         6.66614
            3503         46.5739         32.4878         50.8585         7.73228
            3504         82.9294         94.6054         57.6983        -4.34324
            3505         83.7072         49.1677         96.5808         1.84837
            3506         73.9801         49.8260         84.9579        -1.37774
            3507         92.4905         105.928         63.9090        -2.52446
            3508         26.2279         28.8049         15.6050        -4.62474
            3509         24.0966         16.2310         26.0619        -4.50872
            3510         76.1956         85.9402         57.4489        -4.35347
            3511         83.6714         49.0927         96.5407         1.83914
            3512         23.2791         14.4090         25.5240        -4.10686
            3513         73.9285         49.1559         84.9589        -1.56261
            3514         45.2816         29.8462         50.4353        -6.35632
            3515         84.9022         96.2303         63.7321        -2.53534
            3516         45.5848         49.5051         30.7244        -8.25122
            3517         45.3860         30.8981         50.4169        -6.35387
            3518         50.6055         56.0301         31.5597        -8.03799
            3519         74.6065         50.1395         85.7048         1.16158
            3520         83.7680         48.2656         96.6238        -2.23350
            3521         49.7551         55.7823         30.5365         6.70363
            3522         82.5196         94.1225         56.0874         5.28298
            3523         92.7777         106.021         65.7994         2.14348
            3524         24.7985         27.2237         14.9030         4.37613
            3525         45.1545         30.2868         49.3322         7.79073
            3526         77.6313         88.0991         30.2671         2.27784
            3527         86.2880         97.6182         31.8643         1.95816
            3528         30.6176         29.2540         24.0371        -8.30738
            3529         30.4767         23.9277         29.1698         8.23369
            3530         98.2344         40.5765         110.048         10.9294
            3531         98.6939         42.6720         109.999         13.0861
            3532         76.3467         86.9050         31.4350         2.58458
            3533         85.0038         96.4197         32.7847         2.24577
            3534         75.9338         86.6601         37.7204         5.83069
            3535         79.1936         90.0274         35.1419         5.64130
            3536         71.1402         80.7516         33.8034         6.50942
            3537         66.8661         76.0618         38.0076         6.63402
            3538         67.0471         51.4915         70.7296        -12.6917
            3539         69.9514         59.1781         71.3798        -13.1681
            3540         65.0781         73.9072         40.0072        -6.56088
            3541         72.9230         83.2820         40.2413        -6.16101
            3542         93.9931         44.3271         102.771        -16.9657
            3543         93.4649         49.0873         101.089        -18.8802
            3544         71.8222         82.0975         41.3949         5.86813
            3545         63.1941         71.0659         42.1428         7.34918
            3546         67.5955         51.0560         68.1290         16.3225
            3547         69.3058         60.4636         65.6632         16.3913
            3548         76.7636         56.3598         81.2793        -15.1745
            3549         74.1695         50.1245         81.3843        -12.1736
            3550         64.5050         63.7269         60.9961         9.42237
            3551         61.4149         55.3409         60.3460         11.6495
            3552         59.3497         62.7240         50.5520         8.23433
            3553         59.7818         63.6015         49.1753        -8.90939
            3554         65.5760         72.0363         49.5813        -8.64706
            3555         65.4868         72.1074         49.6715         8.23536
            3556         65.3954         64.3764         58.8101        -12.3772
            3557         60.2809         56.5400         58.8637        -10.0040
            3558         66.4412         61.4132         65.4418        -11.2429
            3559         62.5582         53.9044         64.2314        -10.7164
            3560         75.0664         47.4841         73.1950         22.3479
            3561         76.0873         57.3365         70.5112         22.8969
            3562         93.6975         46.1583         103.803         14.8874
            3563         90.2437         44.4798         100.787         12.7867
            3564         59.7284         63.7665         49.1517         8.55687
            3565         66.4819         73.5770         47.7742         8.92506
            3566         107.572         36.0797         120.920         1.92710
            3567         74.8225         85.5287         33.0937         2.48423
            3568         83.5275         95.0654         33.9939         2.27171
            3569         68.7523         78.7443         36.9955        -4.85583
            3570         77.1762         88.3815         37.5321        -4.21772
            3571         72.8026         83.4573         34.6150         2.93083
            3572         81.4935         93.0576         35.3006         2.60312
            3573         87.4483         45.9587         97.2178         13.5611
            3574         92.1032         48.2391         100.974         16.6446
            3575         80.4483         91.9152         35.6899         3.17248
            3576         71.8274         82.3408         35.0582         3.50291
            3577         23.4954         22.4080         19.6464        -5.89268
            3578         23.4959         19.6578         22.3973         5.89547
            3579         68.2288         76.8360         45.0071        -7.82986
            3580         61.8281         68.3304         44.1310        -8.59477
            3581         32.9969         22.3243         34.8411         7.17218
            3582         33.3122         35.2286         22.4442        -7.20141
            3583         93.0711         44.9109         100.552         18.7115
            3584         91.5574         51.5796         96.8062         21.1666
            3585         26.3640         21.8697         24.7565         6.95963
            3586         26.3547         24.7555         21.8524        -6.95642
            3587         101.473         37.8576         114.857        -2.56069
            3588         103.080         37.9527         116.336        -4.69810
            3589         30.8039         17.6630         34.6079         4.10160
            3590         30.8916         34.7054         17.7388        -4.11487
            3591         66.9115         73.9173         47.1103        -9.59611
            3592         61.0134         65.4069         46.2611        -10.4924
            3593         73.3013         57.1657         78.3711        -12.1555
            3594         71.0580         50.9947         78.5504        -9.73427
            3595         59.3659         57.4084         58.4995        -7.41078
            3596         63.9737         65.9267         57.4333        -8.83390
            3597         60.6412         55.6154         61.1635        -9.03599
            3598         65.2030         62.7840         62.5750        -10.3711
            3599         104.594         37.0421         117.799         4.27523
            3600         105.474         37.2380         118.666         5.00665
            3601         102.959         37.3921         116.352         2.26695
            3602         61.8811         69.4745         44.2799         6.27623
            3603         70.4922         80.1220         42.4076         7.04723
            3604         65.4229         74.9054         40.4189         4.59128
            3605         73.1993         84.0259         40.6431         4.50889
            3606         87.2698         49.4168         96.6421        -14.2600
            3607         84.1086         46.7530         94.3146        -11.5852
            3608         85.8181         53.3085         81.3627         27.3275
            3609         85.7201         43.2715         84.1430         26.0541
            3610         81.6346         54.3879         87.4234         16.5135
            3611         77.1291         49.4420         84.7847         13.0111
            3612         70.9979         58.4598         74.2152         12.2998
            3613         69.6625         51.0984         75.7973         11.1011
            3614         88.1930         49.2344         97.4366         14.8023
            3615         86.9599         45.3839         97.7559         11.2939
            3616         73.4564         82.8081         55.0684        -4.69932
            3617         71.9759         49.7017         82.4405         1.93813
            3618         86.5724         97.6773         67.0492         1.58146
            3619         18.1537         12.2718         19.7545        -3.22190
            3620         85.0443         48.2317         98.1257         1.85844
            3621         49.7684         55.5159         33.7616         6.56610
            3622         18.9831         14.4191         20.0142         3.67280
            3623         18.1664         19.7564         12.3192         3.23132
            3624         49.4199         33.1300         55.3991        -6.08405
            3625         74.2906         83.7685         55.5290         4.83193
            3626         72.6715         49.2693         83.3675        -1.91455
            3627         84.7482         48.3232         97.7756        -1.99121
            3628         86.0776         97.2728         66.0305        -1.85323
            3629         48.4793         33.4822         53.8685         6.60831
            3630         49.0572         54.8161         33.1412        -6.32818
            3631         20.3947         21.7559         14.5029        -3.99233
            3632         79.9346         91.1297         55.2767        -4.71694
            3633         85.0765         48.2494         98.1657         1.82077
            3634         94.0890         107.518         66.9810         1.61578
            3635         72.7195         49.8351         83.3659        -1.75704
            3636         49.5027         34.1232         55.3640        -6.05942
            3637         19.2510         14.0123         20.5928        -3.59370
            3638         72.0771         49.2912         82.6182         2.00609
            3639         54.3748         61.2436         34.0805         6.62271
            3640         80.8344         92.1697         55.7606         4.80095
            3641         93.6522         107.062         66.3361        -1.83462
            3642         48.7620         32.5663         54.7007         5.95541
            3643         52.9288         59.4125         33.0049        -6.90890
            3644         19.7036         21.7421         12.2351         3.25720
            3645         84.7097         48.2443         97.7288        -2.01276
            3646         15.2917         16.9429         10.0432        -2.31438
            3647         15.2783         10.0346         16.9259         2.31598
            3648         75.2395         49.9006         86.5252     809.042E-03
            3649         76.7469         86.6456         56.9287         4.97925
            3650         83.2122         48.8808         95.9845        -2.13808
            3651         83.9594         95.2075         62.5494         3.02470
            3652         27.0928         28.7895         18.2411         5.70371
            3653         27.4052         20.1631         28.3651         6.10593
            3654         44.4123         47.9386         29.9344         8.43185
            3655         44.9392         31.1462         49.0885         7.49851
            3656         84.0898         95.9857         56.8501        -5.25063
            3657         82.7609         48.8980         95.4546         2.18452
            3658         74.9348         50.0826         86.1253    -958.576E-03
            3659         91.9942         105.318         63.7144        -2.69435
            3660         30.4219         32.2828         19.9664        -6.56318
            3661         28.2157         20.5308         29.3280        -6.23459
            3662         26.5298         18.4440         27.8241        -5.84961
            3663         74.8858         49.4751         86.1230        -1.13618
            3664         84.4700         95.6849         63.5461        -2.70053
            3665         44.8731         48.2252         30.4180        -8.74807
            3666         77.1442         87.1450         56.6730        -5.28903
            3667         82.6981         48.5754         95.3927         2.11133
            3668         44.0872         29.6513         47.7963        -8.10792
            3669         44.2577         30.9835         47.7785        -8.08964
            3670         48.7703         53.9462         30.2257        -7.85948
            3671         75.3161         49.3196         86.6720     946.103E-03
            3672         91.4656         104.803         62.3900         3.08239
            3673         83.1524         48.6392         95.9220        -2.08871
            3674         30.2135         32.0587         19.8509         6.51745
            3675         48.4064         53.0935         30.2313         8.47376
            3676         83.5713         95.3711         57.0639         4.98264
            3677         44.4650         30.0725         48.0310         8.37086
            3678         70.9200         50.5032         76.4032        -12.9130
            3679         72.3190         58.1856         74.5772        -14.3994
            3680         64.3744         72.5555         40.5094        -7.70120
            3681         72.2993         82.0118         40.3010        -7.79376
            3682         65.0617         52.3784         66.3561         13.6873
            3683         67.2206         61.5159         64.2634         13.6362
            3684         65.7006         62.4912         62.9031         11.3359
            3685         64.0799         65.2775         58.3729         9.09425
            3686         63.1317         53.8477         62.6973         13.3064
            3687         58.7297         62.1754         52.3055         5.76321
            3688         58.7580         61.3676         52.9631        -6.62465
            3689         60.1673         64.9907         47.7401        -8.56079
            3690         65.8327         73.0485         48.8436        -7.74831
            3691         64.6358         71.6765         51.1570         5.47683
            3692         75.0407         86.0877         39.1476         4.38206
            3693         66.9127         76.5511         38.5849         5.23304
            3694         67.0196         76.9103         38.9585        -4.28091
            3695         75.4810         86.7302         39.1817        -3.57201
            3696         65.5636         73.2573         49.2386         6.18061
            3697         59.6715         64.6173         48.8113         7.22959
            3698         73.6023         84.3489         34.2573         2.48733
            3699         82.3556         93.9707         34.9487         2.21371
            3700         88.4908         46.2083         96.8504         16.2348
            3701         89.7303         50.4490         97.2815         17.7996
            3702         19.8658         18.0735         18.2525        -4.64505
            3703         19.8439         18.2269         18.0650         4.63625
            3704         67.1578         75.8726         46.6652        -6.23139
            3705         60.5573         66.3165         46.6099        -7.91258
            3706         34.3008         21.9183         37.4364         6.19648
            3707         33.9936         24.5430         34.3085         8.52748
            3708         34.4019         34.9095         24.5870        -8.53652
            3709         34.5099         37.6468         22.0762        -6.25543
            3710         92.9337         43.9800         97.7534         21.9536
            3711         97.1354         50.4936         101.158         24.2254
            3712         77.9623         88.4777         30.1906         1.78371
            3713         86.6618         98.0213         31.7742         1.53239
            3714         72.9703         83.8643         41.0344        -4.03898
            3715         65.4705         74.7375         39.9734        -5.48702
            3716         60.6680         66.5222         46.3650         7.95792
            3717         67.1560         75.3931         46.5752         7.48347
            3718         101.814         37.7731         115.298     499.930E-03
            3719         103.233         37.3525         116.705    -589.937E-03
            3720         63.2716         53.3699         66.5149        -9.67158
            3721         65.5407         61.5083         65.9040        -8.61437
            3722         97.4109         39.3922         110.646        -4.21300
            3723         101.412         39.2833         114.243        -7.69224
            3724         32.2293         26.0032         29.8590         9.08171
            3725         31.8490         29.5000         25.7395        -8.96107
            3726         82.5664         47.5590         92.2059        -12.0919
            3727         83.1785         50.7032         92.6945        -12.3219
            3728         78.8459         90.2486         36.6728         3.49484
            3729         70.5027         80.9467         36.1949         3.56141
            3730         20.6598         17.5901         19.9265         4.86005
            3731         20.6734         19.9473         17.5924        -4.86225
            3732         78.3441         89.6616         36.8402        -3.85289
            3733         69.6910         79.9028         36.4348        -4.32506
            3734         66.9770         60.3684         68.6939        -9.48098
            3735         64.4163         52.8184         68.9062        -9.14937
            3736         71.9074         82.3413         41.4927        -5.33836
            3737         63.7624         72.4342         41.8461        -5.74239
            3738         58.5609         61.9493         53.0173        -4.66244
            3739         58.4638         61.8560         53.6112         3.35973
            3740         64.0134         70.6565         52.6345         4.24071
            3741         63.9628         69.9709         53.0078        -5.61223
            3742         63.5023         65.2955         58.9613         6.89254
            3743         59.1887         57.5599         58.5937         6.57227
            3744         60.9289         68.1559         46.0402         5.33253
            3745         68.1481         77.7713         45.6934         4.52870
            3746         16.5826         13.2791         17.1927         3.23331
            3747         16.5958         17.2132         13.2810        -3.23262
            3748         80.5578         53.9995         87.4953         14.6388
            3749         79.4900         48.7776         88.2069         12.4024
            3750         84.5662         46.5856         94.8015         11.6944
            3751         84.7817         50.1134         94.3286         12.9851
            3752         76.2723         49.6850         84.7027         11.2956
            3753         77.6886         55.1112         84.2745         13.4233
            3754         61.7132         68.5718         44.3526         7.75915
            3755         68.3762         77.0399         44.8019         7.84193
            3756         83.6955         95.1244         61.1587        -3.34544
            3757         44.8301         47.3927         30.7303        -9.58660
            3758         28.5197         20.9753         28.8428        -6.98778
            3759         74.7410         48.7463         86.0153        -1.19846
            3760         45.2179         31.2218         47.8208        -9.59305
            3761         76.8441         86.8084         55.0099        -6.28629
            3762         82.5065         47.8373         95.1409         2.47651
            3763         44.1600         30.2764         46.9470         9.14340
            3764         82.7305         48.0156         95.4084        -2.39191
            3765         83.7509         95.5567         55.6870         5.86939
            3766         32.0403         33.3818         21.7582         7.41940
            3767         49.5984         53.3899         31.6859         9.95373
            3768         90.9875         104.423         59.9757         3.66690
            3769         74.7873         48.5524         86.0923         1.14120
            3770         45.2244         32.0360         48.4333         8.65565
            3771         45.6368         48.0085         31.4287         9.98296
            3772         27.8784         28.8525         19.7672         6.43750
            3773         30.7706         23.7422         30.5902         7.60824
            3774         49.0103         53.1883         31.0113        -9.32298
            3775         45.4193         32.7867         47.7520        -9.54502
            3776         76.8361         86.7962         55.6613         5.86532
            3777         82.8182         48.4617         95.4964        -2.49505
            3778         83.3733         94.8495         60.2572         3.61063
            3779         74.6717         49.4036         85.8776     974.813E-03
            3780         30.0056         23.1519         29.9097        -7.35302
            3781         32.2353         32.9822         22.6714        -7.85391
            3782         91.3182         104.737         61.2145        -3.33841
            3783         74.8078         49.5876         86.0243    -972.104E-03
            3784         82.5919         48.3700         95.2231         2.59951
            3785         83.8881         95.6963         55.1423        -6.20930
            3786         64.4392         62.8095         63.1888        -7.81909
            3787         61.1784         54.8630         63.4441        -7.92521
            3788         72.7294         56.8488         78.7427        -10.5483
            3789         73.2110         50.4684         81.0932        -10.4774
            3790         69.1386         59.9271         68.2914         14.3491
            3791         67.4267         51.2172         70.4217         13.7931
            3792         71.9977         50.6079         78.8294        -11.5156
            3793         74.0112         57.3033         78.0695        -13.8176
            3794         64.0461         73.2806         42.2836         3.76483
            3795         71.9806         82.7821         42.0359         3.70275
            3796         89.6189         48.0776         99.4033        -14.3543
            3797         87.0495         45.6455         97.4767        -12.1348
            3798         73.0910         57.3184         77.9489         12.2307
            3799         69.0059         59.5945         70.3024         12.3493
            3800         67.3661         51.5540         72.1391         11.4800
            3801         71.9994         50.6827         79.1675         10.9562
            3802         89.7658         47.4745         99.9847         13.5874
            3803         92.3903         43.0223         103.744         11.3354
            3804         85.6184         47.7560         98.7808         1.78922
            3805         51.8036         57.8682         35.5148         6.55125
            3806         72.0221         81.1702         53.7518        -4.91150
            3807         70.6409         49.1199         80.8074         2.36518
            3808         87.0095         98.1969         67.3484         1.36686
            3809         74.6718         84.1995         54.7017        -5.77077
            3810         84.3475         47.9222         97.2825         2.31515
            3811         48.0537         32.4688         52.7507        -7.85401
            3812         85.2993         96.7265         63.9316         2.35070
            3813         48.5372         52.9424         32.9753         8.39414
            3814         72.8370         49.4119         83.5540         1.91350
            3815         74.7409         84.2784         54.7378         5.78332
            3816         51.4027         34.7370         57.7521        -5.95567
            3817         16.6546         13.7467         17.1715         3.14095
            3818         23.4313         18.7213         23.4941         5.36675
            3819         22.4355         23.5043         16.1403         4.82212
            3820         72.8466         48.6541         83.6412        -2.08533
            3821         84.4448         48.0065         97.3855        -2.41479
            3822         85.2046         96.6943         63.5074        -2.42502
            3823         15.3435         16.7539         10.8111         2.51513
            3824         71.2506         48.7331         81.6254        -2.37261
            3825         85.4372         47.8482         98.5690        -1.87610
            3826         72.7610         82.0110         54.2459         4.98332
            3827         86.6852         97.9332         66.6851        -1.54939
            3828         48.3025         33.9900         52.5925         8.15378
            3829         15.3462         10.7972         16.7589        -2.51762
            3830         50.5814         35.0820         56.4842         6.29409
            3831         22.3358         15.9385         23.4814        -4.75156
            3832         51.0589         57.0784         34.8763        -6.41341
            3833         47.0093         31.8572         51.1782         8.29010
            3834         24.8681         26.3754         17.0007        -5.23256
            3835         81.3941         92.7651         54.8997        -5.72809
            3836         17.3913         18.6652         12.7806        -3.12380
            3837         72.9049         49.4296         83.6385        -1.88559
            3838         78.3590         89.2988         53.9286        -4.94354
            3839         85.6522         47.7602         98.8235         1.73228
            3840         48.2244         33.7938         52.7268        -7.85914
            3841         84.4003         48.1370         97.3437         2.33008
            3842         73.0252         48.8316         83.8515         1.97277
            3843         71.3023         49.3372         81.6216        -2.21751
            3844         51.4672         35.7007         57.6938        -5.92926
            3845         92.8807         106.459         63.6835        -2.40686
            3846         94.5858         108.101         67.3340         1.37780
            3847         70.7261         48.6218         80.9771         2.45365
            3848         16.9249         13.3015         17.8154        -3.11484
            3849         23.5943         18.1510         24.1684        -5.22185
            3850         84.3835         47.7642         97.3145        -2.39326
            3851         56.6118         63.8512         35.8540         6.62640
            3852         50.6706         34.1428         56.8983         5.97299
            3853         52.8606         58.4859         33.2291         8.42431
            3854         79.1298         90.1901         54.4847         4.92168
            3855         94.3240         107.804         67.0843        -1.51653
            3856         85.4036         47.8004         98.5259        -1.92524
            3857         55.3655         62.3633         34.8720        -6.70402
            3858         17.5112         19.2853         11.5256         2.83744
            3859         81.3817         92.7457         54.8495         5.76777
            3860         52.5790         58.1407         33.0275        -8.43876
            3861         92.8956         106.488         63.6039         2.41083
            3862         22.7439         24.1512         15.8651         4.67125
            3863         83.7638         94.5898         64.1606         2.67734
            3864         76.9048         50.7743         88.4803     173.309E-03
            3865         81.9840         49.7586         94.5644        -1.67590
            3866         78.6471         88.7965         59.2376         4.14504
            3867         28.5427         31.2359         17.7398         5.11274
            3868         28.5150         18.9734         30.8732         5.34580
            3869         41.0247         45.2251         26.7043         6.64069
            3870         41.3613         28.3394         45.0568         7.17402
            3871         82.0330         49.9356         94.6211         1.59678
            3872         85.6446         97.7673         59.7886        -3.96860
            3873         76.8514         50.6293         88.4300    -169.408E-03
            3874         91.0000         104.035         63.8169        -2.84412
            3875         31.7772         34.9019         18.7593        -5.61158
            3876         29.0501         19.2138         31.5317        -5.36448
            3877         78.7038         88.8249         59.5604        -3.97600
            3878         81.9914         49.7697         94.5823         1.53690
            3879         40.8647         26.4937         45.1549        -6.46430
            3880         76.8080         50.1986         88.4178    -317.843E-03
            3881         28.4489         17.8098         31.0575        -5.18675
            3882         83.6327         94.5356         63.6202        -2.84561
            3883         42.6546         46.5210         28.3210        -7.54207
            3884         41.0038         27.5921         45.1755        -6.47160
            3885         44.8713         49.7877         27.2180        -7.04509
            3886         76.9219         50.4440         88.5329     294.866E-03
            3887         91.0972         104.103         64.2359         2.71666
            3888         81.9328         49.5431         94.5165        -1.60634
            3889         30.3639         32.9978         18.6029         5.79925
            3890         44.8513         49.9018         27.0675         6.81953
            3891         85.5949         97.7311         59.4111         4.15355
            3892         42.3365         27.9891         46.3509         7.25491
            3893         64.5346         62.7353         63.3216         7.99739
            3894         63.8866         66.7689         56.2959         8.42600
            3895         59.9112         57.5882         56.9424         10.1607
            3896         61.3932         54.7947         62.8596         9.30434
            3897         58.5083         61.1282         53.9207         5.00658
            3898         58.6456         60.2456         54.6046        -6.26629
            3899         59.3018         63.6403         50.0143        -7.02654
            3900         64.1552         69.2689         53.2259        -7.56339
            3901         65.5725         73.6109         49.2561        -5.19014
            3902         63.8589         69.5451         53.4500         5.82291
            3903         58.8183         58.2218         58.0246        -5.20442
            3904         63.2658         66.0826         57.9687        -5.94402
            3905         68.9159         78.1623         44.2604        -6.84516
            3906         62.2112         69.5354         43.5641        -7.44943
            3907         30.4727         22.3080         30.7134         7.58904
            3908         30.3593         30.3741         22.4577        -7.67851
            3909         77.5755         88.2445         30.9640         1.22499
            3910         86.4324         97.9017         32.2558         1.04414
            3911         74.2806         85.4056         40.1021        -3.66322
            3912         65.9096         75.4933         39.8860        -4.65691
            3913         97.4738         39.7726         110.263        -6.99473
            3914         98.3590         38.9291         111.781        -2.28139
            3915         100.203         38.4339         113.678        -1.81836
            3916         98.9361         40.6824         111.478        -8.96640
            3917         32.8409         27.4535         29.3441         9.47544
            3918         32.7626         29.2795         27.3718        -9.45719
            3919         36.4901         26.1208         36.9546         9.10817
            3920         37.0028         37.5579         26.2950        -9.21540
            3921         76.9029         88.1215         37.8015         4.11640
            3922         79.8560         91.5077         36.7270         2.25492
            3923         71.2793         81.9834         36.3269         2.45087
            3924         69.6332         79.7802         36.3435         4.56614
            3925         76.6419         88.0238         38.4554        -3.26448
            3926         79.7631         91.1354         35.9071        -3.63223
            3927         71.3087         81.5581         34.8482        -4.50769
            3928         68.0275         78.1614         38.2272        -3.87770
            3929         36.8684         23.9272         40.1448         6.72605
            3930         37.1210         40.3531         24.1513        -6.85306
            3931         82.0881         50.6048         92.0051        -11.0840
            3932         82.9996         46.8964         93.5091        -10.5033
            3933         21.8214         19.8452         19.6300        -5.37170
            3934         21.8192         19.6130         19.8581         5.37093
            3935         75.6591         86.9109         39.0196         3.62823
            3936         67.7551         77.6165         37.9282         4.88985
            3937         70.7821         58.1251         75.2557        -10.6834
            3938         69.1371         51.4998         76.3370        -8.78836
            3939         19.5269         16.8996         18.8023        -4.46939
            3940         19.5088         18.7661         16.9141         4.46280
            3941         22.4319         19.2381         21.1662        -5.54596
            3942         22.4404         21.1207         19.3065         5.55325
            3943         48.8666         33.5808         52.6181        -9.28380
            3944         84.6450         96.3473         61.5348         2.83766
            3945         72.3007         48.9507         82.9098         2.28589
            3946         74.5053         83.9073         53.2482        -6.90781
            3947         84.3036         47.2347         97.1797         2.72939
            3948         49.5306         52.8686         34.0481         9.98326
            3949         25.8333         22.0355         24.2890         6.50801
            3950         53.7201         58.4283         34.2244         10.0059
            3951         49.1275         35.2361         52.5658        -9.32700
            3952         84.3730         47.6344         97.2594         2.78503
            3953         92.3510         106.082         61.0070         2.89848
            3954         81.3578         92.5894         53.4634        -6.78497
            3955         26.0620         26.4202         19.5686        -6.19891
            3956         72.6219         48.1175         83.4006         2.31033
            3957         58.8219         63.6157         51.5237        -3.46780
            3958         58.7513         63.4593         52.1203         2.28240
            3959         64.3738         71.8076         51.8046         2.82237
            3960         64.3031         71.5462         51.9300        -3.40113
            3961         58.6639         59.1906         56.2996        -5.79313
            3962         63.2966         67.5613         56.0509         5.38820
            3963         58.6488         59.3459         56.0508         5.84373
            3964         63.5853         67.7666         55.4185        -6.71063
            3965         63.3448         64.5151         60.5007         5.57495
            3966         59.3997         56.8504         60.4167         5.19269
            3967         38.6784         37.7855         28.5750        -10.5113
            3968         37.9775         28.3929         36.9324         10.3401
            3969         62.1123         70.3293         44.3896         4.58908
            3970         69.3151         79.5538         44.7205         3.34353
            3971         39.3606         39.9836         27.8802        -9.79825
            3972         38.7654         27.6152         39.3860         9.60126
            3973         73.7397         50.3485         81.8568         10.3826
            3974         75.0791         55.5757         82.0660         11.1692
            3975         88.6594         44.3196         100.014         10.4240
            3976         90.8312         45.9160         101.918         12.0341
            3977         27.0278         20.8414         26.6787        -6.84116
            3978         72.1596         47.7364         82.8416        -2.58734
            3979         84.2335         96.0687         60.0375        -3.12604
            3980         46.4537         49.4338         31.7880        -9.57724
            3981         47.1051         32.4362         50.2684        -9.49367
            3982         75.7000         85.3881         54.1490        -6.60615
            3983         83.4536         47.5398         96.2148         2.65926
            3984         81.2949         92.4251         52.7604         7.28422
            3985         46.0715         31.5758         49.2950         9.16663
            3986         51.6867         55.9492         32.9394         9.98555
            3987         84.3187         46.8023         97.1547        -3.01186
            3988         30.3999         31.0852         21.6554         7.35002
            3989         73.7166         48.3779         84.7681         1.73070
            3990         91.7098         105.302         60.5309         3.27822
            3991         47.1511         34.2467         49.5027         9.91937
            3992         47.6457         50.5034         32.7589         10.0135
            3993         27.1940         26.4800         21.3528         7.01914
            3994         28.2318         23.0744         27.1149         7.18907
            3995         53.6861         57.8966         34.4194        -10.6184
            3996         47.3182         34.0328         50.1979        -9.47505
            3997         74.5935         83.9630         52.8261         7.28562
            3998         84.4171         47.3024         97.2645        -3.11999
            3999         84.0451         95.6467         60.9130         3.21548
            4000         73.4873         49.2202         84.4045         1.63628
            4001         29.7833         24.4656         28.2598        -7.77285
            4002         29.6612         29.8864         21.8211        -7.36164
            4003         92.0850         105.831         60.0222        -3.10694
            4004         72.2389         48.9063         82.8362        -2.31040
            4005         83.5302         48.0065         96.2957         2.74668
            4006         82.6563         94.1834         54.3375        -6.49843
            4007         75.4882         55.7708         82.0347        -12.0213
            4008         76.3586         49.6783         84.6562        -11.5701
            4009         90.9116         44.0256         101.716        -12.3648
            4010         14.9927         9.66205         16.7505        -2.05691
            4011         49.9230         34.0822         56.5437         4.49651
            4012         71.7312         50.3137         82.0730        -1.56158
            4013         85.2688         48.6220         98.4164        -1.42472
            4014         49.9797         33.3918         56.8191         4.15689
            4015         14.5404         16.4341         7.96010         1.71266
            4016         73.0002         82.2501         55.8985         3.50996
            4017         85.2853         48.5158         98.4377        -1.36751
            4018         87.4667         98.1423         69.6356        -1.09402
            4019         71.6966         49.9811         82.0735        -1.66802
            4020         50.1771         56.8832         34.0541        -4.45236
            4021         14.5413         7.95198         16.4340        -1.71489
            4022         16.1147         18.1903         8.63105         1.94109
            4023         79.3520         90.4738         56.2639         3.46490
            4024         94.9175         107.987         70.1167        -1.07389
            4025         54.6412         62.2731         34.1850        -4.75788
            4026         16.7668         18.8881         9.11949        -2.11751
            4027         14.7048         9.83677         16.3562         2.06837
            4028         78.2618         89.2418         55.3584        -3.49039
            4029         95.2788         108.378         70.4996     940.076E-03
            4030         56.2625         64.1678         35.5882         4.65688
            4031         51.2542         35.1866         58.1557        -4.20756
            4032         70.8040         49.9434         80.9504         1.71535
            4033         85.5860         48.2738         98.7867         1.23845
            4034         70.8399         49.6618         81.0356         1.78894
            4035         51.4320         58.2398         35.2267         4.62061
            4036         87.8567         98.4856         70.2579     930.202E-03
            4037         85.5686         48.4009         98.7653         1.30303
            4038         71.9788         81.1174         55.0378        -3.47733
            4039         51.1973         34.4612         58.1793        -4.23018
            4040         70.9327         58.0334         75.5572         10.6383
            4041         69.8429         51.2842         76.9658         9.51054
            4042         70.4335         48.5751         80.5538         2.90567
            4043         86.2369         97.8295         64.7009         1.79176
            4044         72.1140         81.1684         52.6187        -6.17426
            4045         85.6602         47.1474         98.7779         2.22483
            4046         52.2787         57.4680         35.9051         8.26044
            4047         51.7061         35.1801         57.3239        -7.45020
            4048         70.0368         47.5165         80.1442        -3.28720
            4049         86.2720         97.9533         64.3905        -1.74459
            4050         85.9785         47.0228         99.1380        -2.20230
            4051         71.7957         80.7709         52.2204         6.36674
            4052         52.3329         36.8841         57.7573         7.58755
            4053         19.3591         17.4922         18.2963         4.24597
            4054         16.1199         16.6253         13.1488         3.11759
            4055         16.1310         13.1357         16.6459        -3.12143
            4056         52.0056         57.1435         35.6863        -8.26492
            4057         93.9499         107.746         64.3651         1.79468
            4058         57.0981         63.5429         36.2615         8.40165
            4059         57.4141         63.9836         36.4973        -8.27956
            4060         18.0476         18.8010         14.1886         3.54377
            4061         70.1017         48.4011         80.1347        -3.08827
            4062         51.7818         36.3934         57.2080        -7.44108
            4063         19.5512         16.7223         19.2761        -4.21841
            4064         70.6254         47.8789         80.8784         2.97845
            4065         78.5206         89.3279         52.6711        -6.23867
            4066         51.3468         34.9433         56.7424         7.71417
            4067         85.7113         47.2843         98.8425         2.19743
            4068         94.0985         107.892         64.6897        -1.69273
            4069         78.0183         88.7273         52.2710         6.32263
            4070         85.9285         46.8641         99.0723        -2.24060
            4071         59.0982         57.3633         59.7463        -4.46002
            4072         62.9587         65.4121         59.3521        -3.86122
            4073         78.2244         88.7778         30.1394         1.27580
            4074         76.6939         87.4270         31.8108         1.59985
            4075         85.5689         97.1148         32.9577         1.31857
            4076         86.9675         98.3495         31.7021         1.09342
            4077         98.4248         40.0451         110.646        -9.52320
            4078         95.9921         40.1235         109.015        -5.60863
            4079         97.5462         40.4671         110.504        -6.78878
            4080         100.679         41.0678         112.573        -11.5495
            4081         35.2888         28.3115         32.3837         10.1962
            4082         27.1554         23.4569         24.4509         7.36851
            4083         35.5342         31.8060         29.1757        -10.4530
            4084         27.1129         24.3684         23.4713        -7.35634
            4085         77.3362         88.7419         37.9096         3.30636
            4086         69.3079         79.6474         37.2262         3.60794
            4087         79.6219         90.8295         35.5981        -4.31198
            4088         79.0911         90.6062         36.8188        -2.96132
            4089         71.9408         82.0578         33.9383        -5.00297
            4090         70.6255         81.0269         35.9329        -3.78437
            4091         63.7052         72.9740         43.2495         2.49800
            4092         71.5648         82.5340         43.1888         1.72545
            4093         73.8313         84.9067         40.4685         3.66351
            4094         66.3215         76.0798         39.6476         4.27651
            4095         89.8433         46.2401         100.969        -11.6581
            4096         89.1941         44.2237         100.459        -10.8095
            4097         81.7371         47.7637         91.4792         11.5545
            4098         83.1572         51.5389         91.9140         13.5134
            4099         71.6714         82.3470         42.1726        -4.08334
            4100         63.5003         72.4791         42.7884        -4.06139
            4101         81.0927         50.2337         93.5123         1.35649
            4102         86.8810         99.2120         60.7170        -3.76730
            4103         34.5287         37.9718         20.4188        -6.02173
            4104         38.7113         25.9127         42.4762        -6.41731
            4105         39.4443         26.0492         42.7490         7.37991
            4106         42.2788         46.7951         25.4188         6.85764
            4107         90.1347         102.999         63.3530         3.01238
            4108         78.0126         50.4293         89.8565    -142.125E-03
            4109         82.8626         93.5879         63.2418         2.98112
            4110         78.0220         50.7500         89.8385    -267.208E-03
            4111         31.0183         20.7232         33.5665         5.81885
            4112         38.6393         42.4517         24.9247         6.52447
            4113         39.7890         42.9894         26.3597        -7.60329
            4114         38.5180         24.7736         42.3971        -6.39587
            4115         79.8460         90.1450         60.5037        -3.77121
            4116         81.0488         50.0155         93.4759         1.27264
            4117         63.0215         53.6166         67.9061        -6.49674
            4118         64.8434         61.5244         66.1261        -6.19460
            4119         65.6278         75.4140         40.8617        -3.24561
            4120         74.1154         85.4299         40.8650        -2.30728
            4121         82.0815         46.8991         92.9513        -9.25971
            4122         83.0374         49.6741         93.4361        -10.6261
            4123         37.7073         25.7348         39.6968         8.27273
            4124         38.1510         40.1000         26.0141        -8.44439
            4125         63.3061         64.0774         61.3206        -4.85793
            4126         60.2061         55.7301         62.5707        -5.50487
            4127         76.8135         54.5989         84.4334         11.5507
            4128         75.4501         49.7830         84.4737         9.72833
            4129         62.5926         71.0854         43.7695        -4.48303
            4130         69.3511         79.5057         44.5103        -3.91895
            4131         64.2380         53.0815         70.0274        -6.38202
            4132         66.2043         60.2374         69.1281        -6.82805
            4133         59.4679         65.0634         49.2144         5.26587
            4134         65.2521         73.2549         49.9124         4.34498
            4135         36.0946         22.0450         40.4323         4.94627
            4136         36.2309         40.5471         22.2178        -5.02830
            4137         79.5658         91.3451         37.5029         1.41738
            4138         71.0302         81.8509         37.2620         1.54837
            4139         34.7092         32.4101         27.3442        -9.87986
            4140         60.1462         66.8752         47.7128         4.45582
            4141         68.2177         78.1248         46.0073         3.04477
            4142         68.3550         78.7815         38.8414        -2.39473
            4143         77.0177         88.6203         38.8772        -2.00352
            4144         65.6333         61.8702         64.7485         9.89019
            4145         63.1701         53.4325         66.4256         9.52822
            4146         81.9441         93.6779         35.6723         1.68076
            4147         73.1450         84.0086         35.2020         1.90014
            4148         78.0437         50.4610         89.8890     345.178E-03
            4149         89.8318         102.727         62.4167        -3.31255
            4150         31.5174         20.8416         34.2769        -5.72872
            4151         42.2362         46.4815         25.6533        -7.24952
            4152         80.8566         49.9832         93.2407        -1.42763
            4153         79.8605         90.2446         59.9610         4.05990
            4154         31.0906         33.9933         19.5198         5.58575
            4155         34.1112         37.4032         20.3132         6.10259
            4156         86.9373         99.3276         60.0953         4.07367
            4157         80.8014         49.6751         93.1961        -1.32457
            4158         38.7603         26.9079         41.5013         7.58676
            4159         77.9930         50.0295         89.8651     197.526E-03
            4160         31.0640         19.5276         33.9480        -5.60064
            4161         82.5233         93.3408         62.2525        -3.31267
            4162         75.6388         86.3856         32.6250         2.05743
            4163         84.2273         95.7711         33.6325         2.00038
            4164         80.0777         48.0627         90.1458        -10.1456
            4165         80.3603         52.0922         89.4674        -11.5518
            4166         71.9669         56.4527         78.8375        -8.70944
            4167         71.8876         50.7962         80.2503        -8.63854
            4168         81.8805         50.8518         91.6440         11.2570
            4169         82.5183         46.9756         93.1125         10.1101
            4170         80.7870         92.2989         35.5948        -2.93342
            4171         71.7093         82.2856         35.3806        -3.20581
            4172         79.6668         91.2858         36.7431        -2.43366
            4173         70.5695         81.2127         36.8598        -2.54289
            4174         78.4018         88.9824         30.1144     763.592E-03
            4175         87.1726         98.5711         31.6619     649.114E-03
            4176         49.1847         52.8877         33.6878        -9.46595
            4177         48.4356         34.7448         51.7262         9.31721
            4178         84.2334         47.7744         97.1085        -2.71530
            4179         74.9434         84.4883         54.0566         6.41040
            4180         84.6376         96.2789         61.8255        -2.82810
            4181         72.8292         48.2543         83.6542        -2.18011
            4182         52.5666         57.4357         33.3335        -9.44804
            4183         48.2638         32.9359         52.3719         8.69333
            4184         84.1527         47.4078         97.0179        -2.65265
            4185         92.3810         106.027         61.9155        -2.81008
            4186         72.8954         49.1911         83.6508        -1.94790
            4187         81.6484         92.9938         54.0887         6.40151
            4188         25.8241         21.1041         25.1497        -6.31805
            4189         27.5514         28.2608         19.9244         6.49358
            4190         95.1943         41.8815         107.858        -7.99716
            4191         94.4801         41.0642         107.083        -7.54183
            4192         94.2741         41.8080         107.216        -6.50266
            4193         93.0284         41.3970         105.902        -6.03762
            4194         67.1763         60.4492         68.2856         10.3832
            4195         65.2716         52.4431         70.0058         9.67148
            4196         77.2896         88.8458         38.4386         2.42744
            4197         68.8900         79.3733         38.3070         2.50570
            4198         73.0608         56.7624         79.0749         10.8250
            4199         72.0629         50.7590         79.8411         9.91023
            4200         69.0579         58.6981         73.4073         9.01419
            4201         67.8523         51.8738         74.9199         7.88316
            4202         18.2411         17.5117         16.1213        -4.02052
            4203         18.2276         16.1093         17.4993         4.01710
            4204         28.7817         23.6095         26.8235        -7.84785
            4205         29.0135         26.7935         24.0002         7.97773
            4206         59.0975         63.9099         50.4038        -5.44059
            4207         58.5715         62.6197         52.8497        -2.92901
            4208         58.5478         62.4475         53.4518         1.73096
            4209         63.8639         70.7496         53.1567         1.65971
            4210         65.1172         73.2158         50.2646        -3.33331
            4211         64.4117         72.0059         51.9569        -1.37877
            4212         58.5293         59.0046         57.4720        -3.27713
            4213         62.9758         66.9567         57.2204         3.64492
            4214         58.4612         59.3807         57.0197         2.95944
            4215         63.0502         67.3656         56.6227        -3.89418
            4216         63.7839         63.4080         62.3335         6.18576
            4217         60.2047         55.8705         61.5248         7.19287
            4218         63.1254         71.9366         43.2190         4.12656
            4219         23.1446         18.5857         22.7803        -5.61807
            4220         76.5774         86.4376         53.5480        -7.16022
            4221         82.2718         47.2433         94.8279         2.85033
            4222         32.1588         25.3288         30.4383        -8.89031
            4223         75.2377         48.4240         86.6619    -828.986E-03
            4224         46.4862         32.9108         47.9189        -10.9343
            4225         82.7559         94.1845         59.2100        -4.02718
            4226         32.1410         32.0182         23.7027         8.26596
            4227         81.7794         47.8032         94.3041        -2.41519
            4228         50.7633         53.6976         33.0355         11.1962
            4229         44.1462         30.8041         46.0425         9.97297
            4230         84.5459         96.4894         55.1774         6.25305
            4231         90.5288         103.982         57.8077         4.18179
            4232         74.2101         48.0185         85.4316         1.30411
            4233         45.5060         33.0619         47.5450         9.81679
            4234         46.9482         48.1432         32.9625         11.3544
            4235         32.0372         31.2462         24.3100         8.53758
            4236         23.1770         22.6786         18.7791         5.65940
            4237         48.0168         51.1428         30.9629        -10.2446
            4238         46.6725         34.6658         47.7454        -10.8338
            4239         74.0501         49.1685         85.1366         1.10756
            4240         82.8063         94.4193         58.1250         4.14285
            4241         77.4989         87.6246         55.2375         6.24479
            4242         81.8874         48.4514         94.4037        -2.57834
            4243         31.6875         25.4098         30.4322        -8.27838
            4244         34.4097         34.1381         25.2134        -9.01180
            4245         75.3221         49.4113         86.6842    -566.302E-03
            4246         90.3966         103.728         59.1749        -4.02248
            4247         83.7042         95.3725         53.6203        -7.05322
            4248         82.3857         47.9953         94.9350         3.03520
            4249         83.5694         95.3246         34.8500         1.24014
            4250         74.6150         85.5831         34.4861         1.29848
            4251         53.3492         36.4318         59.3269        -7.31596
            4252         14.3585         13.2984         14.0288         2.52099
            4253         54.0241         59.5070         37.3101         8.28014
            4254         70.8736         79.6838         51.5110        -6.44892
            4255         86.1993         46.7268         99.3848         2.12265
            4256         69.2555         48.0459         79.0746         3.38273
            4257         86.4967         98.1969         64.6637         1.57373
            4258         94.3135         108.201         64.4718         1.51334
            4259         59.1423         65.9416         37.7543         8.44016
            4260         69.4107         47.2331         79.3607         3.52194
            4261         53.3845         37.6122         59.1575        -7.31808
            4262         17.1565         17.6459         14.0813        -3.32471
            4263         86.2611         46.8369         99.4627         2.07960
            4264         77.0957         87.6026         51.4695        -6.56472
            4265         76.9851         87.7609         31.7881         1.15492
            4266         78.6307         89.0248         29.4087         1.87980
            4267         87.2290         98.5012         31.2435         1.60920
            4268         85.9490         97.5057         32.8186     967.809E-03
            4269         79.6423         90.6194         35.0813        -5.14366
            4270         71.8239         81.6799         33.5423        -5.82257
            4271         64.5921         74.2000         42.4649         2.17019
            4272         73.0566         84.3058         42.0734         1.48993
            4273         86.6573         47.5891         97.6665        -10.8609
            4274         87.4490         44.5520         99.0283        -9.44703
            4275         77.5990         48.8653         87.4607         9.27732
            4276         79.8568         52.4453         88.7846         11.5503
            4277         85.0294         96.5515         33.1366         1.74620
            4278         76.4226         87.0870         31.7414         2.08297
            4279         76.5311         49.3134         86.0723        -9.33205
            4280         77.4036         53.3076         86.2048        -10.2261
            4281         77.4370         53.6708         85.8742         10.8087
            4282         74.9673         49.6937         84.5115         8.32914
            4283         61.9293         69.8847         44.4621        -5.21912
            4284         68.6758         78.4565         45.0300        -4.69523
            4285         65.7289         52.5249         72.1616        -6.93808
            4286         68.5061         58.6566         73.2339        -7.85136
            4287         69.9757         57.4737         76.0565        -7.74659
            4288         74.6758         55.2638         82.2014        -10.1340
            4289         70.2005         51.1687         78.7332        -6.82228
            4290         74.0294         50.1814         82.9174        -9.08854
            4291         40.4198         38.1906         30.7602        -11.6017
            4292         39.5698         30.5483         37.1721         11.3482
            4293         94.8422         42.1236         106.256        -11.6357
            4294         97.6229         44.1907         108.127        -14.8792
            4295         33.5136         28.8129         29.0117        -9.78456
            4296         33.4076         28.8042         28.8559         9.74499
            4297         75.3457         86.8621         40.2621        -1.64992
            4298         67.4926         77.8529         40.0612        -1.64847
            4299         73.2817         82.3959         52.3368        -7.17231
            4300         85.8244         46.0141         98.8368         3.03881
            4301         50.5630         34.7157         54.8977        -9.00903
            4302         51.2834         55.1086         35.2803         9.87548
            4303         23.8035         21.3124         21.7386         5.86290
            4304         71.1227         48.6048         81.4103         2.90484
            4305         84.9214         96.9906         60.1972         2.53840
            4306         92.9049         106.757         61.3984         2.53032
            4307         55.7315         60.8926         35.5175         9.98915
            4308         70.1892         47.0095         80.3083         3.76247
            4309         50.8507         36.3807         54.8642        -9.09499
            4310         26.7524         25.9524         21.5120        -6.77459
            4311         80.0345         90.9637         52.5451        -7.06690
            4312         85.8502         46.4907         98.8800         3.08887
            4313         38.3182         35.5195         29.9378        -11.1617
            4314         37.7933         29.9406         34.7787         11.0096
            4315         78.7148         90.3884         37.6853        -2.00711
            4316         69.6785         80.3255         38.0347        -1.95206
            4317         73.9313         84.8535         34.8026         1.59476
            4318         82.8027         94.5538         35.2470         1.44450
            4319         59.5372         65.6708         49.2525         3.68181
            4320         65.8538         74.3901         48.9233         4.03129
            4321         71.9719         82.8703         36.6197         1.43210
            4322         80.6604         92.4773         36.8946         1.25886
            4323         63.5273         62.7560         63.7009        -3.52176
            4324         60.9099         55.0361         64.7771        -4.08450
            4325         86.2015         45.1095         97.6337         9.44639
            4326         87.6525         47.1427         98.7204         11.0869
            4327         64.6114         74.2377         42.5297        -1.99367
            4328         72.5918         83.7926         42.6508        -1.01502
            4329         78.3845         90.1159         38.2307         1.51188
            4330         70.0273         80.7552         38.0461         1.56318
            4331         59.0812         64.5412         50.7112         2.96397
            4332         65.0220         73.0905         50.4945         2.97843
            4333         40.8697         29.0603         41.6174         10.0539
            4334         41.6339         42.3139         29.4411        -10.3586
            4335         79.4824         49.1348         91.6739        -1.08071
            4336         87.7475         100.387         59.1622         4.51158
            4337         37.1071         39.9427         23.2810         7.51483
            4338         43.6232         47.1021         27.4581         8.63642
            4339         89.7143         102.728         60.9001         3.78279
            4340         77.5030         49.4114         89.3243    -113.114E-03
            4341         81.2018         92.0301         59.6911        -4.26367
            4342         78.6839         49.2239         90.7359     716.417E-03
            4343         34.7663         23.4304         36.8243        -7.44961
            4344         39.6482         26.6513         42.4031        -8.03657
            4345         80.7546         49.0562         93.1522         1.54427
            4346         79.3692         89.8097         58.4049        -4.75712
            4347         40.7637         43.8146         25.7370        -8.31099
            4348         39.9590         28.0419         42.5621        -8.00754
            4349         39.3404         28.6841         40.5494         9.01392
            4350         39.8500         42.5077         26.7955         8.20846
            4351         35.3576         25.0013         37.2119        -7.54350
            4352         35.7717         38.2411         22.7775        -7.51562
            4353         34.8453         36.8463         23.4953         7.53279
            4354         34.4395         24.8382         35.7417         7.73379
            4355         88.5208         101.315         59.7658        -4.26048
            4356         78.7572         49.8102         90.7802     892.582E-03
            4357         80.8255         49.5044         93.2090         1.67405
            4358         86.5074         98.8845         58.5220        -4.74251
            4359         79.5496         49.6769         91.7163        -1.24553
            4360         80.5029         91.1884         59.1486         4.49058
            4361         77.5199         49.9844         89.2982    -285.721E-03
            4362         82.3268         93.3226         60.9364         3.74543
            4363         65.8612         75.7037         40.6241         3.25188
            4364         73.3490         84.5561         41.4322         2.38445
            4365         79.1890         47.6139         90.1847        -7.40670
            4366         81.3923         49.5242         92.3055        -8.62413
            4367         80.4902         51.2963         92.7552    -779.220E-03
            4368         35.5574         39.8994         19.6269         4.83920
            4369         88.3081         100.636         63.7981         2.63941
            4370         78.4431         51.7821         90.2512    -138.627E-03
            4371         41.2822         46.6718         23.3979         4.84842
            4372         90.6454         103.229         66.1387         2.12280
            4373         81.3317         51.2397         93.7591     957.088E-03
            4374         80.3768         90.3825         62.8690        -2.65681
            4375         30.1506         17.1245         33.8859        -3.99318
            4376         79.2999         51.5229         91.3127     425.398E-03
            4377         82.5649         92.8540         64.6812        -2.40428
            4378         37.6077         22.8993         42.4221        -4.53745
            4379         39.1283         44.0954         21.9582        -4.92309
            4380         37.6955         23.7478         42.4595        -4.56452
            4381         30.3505         18.0618         34.0641        -4.07519
            4382         33.5205         37.7261         17.8601        -4.28837
            4383         35.5182         22.5361         39.6184         5.06264
            4384         37.6589         42.4437         23.0193         4.61377
            4385         89.6577         102.160         64.9939        -2.40598
            4386         79.3184         51.6056         91.3260     506.725E-03
            4387         87.2907         99.4441         63.1983        -2.65845
            4388         81.3468         51.2152         93.7767         1.00355
            4389         30.1433         18.1138         33.7405         4.21330
            4390         30.1879         33.9419         17.1238         3.96835
            4391         80.5065         51.3334         92.7697    -844.729E-03
            4392         81.3057         91.4606         63.5111         2.62545
            4393         83.5087         93.8159         65.8658         2.09992
            4394         78.4371         51.8451         90.2366    -220.342E-03
            4395         92.0785         42.4807         104.107         9.27569
            4396         91.3432         44.7424         103.116         10.3671
            4397         30.7654         26.4176         27.1306        -8.74211
            4398         30.7748         26.9974         26.5632         8.75146
            4399         34.3150         28.3299         30.7738        -9.99547
            4400         34.0542         30.2055         28.4646         9.94763
            4401         55.1693         37.7625         62.0655        -6.03531
            4402         69.1104         77.7747         50.7381        -5.74852
            4403         86.6018         46.7577         99.8829         1.55848
            4404         55.7373         62.2319         38.8875         6.87112
            4405         11.4064         11.5201         10.5820         1.56143
            4406         67.8490         47.5257         77.3767         3.41649
            4407         87.4218         98.8861         66.9250         1.01665
            4408         95.2204         108.915         67.3952     945.633E-03
            4409         60.9009         68.7542         39.2564         6.82562
            4410         67.9181         46.8215         77.5456         3.56316
            4411         55.2142         38.7455         61.9548        -6.04051
            4412         14.2812         14.8264         12.0778        -2.40305
            4413         86.6421         46.7751         99.9351         1.46103
            4414         75.2013         85.5757         50.9963        -5.64093
            4415         77.8685         88.5800         30.9341     326.065E-03
            4416         86.7531         98.2485         32.2036     267.809E-03
            4417         51.1681         54.9674         35.1901        -9.87805
            4418         51.6286         37.6826         54.6449         10.3059
            4419         85.3259         46.7427         98.2762        -3.22021
            4420         73.4238         82.4313         51.6602         7.86934
            4421         84.5677         96.5654         59.8470        -2.84629
            4422         70.8856         47.2616         81.2136        -3.35375
            4423         50.2244         34.6531         54.0645         9.52501
            4424         55.9185         60.3855         35.8855        -10.9493
            4425         79.9561         90.6909         51.5524         7.87013
            4426         85.2278         46.2707         98.1604        -3.12485
            4427         92.5117         106.401         59.8072        -2.81767
            4428         70.9697         48.5507         81.2020        -3.06476
            4429         24.0073         20.4550         22.9057        -5.82552
            4430         93.8952         41.4780         107.146        -4.46264
            4431         93.5263         40.9840         106.846        -3.17859
            4432         65.7147         61.2608         66.5338         8.45972
            4433         63.4885         53.3222         68.0699         7.82442
            4434         67.4300         59.3444         71.4152         7.37137
            4435         66.0196         52.4575         72.8507         6.35448
            4436         80.4034         91.2724         34.2970        -5.42016
            4437         58.4186         61.6032         54.2147        -2.47284
            4438         59.1508         64.5380         50.2473        -4.15268
            4439         65.7352         74.4827         49.6116        -1.56383
            4440         63.4516         69.3310         54.3341        -3.37457
            4441         58.4416         59.7157         56.9388        -1.58843
            4442         63.0352         67.8976         56.1820         2.68046
            4443         58.4042         60.2773         56.2092         1.45709
            4444         63.1246         68.3636         55.6482        -2.49834
            4445         63.3070         64.0273         61.4308         4.75371
            4446         59.7348         56.2781         62.0305         3.83825
            4447         82.6521         93.8509         60.3851        -3.83917
            4448         42.8888         44.7304         29.6313        -9.76465
            4449         76.4493         48.9964         88.0884    -311.134E-03
            4450         33.3835         23.8118         34.0282        -8.16109
            4451         81.3000         48.5040         93.7792        -1.93155
            4452         34.0414         34.6155         23.9902         8.47519
            4453         42.1729         29.1846         44.1720         9.39477
            4454         85.5510         97.7454         57.0561         5.36618
            4455         43.3737         31.0875         45.7313         9.03991
            4456         33.3366         33.9134         23.7958         8.20497
            4457         45.6123         49.1653         28.8892        -9.11063
            4458         81.3886         49.0240         93.8569        -2.07146
            4459         78.4702         88.7804         57.0410         5.35582
            4460         32.2780         24.5053         32.3514        -7.90624
            4461         76.5222         49.7537         88.1149    -95.7230E-03
            4462         90.1574         103.327         60.4283        -3.83683
            4463         80.9452         92.1603         34.6752        -4.16029
            4464         72.6599         82.8439         33.4277        -4.76868
            4465         63.3253         72.4874         44.2955         1.21657
            4466         71.7208         82.7719         43.6825     263.395E-03
            4467         90.0517         45.2989         101.786        -10.1291
            4468         87.5997         44.0671         99.7035        -7.84522
            4469         82.0158         93.5118         34.7494        -2.83430
            4470         73.0807         83.6612         34.1134        -3.25692
            4471         76.6774         48.9761         86.7393        -8.27062
            4472         77.8080         52.2945         87.4008        -9.14771
            4473         61.4039         68.7421         45.0787        -6.10112
            4474         67.9231         77.2255         45.7562        -5.46780
            4475         68.6553         58.2127         74.0685        -7.08063
            4476         68.6622         51.6607         76.5125        -6.93306
            4477         42.2806         40.4480         31.6525        -11.9723
            4478         41.4078         31.5393         39.3201         11.7464
            4479         14.0133         13.6870         12.8816         2.54335
            4480         14.0205         12.8809         13.6982        -2.54639
            4481         74.3589         83.5657         51.9687        -7.91788
            4482         85.2679         45.8908         98.1464         3.46177
            4483         72.1026         80.9572         51.5059        -7.34014
            4484         86.2581         46.2355         99.3941         2.52238
            4485         52.1677         35.8178         57.0366        -8.72362
            4486         49.8453         34.8591         52.6564        -10.5239
            4487         52.8910         57.1692         36.4483         9.73616
            4488         50.6594         52.9026         35.2404         11.4035
            4489         27.9884         24.9986         24.7402         7.41196
            4490         22.0193         20.8465         19.2342         5.20524
            4491         71.6727         48.7635         82.1124         2.62890
            4492         84.1537         96.2437         58.4227         3.08680
            4493         70.0405         48.2269         80.0258         3.42073
            4494         85.7974         97.7624         62.3626         1.94316
            4495         91.8347         105.615         58.6766         3.33259
            4496         93.3635         107.324         61.6439         2.17708
            4497         57.6922         63.2904         36.8068         9.95813
            4498         69.4365         46.8918         79.3577         3.92308
            4499         54.6333         58.3760         35.2954         11.4264
            4500         52.3472         37.3607         56.9221        -8.77354
            4501         50.1227         36.7902         52.4515        -10.6035
            4502         29.7726         28.7580         23.4588        -7.82512
            4503         19.9816         20.0850         16.4038        -4.32971
            4504         81.3338         92.3818         52.1928        -7.71067
            4505         78.7072         89.3240         51.5723        -7.37108
            4506         86.3330         46.4696         99.4885         2.52998
            4507         85.3143         46.5582         98.2123         3.54971
            4508         41.1821         37.2454         32.7065        -12.3450
            4509         41.0695         32.4748         37.5314         12.1423
            4510         76.3921         88.0370         39.7474        -1.24129
            4511         68.8195         79.4073         39.0690        -1.48058
            4512         42.8789         42.4182         31.0653        -11.4306
            4513         42.0215         30.8490         41.4415         11.1829
            4514         58.8046         62.8347         53.6731     709.593E-03
            4515         58.7306         62.7419         53.6590    -200.992E-03
            4516         64.2791         71.7016         52.4501     375.870E-03
            4517         64.5711         72.2679         52.0185     190.987E-03
            4518         72.8400         83.8020         36.0884         1.26319
            4519         81.6579         93.5011         36.3752         1.08396
            4520         63.0782         63.8806         61.7909        -3.01406
            4521         64.1549         61.6472         65.7807        -3.81086
            4522         62.2426         54.0998         67.3877        -4.15974
            4523         59.4822         56.6473         61.3882        -3.56766
            4524         82.9272         46.3712         94.1221         8.79811
            4525         83.6259         49.3883         94.0930         10.7654
            4526         65.5110         75.4050         41.6597        -1.96612
            4527         63.9764         73.2810         42.6405        -3.13032
            4528         71.1040         81.9184         43.3338        -2.39195
            4529         73.7511         85.1329         41.7758    -981.649E-03
            4530         79.4002         91.2670         38.1594     651.375E-03
            4531         70.9484         81.8434         38.0360     727.769E-03
            4532         79.9893         50.0542         92.2318    -958.099E-03
            4533         36.3726         37.7994         24.4397         8.57667
            4534         79.8792         48.2859         92.1429        -1.63704
            4535         37.4797         41.2735         22.3056         6.43729
            4536         88.0201         100.570         61.3176         3.65694
            4537         39.7136         43.7594         23.8133         6.76425
            4538         45.4438         47.9813         29.5751         10.1209
            4539         86.5600         98.9878         56.5824         5.58119
            4540         89.1122         101.823         62.4060         3.31521
            4541         79.0402         50.3090         91.0951    -560.652E-03
            4542         89.3285         102.396         58.7115         4.45303
            4543         76.9387         48.6651         88.7013    -73.2350E-03
            4544         81.4077         92.5025         58.2332        -4.69408
            4545         81.8053         92.4449         61.9651        -3.40267
            4546         79.0276         50.1877         91.0881     584.132E-03
            4547         33.6136         21.2779         36.7931        -5.95185
            4548         40.9593         28.5858         42.4668        -9.50504
            4549         77.2822         48.5461         89.1166     319.316E-03
            4550         36.0985         23.0301         39.6079        -6.22095
            4551         80.0652         50.1710         92.3155     950.137E-03
            4552         80.8871         91.3556         61.3327        -3.57090
            4553         80.4227         48.3214         92.7678         1.79521
            4554         78.9471         89.4227         56.5651        -5.62176
            4555         43.9400         46.2921         28.6757        -9.88143
            4556         39.8001         43.8590         23.8804        -6.77080
            4557         41.3329         30.1541         42.6679        -9.40218
            4558         36.3619         24.2151         39.7598        -6.26532
            4559         41.9665         30.9173         42.9317         9.82351
            4560         36.1693         24.7141         38.9487         6.90433
            4561         41.2438         42.6409         28.6888         9.71380
            4562         36.1824         39.6431         23.1360         6.31125
            4563         34.6027         25.9472         34.8776        -8.41864
            4564         33.9575         22.5072         37.0273        -6.02487
            4565         37.1930         40.9603         22.1068        -6.38650
            4566         37.1945         38.6114         25.0037        -8.80972
            4567         33.6571         36.8167         21.3258         5.99136
            4568         33.5562         22.6336         36.2474         6.33184
            4569         35.3516         26.9129         35.1432         8.87305
            4570         89.0222         101.738         62.1513        -3.40221
            4571         88.8937         101.872         58.1960        -4.69090
            4572         79.0750         50.5310         91.1162     710.485E-03
            4573         77.3767         49.4268         89.1644     564.822E-03
            4574         80.5199         48.9948         92.8445         1.97967
            4575         80.1103         50.4455         92.3477         1.05553
            4576         86.1711         98.5064         56.5945        -5.59565
            4577         88.0137         100.541         61.5352        -3.56870
            4578         80.0322         50.3531         92.2596        -1.06932
            4579         80.8830         91.3785         61.1759         3.63840
            4580         79.9835         49.0268         92.2215        -1.84851
            4581         79.3123         89.8901         56.6658         5.56481
            4582         79.0671         50.6144         91.1012    -680.822E-03
            4583         76.9621         49.4941         88.6661    -299.975E-03
            4584         81.8435         93.0010         58.8708         4.41398
            4585         81.9073         92.5193         62.2740         3.29032
            4586         77.0402         48.2395         87.9079        -6.35030
            4587         83.9468         45.7949         95.4568        -8.35289
            4588         80.6609         50.4879         91.0272        -9.43330
            4589         83.8849         48.6293         94.8608        -9.76924
            4590         95.0322         41.2180         107.268         9.07545
            4591         89.3303         43.6178         101.217         9.08086
            4592         88.4641         46.0049         100.130         9.82913
            4593         94.6536         43.2157         106.598         10.5727
            4594         62.9087         67.5660         56.7533        -1.41422
            4595         58.5911         58.9439         58.1623        -1.15353
            4596         76.9051         48.7880         87.1550         7.96353
            4597         77.6763         52.5950         87.0466         9.46029
            4598         66.8890         59.2873         71.2281        -6.01769
            4599         68.8023         78.9370         45.4050        -2.89983
            4600         62.0917         70.5385         44.9165        -3.19150
            4601         58.7037         58.4855         57.8067         4.64787
            4602         63.0280         66.0484         58.3295         4.48593
            4603         67.3665         77.6640         39.8739         2.11333
            4604         74.4234         85.8535         41.0048         1.53168
            4605         45.2856         32.8877         45.2830         11.6603
            4606         84.1313         95.8567         53.1379         7.29294
            4607         33.7189         32.6823         25.7029         9.09624
            4608         81.4488         47.1278         93.8700        -2.89747
            4609         50.4566         52.1047         33.7113         12.2615
            4610         90.0705         103.482         55.8373         4.63830
            4611         73.5937         47.7020         84.7067         1.41478
            4612         49.6484         51.5273         32.9938        -11.8517
            4613         47.9819         36.6329         47.7206        -11.9887
            4614         31.8437         26.8178         29.1910        -8.67076
            4615         36.2979         35.0355         27.4436        -9.97329
            4616         89.8870         103.214         56.5643        -4.66351
            4617         74.4381         49.1943         85.6259    -697.168E-03
            4618         82.0971         47.7993         94.5359         3.50537
            4619         83.5263         95.0210         52.2287        -7.80259
            4620         82.1156         93.6617         56.7377        -4.67044
            4621         47.1319         47.3215         33.6263        -12.1465
            4622         74.3259         47.8578         85.6000        -1.03963
            4623         47.7401         34.6472         47.9477        -12.1238
            4624         76.3462         86.0673         52.2636        -7.91351
            4625         81.9414         46.8213         94.3946         3.23997
            4626         46.4725         34.9363         46.9042         11.2220
            4627         48.2841         48.3063         34.5285         12.5644
            4628         32.9443         30.8353         26.1276         9.26491
            4629         32.5083         27.6028         29.4375         8.96036
            4630         77.0395         87.0212         53.3325         7.28255
            4631         81.5698         48.0858         93.9727        -3.12362
            4632         73.4090         49.1740         84.3464         1.17466
            4633         82.2288         93.8977         56.1492         4.63091
            4634         69.0967         79.3907         45.2930         2.29926
            4635         61.2906         69.2995         46.3729         2.40075
            4636         72.4815         50.6126         81.1140         8.52144
            4637         73.4426         55.9825         80.4559         9.84435
            4638         75.1615         86.1713         34.3023     998.240E-03
            4639         83.9675         95.8194         35.1390     692.282E-03
            4640         77.1200         88.7852         39.0744         1.53870
            4641         69.0010         79.6163         38.9447         1.45181
            4642         53.0397         59.3026         36.5947        -6.51659
            4643         13.5295         11.4348         14.0400        -2.28850
            4644         86.9435         98.3865         66.3275        -1.37456
            4645         69.6468         47.7280         79.6681        -3.06116
            4646         52.5748         35.6886         59.1040         5.95776
            4647         77.2591         87.9680         52.5736         5.51984
            4648         86.0587         47.1406         99.2588        -1.88648
            4649         15.8265         17.0998         11.7345         2.64778
            4650         52.8501         36.9492         58.9958         6.51228
            4651         13.5235         14.0296         11.4400         2.28587
            4652         58.0079         65.2819         36.9419        -7.07399
            4653         71.1362         80.1069         52.4381         5.60200
            4654         86.0938         47.2038         99.3059        -1.81661
            4655         14.6603         12.9940         14.7581        -2.58484
            4656         94.7037         108.347         66.7951        -1.32031
            4657         69.7060         48.4548         79.6611        -2.89491
            4658         85.1246         96.7686         33.5740         1.11614
            4659         76.4487         87.3222         32.6076         1.05668
            4660         91.0136         42.6414         103.304        -8.13356
            4661         93.0783         43.8273         105.015        -10.2803
            4662         96.0578         39.8378         109.480        -2.28008
            4663         97.3059         39.5236         110.798        -1.76193
            4664         70.2635         80.9682         44.6531     945.780E-03
            4665         62.1595         70.7410         45.6123         1.37731
            4666         71.0610         81.8401         36.9626        -1.88419
            4667         80.2456         91.9839         36.8062        -1.75059
            4668         65.8567         60.6613         68.1100         7.07049
            4669         63.9138         53.2148         69.5373         6.27535
            4670         75.6482         52.9414         85.1375        -7.71922
            4671         74.7984         49.3970         84.8751        -6.91682
            4672         67.2085         76.5198         46.9673        -4.07042
            4673         60.7964         68.0915         46.4241        -4.67754
            4674         67.5884         77.3230         46.9708        -2.23684
            4675         60.9176         68.6488         47.0110        -2.27364
            4676         62.5450         53.9212         67.7816         4.65125
            4677         64.7589         61.3590         66.4877         5.40978
            4678         65.7150         59.5970         69.9072        -3.91153
            4679         65.4808         52.6373         72.5635        -4.86945
            4680         74.7039         49.4937         84.6709         7.13112
            4681         75.8548         53.8617         84.5222         9.33399
            4682         78.2357         48.0166         89.0410         7.35728
            4683         78.0419         51.4067         88.2680         8.04596
            4684         54.9702         61.4451         38.2615        -6.66498
            4685         87.3763         98.8179         66.9434        -1.06801
            4686         68.2638         47.0533         77.9749        -3.40717
            4687         54.6819         38.3478         61.3057         6.11299
            4688         69.6176         78.3720         51.2192         5.63299
            4689         86.5382         46.8757         99.8184        -1.51341
            4690         54.3909         37.1559         61.2166         5.91309
            4691         75.4758         85.9228         51.3560         5.44923
            4692         86.5087         46.8435         99.7780        -1.60591
            4693         13.0458         13.8638         10.7307         1.96636
            4694         60.1502         67.9620         38.6884        -6.62724
            4695         95.2189         108.857         67.7115    -980.708E-03
            4696         68.3250         47.7921         77.9658        -3.25079
            4697         35.1035         31.8768         28.4541         10.2227
            4698         37.8200         30.5905         34.0935        -11.1824
            4699         36.7756         30.6475         32.3012        -10.9508
            4700         36.2250         31.6829         30.3780         10.7716
            4701         55.4879         38.1337         63.0207        -4.33295
            4702         68.5561         77.3303         51.4387        -4.15489
            4703         86.4560         47.2987         99.7628         1.08020
            4704         55.8440         63.0921         39.3344         4.91387
            4705         9.46205         8.15182         10.1519     961.511E-03
            4706         67.6067         47.9243         77.1439         2.56978
            4707         88.3842         99.2628         70.1413     651.059E-03
            4708         95.9698         109.242         70.7057     623.204E-03
            4709         60.9338         69.4565         39.6454         4.85077
            4710         67.6295         47.4496         77.2362         2.68859
            4711         55.5398         38.8553         62.9802        -4.30271
            4712         10.2853         11.4029         7.90487        -1.06647
            4713         86.4739         47.2290         99.7850     975.386E-03
            4714         74.6519         85.1418         51.8365        -4.09065
            4715         78.4788         89.0756         30.1201     257.163E-03
            4716         77.3035         88.1266         31.7865     362.279E-03
            4717         87.2566         98.6664         31.6611     209.628E-03
            4718         86.2842         97.8689         32.7809     311.862E-03
            4719         84.0437         96.0124         58.8684        -3.24321
            4720         71.4243         47.3670         81.9162        -3.03585
            4721         48.5871         35.4732         50.9253         10.2544
            4722         49.1560         51.6844         34.0338        -10.7355
            4723         84.7957         46.8971         97.6470        -3.43511
            4724         74.1317         83.2753         51.8198         7.97388
            4725         53.0140         57.1358         36.5637        -9.96957
            4726         51.9649         37.2675         56.1234         9.18732
            4727         72.6203         81.5586         51.7212         7.41898
            4728         85.7603         46.7410         98.8193        -2.81419
            4729         85.2963         97.2326         61.5910        -2.34471
            4730         70.4003         47.2331         80.5910        -3.50691
            4731         49.0143         34.1175         51.9346         10.2156
            4732         84.6960         46.3172         97.5358        -3.29050
            4733         52.0606         35.9231         56.4506         9.32821
            4734         80.7934         91.6690         51.6862         7.97759
            4735         56.8234         62.2156         36.2384        -9.99147
            4736         93.2125         107.127         61.6569        -2.30425
            4737         78.9928         89.6532         51.6568         7.41463
            4738         54.9181         58.7275         35.4736        -11.4305
            4739         85.6800         46.4114         98.7191        -2.78457
            4740         70.4761         48.3720         80.5795        -3.25393
            4741         91.9793         105.795         58.7751        -3.22404
            4742         20.8259         19.5580         18.6253        -4.78097
            4743         26.5590         23.3470         24.1488        -6.85399
            4744         20.4230         20.5803         16.5890         4.46314
            4745         71.5136         48.7218         81.9070        -2.72562
            4746         26.8578         26.4892         21.0129         6.70166
            4747         93.4448         41.9508         106.522        -5.59277
            4748         92.7197         41.4028         105.861        -4.43712
            4749         67.7056         58.5845         72.8652         6.09192
            4750         66.5116         52.2653         74.0977         4.98003
            4751         58.4396         61.6112         54.4965         1.52379
            4752         63.5452         69.7271         53.9859         2.93954
            4753         82.0741         93.7050         35.1779        -2.19055
            4754         73.1043         83.8507         34.6992        -2.50434
            4755         69.0015         57.3858         75.4143        -6.01297
            4756         68.6323         51.4686         77.2195        -4.92958
            4757         69.0058         79.6728         39.6023     556.373E-03
            4758         77.0210         88.7596         39.6651     657.380E-03
            4759         42.3341         39.0005         32.8927        -12.5438
            4760         42.6267         33.3334         39.3149         12.5267
            4761         40.8777         36.0221         33.3775        -12.4052
            4762         42.2315         34.1814         37.5688         12.7524
            4763         59.1487         64.2359         52.1873     607.528E-03
            4764         59.3532         64.8442         51.6009    -682.713E-03
            4765         65.2567         73.6186         50.7236     128.670E-03
            4766         65.1189         73.3553         50.9855    -9.67599E-03
            4767         39.7081         40.9635         26.8121         9.62897
            4768         78.9610         48.4667         91.0833        -1.17777
            4769         47.4922         50.7147         30.5206         9.99778
            4770         90.1929         103.453         59.3798         4.05641
            4771         75.8760         48.6537         87.4215     528.892E-03
            4772         87.4865         100.132         57.2873         5.22536
            4773         80.6921         91.6031         57.7687        -4.98886
            4774         36.0092         25.5171         36.7825        -8.77817
            4775         78.2899         48.5392         90.3012     836.344E-03
            4776         43.1711         29.9308         45.2214        -9.59917
            4777         81.4871         48.1077         93.9830         2.18261
            4778         77.9326         88.1606         55.8286        -5.95126
            4779         41.8527         43.8885         27.5060        -9.59283
            4780         43.4206         31.4863         45.2388        -9.51860
            4781         39.8579         30.2691         39.5477         10.0910
            4782         43.5065         45.3921         30.0679         9.88503
            4783         36.9040         27.3700         37.4613        -8.84602
            4784         34.7249         35.8367         23.7687        -8.33450
            4785         36.1488         36.8750         25.5632         8.87201
            4786         33.0512         25.3077         32.8492         8.24967
            4787         88.0961         100.884         57.7416        -4.98348
            4788         85.0687         97.1488         55.9103        -5.90104
            4789         81.5791         48.7103         94.0634         2.33675
            4790         78.3872         49.3546         90.3601         1.06637
            4791         82.6384         93.9647         59.5866         4.00931
            4792         75.8334         49.4968         87.3018     325.022E-03
            4793         79.0532         49.2402         91.1412        -1.40326
            4794         80.1557         90.9330         57.3895         5.20160
            4795         77.5464         47.8384         88.7175        -5.72255
            4796         79.2386         50.2621         90.0580        -7.49530
            4797         94.7663         40.9043         107.415         7.37531
            4798         94.1917         42.5583         106.673         8.59491
            4799         62.7228         65.9447         58.8382        -1.09280
            4800         58.7608         58.3645         59.1200    -764.670E-03
            4801         65.5649         75.4631         41.5314         2.10606
            4802         74.3827         85.8699         41.5622     468.702E-03
            4803         82.6934         93.8837         51.3588         8.32839
            4804         48.1581         34.3401         49.4415         11.4503
            4805         53.5004         55.6108         35.4551         12.7063
            4806         35.1573         33.1684         27.6140         9.81960
            4807         82.7938         46.2894         95.2835        -3.82026
            4808         72.5832         47.5518         83.4306         2.14109
            4809         90.7418         104.341         56.2453         4.17127
            4810         52.7403         54.3932         35.2594        -12.8786
            4811         49.7093         37.6824         50.0920        -11.9643
            4812         32.6938         28.6888         28.5412        -9.12966
            4813         34.8084         33.4804         26.6836        -9.52274
            4814         90.2722         103.763         55.4230        -4.52418
            4815         72.6484         49.1582         83.3797        -1.62053
            4816         83.3624         47.2981         95.9558         3.79442
            4817         82.4230         93.5877         51.6296        -8.18888
            4818         82.3404         94.1208         55.6763        -4.53405
            4819         49.7050         49.8654         35.4641        -12.8420
            4820         72.5239         47.5261         83.3740        -2.01605
            4821         49.8405         35.9861         50.6224        -12.2222
            4822         75.3016         84.6528         51.5396        -8.38377
            4823         83.2197         46.4016         95.8115         3.57666
            4824         48.3051         36.3136         48.9764         11.4677
            4825         50.1591         50.7156         35.5815         12.6801
            4826         34.1513         30.1410         29.3628         9.67268
            4827         75.7352         85.2213         51.6241         8.31831
            4828         82.6586         47.4413         95.0801        -4.17348
            4829         72.1617         49.0543         82.7504         2.05114
            4830         82.8642         94.7267         56.5977         4.13715
            4831         88.4211         101.282         58.0156         4.84177
            4832         77.9745         48.6020         89.9298    -648.881E-03
            4833         43.5886         45.2838         28.9968         10.3540
            4834         79.8706         90.5743         57.2188        -5.29691
            4835         79.3510         48.4682         91.5344         1.33793
            4836         38.6051         27.1813         39.6258        -9.28099
            4837         39.1485         28.7682         40.0663        -9.17102
            4838         38.8346         39.7932         27.2542         9.42284
            4839         39.5787         41.3080         26.2559        -9.22544
            4840         37.6096         28.5417         37.3863         9.47255
            4841         79.4492         49.2130         91.6032         1.54712
            4842         87.1852         99.7575         57.2138        -5.28460
            4843         78.0389         49.4048         89.9490    -880.370E-03
            4844         81.0112         91.9839         58.1411         4.81072
            4845         68.3541         78.4237         46.2129         1.87633
            4846         60.6103         68.0882         47.7261         1.77086
            4847         70.4583         50.9350         79.4464         5.91257
            4848         72.5352         55.3650         80.4737         7.64802
            4849         83.2200         45.9418         94.8353         7.70489
            4850         85.0049         48.0922         96.0856         10.0250
            4851         74.2857         85.3413         35.3389     867.814E-03
            4852         75.9699         86.9329         33.4218     918.807E-03
            4853         84.7707         96.5165         34.2107     849.960E-03
            4854         83.2991         95.1566         35.5081     811.774E-03
            4855         85.1883         97.3368         60.3245         2.26106
            4856         69.1271         47.9505         78.7661         4.16629
            4857         53.7469         57.1403         37.2156         11.0337
            4858         52.7978         36.6284         56.9831        -9.76557
            4859         86.3990         45.7303         99.4878         2.90421
            4860         71.6456         80.0790         50.1044        -8.60815
            4861         86.4328         46.1316         99.5390         2.96602
            4862         78.8521         89.2460         50.6185        -8.32804
            4863         53.5776         38.9206         57.3734        -9.95066
            4864         58.3883         63.1560         37.4861         11.2957
            4865         69.2861         46.6558         79.1232         4.27711
            4866         92.8230         106.855         59.2300         2.51459
            4867         63.5032         72.7389         44.2042        -1.01159
            4868         71.4802         82.4760         43.6489    -793.908E-03
            4869         65.7137         74.4279         50.0014    -207.373E-03
            4870         59.4402         65.4200         50.6657    -546.442E-03
            4871         72.3752         83.2713         36.1537        -1.58549
            4872         70.1649         80.9288         38.1071        -1.34749
            4873         81.5331         93.3281         36.2077        -1.38101
            4874         79.4337         91.2160         37.6216        -1.37342
            4875         60.8733         55.1158         65.2307        -1.63353
            4876         63.6100         61.8380         65.1137        -1.73174
            4877         44.1598         42.6332         32.6702        -12.3558
            4878         43.3008         32.7248         41.3937         12.1820
            4879         58.6278         58.6593         58.4361         1.76526
            4880         62.7909         66.2901         58.3126         2.12205
            4881         62.9372         64.2786         61.1853         2.49118
            4882         59.2096         57.1357         60.8706         2.15607
            4883         82.6271         45.9214         94.5759        -6.24285
            4884         84.5716         47.6519         96.0807        -8.72860
            4885         61.6278         69.7485         47.0902    -197.475E-03
            4886         68.7821         79.0387         46.0640     967.382E-03
            4887         55.5915         58.3807         36.4547         12.6677
            4888         71.6026         47.3611         82.1635         2.85067
            4889         91.3434         105.108         56.6177         3.70911
            4890         51.1776         38.4550         52.3693        -11.7143
            4891         32.5346         31.1015         25.5099        -8.82868
            4892         84.6791         46.7147         97.4406         3.89548
            4893         81.2713         92.1005         51.0385        -8.52956
            4894         74.2369         83.2114         50.8436        -8.80667
            4895         84.5681         45.9076         97.3117         3.74322
            4896         51.0590         36.2874         53.0776        -11.5335
            4897         51.9273         53.0862         36.5745         12.6782
            4898         31.7935         28.6190         27.0983         8.81260
            4899         70.9505         48.8389         81.1569         2.93853
            4900         83.5130         95.5640         57.0900         3.57847
            4901         96.0005         39.8806         109.504    -748.470E-03
            4902         88.9821         43.4349         101.232         7.75220
            4903         88.9172         45.1658         101.056         8.53029
            4904         73.1954         83.1805         32.5381        -5.36580
            4905         81.8794         92.9191         33.6343        -4.62879
            4906         79.2991         91.2225         38.7426    -54.4012E-03
            4907         70.9785         81.9172         38.6922    -13.0708E-03
            4908         81.5884         93.0527         55.7519         5.08127
            4909         74.6054         49.2183         85.8360     367.212E-03
            4910         80.1595         48.4000         92.3438        -2.88949
            4911         77.8187         88.0455         53.2111         7.24139
            4912         37.7269         31.4475         34.0574         10.7313
            4913         84.5824         96.3943         52.8477        -7.38619
            4914         75.2377         49.2069         86.6091     73.6555E-03
            4915         80.8965         48.2177         93.1877         3.08974
            4916         88.8764         101.950         55.0666        -5.38502
            4917         46.4121         45.9223         33.5136         12.3974
            4918         46.1020         35.9499         44.5787         12.2248
            4919         38.1621         37.1406         28.2634        -10.4534
            4920         35.3599         29.1804         32.5644        -9.80861
            4921         46.1222         35.4842         45.2945        -11.8852
            4922         48.2624         49.0571         32.8941        -12.3061
            4923         77.3258         87.3849         52.9674        -7.44240
            4924         80.7352         47.1677         93.0548         2.79117
            4925         45.8697         33.5368         45.5340        -12.0144
            4926         75.0988         47.7821         86.5585    -306.143E-03
            4927         81.1452         92.4858         55.3035        -5.39232
            4928         49.0924         50.0891         33.2900         12.3881
            4929         39.4310         38.2645         29.1668         10.8931
            4930         79.9487         47.2603         92.1646        -2.56041
            4931         74.6561         47.8013         86.0170     678.712E-03
            4932         89.3526         102.560         55.4253         5.09134
            4933         85.0498         96.9908         52.9318         7.26595
            4934         46.3616         34.2893         45.4738         12.4504
            4935         73.7086         85.1106         42.3392     127.388E-03
            4936         65.6443         75.6099         42.3449    -555.358E-03
            4937         68.2337         46.5181         77.8646         4.12801
            4938         61.1192         68.2286         39.1886         8.53323
            4939         94.5716         108.544         64.4120         1.24169
            4940         54.8723         38.8206         60.7680        -7.53297
            4941         15.3751         14.9348         14.1434        -2.85984
            4942         75.7293         85.9180         50.2601        -6.95666
            4943         86.7707         46.3720         100.029         1.95710
            4944         86.6930         46.2734         99.9323         2.01605
            4945         69.7659         78.2751         50.2586        -7.03207
            4946         54.8610         37.5997         61.0651        -7.37283
            4947         55.6784         61.3368         38.6252         8.46803
            4948         86.5928         98.4311         64.2466         1.39859
            4949         68.1209         47.4333         77.6175         3.98815
            4950         58.6958         61.8240         54.8939         1.06658
            4951         63.9157         70.7630         53.5077    -605.282E-03
            4952         58.8627         62.1175         54.7200        -1.91667
            4953         64.0726         71.1515         53.1176     477.555E-03
            4954         12.1521         11.2467         12.0899         1.91405
            4955         12.1547         12.0900         11.2521        -1.91442
            4956         72.6840         83.7219         36.8850     630.115E-03
            4957         81.4730         93.4111         37.0617     455.295E-03
            4958         67.6975         57.5468         74.0396        -4.09037
            4959         67.4361         51.6250         76.0108        -3.10436
            4960         87.1083         46.2615         100.446         1.30771
            4961         73.7820         83.8223         49.5130        -6.22781
            4962         56.8016         40.0320         63.6354        -6.37321
            4963         66.5572         46.6794         75.7297         4.12016
            4964         87.3285         99.0157         65.9657     880.406E-03
            4965         95.3304         109.127         66.9973     756.837E-03
            4966         62.8210         70.8793         40.7092         7.08991
            4967         66.5960         45.8131         75.8680         4.31961
            4968         57.4965         64.0251         40.2870         7.37041
            4969         56.7595         38.9790         63.7503        -6.40584
            4970         67.8411         76.1800         49.2195        -6.48109
            4971         87.0672         46.2192         100.391         1.42581
            4972         77.3606         50.8758         88.0510        -6.40325
            4973         75.2667         48.6638         86.0377        -5.20746
            4974         79.8790         49.4205         91.1552        -6.68175
            4975         79.3615         47.0978         90.9046        -5.70980
            4976         74.4848         84.3479         49.0887        -7.39941
            4977         87.2827         45.8732         100.588         1.85136
            4978         56.2271         39.9607         62.1847        -7.80253
            4979         67.1252         45.8025         76.4056         4.81953
            4980         62.9708         70.3540         40.5246         8.64982
            4981         94.7412         108.786         64.2515     976.159E-03
            4982         86.5280         98.5383         63.4112         1.25862
            4983         67.0275         46.8564         76.1668         4.64327
            4984         57.1742         62.8781         39.7704         8.83608
            4985         87.1957         45.7599         100.478         1.92634
            4986         68.7295         76.8832         49.0344        -7.70842
            4987         56.1476         38.6007         62.3668        -7.75294
            4988         43.8216         40.9243         33.4814        -12.8417
            4989         44.3444         34.4462         41.1313         12.9733
            4990         61.8626         54.3401         67.1724        -2.01223
            4991         97.8923         39.5641         110.748         6.68446
            4992         97.1124         40.9855         109.869         7.80651
            4993         60.8046         55.1793         65.1859     232.435E-03
            4994         63.2400         62.1033         64.3175    -137.230E-03
            4995         94.2618         40.8392         107.212         5.81730
            4996         93.4870         42.2939         106.322         6.91563
            4997         62.5822         71.3916         45.1128        -1.32590
            4998         69.6679         80.1963         45.0607        -1.34200
            4999         64.3483         73.8362         44.0900     377.686E-03
            5000         71.8984         82.9763         43.7845     318.091E-03
            5001         81.7299         46.6306         93.0603         7.84465
            5002         81.4380         49.9456         92.0314         9.38729
            5003         83.6129         45.5922         95.5719         6.72797
            5004         83.9625         47.7910         95.5264         8.28084
            5005         79.4581         90.1557         55.5765        -5.98128
            5006         78.9101         47.9594         91.0236         1.51053
            5007         42.4543         30.5786         42.7010        -10.7963
            5008         42.8160         42.9552         30.6167         11.0427
            5009         77.3971         48.1035         89.2701    -688.047E-03
            5010         45.7968         46.6860         31.1833         11.5642
            5011         88.0832         100.907         56.1641         5.45834
            5012         38.4488         30.3839         36.7020         10.3801
            5013         80.5990         91.6197         56.4117         5.42132
            5014         77.4850         49.1533         89.2988    -988.128E-03
            5015         42.7632         32.2468         42.7727        -10.6240
            5016         40.9448         41.6204         28.2127        -10.3681
            5017         79.0364         48.9314         91.1104         1.78234
            5018         86.8421         99.3380         55.4693        -5.96875
            5019         68.4434         47.5642         77.9370         4.28122
            5020         85.4076         97.6014         60.5344         2.02116
            5021         54.9440         58.8652         38.0230         10.7425
            5022         70.4922         78.8812         49.9881        -7.98349
            5023         86.7905         45.5723         99.9403         2.72092
            5024         54.1936         37.5167         58.9729        -9.38263
            5025         77.6416         87.6934         49.7764        -8.66913
            5026         86.8739         45.8585         100.041         2.80452
            5027         54.4554         38.9795         59.4269        -8.77224
            5028         68.5420         46.3425         78.1387         4.68565
            5029         93.1837         107.318         59.3065         2.11639
            5030         60.1548         65.4037         38.5555         11.1968
            5031         78.5232         51.2227         88.7936        -8.28810
            5032         76.1329         48.7700         86.6303        -6.77891
            5033         58.5474         59.5836         57.4507     212.106E-03
            5034         63.0049         68.0665         56.2701     346.227E-03
            5035         84.6869         96.9761         58.5045         2.46708
            5036         68.7651         48.1750         78.1867         4.51999
            5037         54.9100         57.5436         38.2175         12.1441
            5038         53.9602         38.2739         56.8708        -11.3900
            5039         86.9027         45.0393         99.9670         3.29582
            5040         71.9482         80.1196         49.3935        -9.57526
            5041         86.6840         45.7685         99.7531         3.37794
            5042         77.8231         87.6314         49.0983        -9.47071
            5043         53.9785         40.0923         56.5640        -11.1740
            5044         68.8083         46.4702         78.4428         4.72884
            5045         92.3040         106.338         57.0927         2.81877
            5046         59.2069         63.1980         38.2985         12.4510
            5047         60.9654         54.9890         64.8326         4.27385
            5048         63.9238         62.0662         64.9834         3.85007
            5049         73.2922         84.1774         35.1763        -1.78809
            5050         82.3345         94.0747         35.4663        -1.58607
            5051         55.5734         61.2462         38.5516        -8.41064
            5052         86.7103         98.5694         64.3456        -1.27682
            5053         67.6906         46.2495         77.1806        -4.30962
            5054         55.3814         39.1931         61.4161         7.44209
            5055         69.3846         77.8277         49.9798         7.04532
            5056         86.9486         46.2451         100.234        -1.82332
            5057         54.7840         37.5395         60.9180         7.48102
            5058         74.9895         85.0499         49.7535         6.97729
            5059         86.9034         46.1244         100.171        -1.89439
            5060         61.2442         68.5022         39.3148        -8.28249
            5061         67.7622         47.2605         77.1643        -4.10925
            5062         94.7082         108.660         64.8366        -1.14841
            5063         38.4955         33.2355         32.3841        -11.6172
            5064         38.2423         32.4516         32.7783         11.5276
            5065         77.3571         88.1834         31.7672    -4.81846E-03
            5066         79.0669         89.5311         29.3368     747.480E-03
            5067         87.7138         99.0338         31.1665     635.065E-03
            5068         86.2652         97.8664         32.8611     20.8498E-03
            5069         84.8546         97.0567         59.3441        -2.47114
            5070         69.1986         46.5884         78.9914        -4.41236
            5071         53.6462         39.0916         57.2823         10.1284
            5072         54.0689         57.2049         37.4988        -11.4017
            5073         71.8873         80.3438         50.1249         8.70605
            5074         86.4835         45.9625         99.5558        -3.23150
            5075         58.7553         63.5196         37.7349        -11.4080
            5076         86.3842         45.5199         99.4313        -3.14581
            5077         69.2905         48.0520         78.9698        -4.10730
            5078         78.1687         88.3047         49.9250         8.73180
            5079         23.2207         22.5575         19.3357        -5.55745
            5080         92.8982         106.955         59.1936        -2.43753
            5081         53.0421         37.1495         56.5617         10.5734
            5082         82.9681         94.5445         34.4473        -2.25321
            5083         74.0673         84.7811         33.7330        -2.59059
            5084         70.7854         56.0833         78.3052        -6.45870
            5085         70.1899         50.8861         79.3414        -5.14930
            5086         70.0679         80.8978         39.3865    -119.570E-03
            5087         78.1901         90.0527         39.4091    -83.3996E-03
            5088         42.9356         38.3073         34.4210        -13.0357
            5089         44.3254         36.0562         39.0974         13.4881
            5090         59.3310         63.9152         52.9229         2.36329
            5091         59.3117         65.1998         50.5796         1.45379
            5092         66.4733         75.6725         48.4612         1.92042
            5093         64.7373         72.4065         52.0822         1.50079
            5094         62.8101         64.9761         60.1233        -2.23469
            5095         59.0358         57.5166         60.3169        -1.64974
            5096         47.7711         35.0559         47.3808         12.5059
            5097         83.6447         95.0704         51.3027         8.23511
            5098         81.6704         92.6895         51.6648         8.12913
            5099         50.0567         35.5347         51.9279         11.4264
            5100         83.9277         46.3462         96.6337        -3.48503
            5101         31.7701         30.1507         25.2899         8.62565
            5102         38.5990         35.8789         30.3866         11.0977
            5103         80.9637         46.7255         93.2292        -3.48070
            5104         53.8839         56.8339         35.2049        -12.0393
            5105         51.4103         52.0217         35.1423        -13.2909
            5106         29.0838         26.0072         25.4684        -7.81479
            5107         36.0853         31.2792         31.3741        -10.3406
            5108         89.3658         102.613         54.1437        -5.19989
            5109         91.2895         104.993         57.4067        -3.74460
            5110         73.4216         49.3408         84.3605    -804.766E-03
            5111         72.0523         48.9202         82.6051        -2.29516
            5112         81.4690         93.0425         54.4549        -5.21442
            5113         48.1060         47.0721         35.0252        -13.1701
            5114         73.2744         47.6231         84.3387        -1.24244
            5115         83.3548         95.2684         57.5641        -3.75826
            5116         49.5554         50.8316         34.8162        -11.9649
            5117         71.9517         47.4604         82.6099        -2.63663
            5118         51.4222         38.1879         53.3659         11.1944
            5119         47.6135         36.7583         46.7259         12.2492
            5120         76.5511         86.3006         51.6425         8.20800
            5121         81.1023         48.0301         93.3488        -3.66259
            5122         84.0388         47.0853         96.7445        -3.70737
            5123         74.8744         84.1651         51.8440         8.12536
            5124         69.6624         80.1668         44.9029         1.78716
            5125         67.4898         77.2290         47.3762         1.27332
            5126         61.4866         69.6300         46.6936         1.04045
            5127         60.1160         67.0498         49.0120     881.018E-03
            5128         70.6391         50.6121         80.0728         4.80626
            5129         70.4656         51.0911         79.0411         6.97355
            5130         71.5725         56.4845         78.5085         8.22713
            5131         85.1751         96.9113         33.9778     669.583E-03
            5132         76.2005         87.2009         33.4815     613.217E-03
            5133         62.7929         65.0309         60.0602         2.03899
            5134         58.9078         57.9697         59.7847     616.680E-03
            5135         62.4535         70.9549         46.4874        -1.04491
            5136         68.4535         78.5314         46.9641    -640.629E-03
            5137         94.5589         40.4987         107.974        -2.28766
            5138         97.5029         39.4855         110.972         2.20938
            5139         97.5463         39.2351         110.967         2.30467
            5140         95.5367         40.3971         108.982        -2.63721
            5141         87.2065         98.6241         31.7109    -220.537E-03
            5142         78.4344         89.0398         30.1776    -249.706E-03
            5143         65.9295         74.6829         48.9706        -3.07196
            5144         59.5470         65.3336         49.0064        -5.08286
            5145         81.6011         93.2490         54.3140         5.10179
            5146         80.9253         92.1736         55.3551         5.50812
            5147         78.6028         89.0946         53.7667         6.83193
            5148         72.7997         49.4078         83.5696         1.12199
            5149         75.7623         49.1904         87.2427    -385.900E-03
            5150         79.1406         48.6781         91.1866        -2.41335
            5151         39.5883         32.3515         36.3568         11.1802
            5152         37.4241         32.4080         32.3734         10.8229
            5153         85.5753         97.6843         53.4320        -6.96162
            5154         81.6327         47.8262         93.9177         3.98929
            5155         79.7433         48.5596         91.8841         2.59016
            5156         76.2739         49.1536         87.8545     727.555E-03
            5157         83.3663         94.6780         50.9775        -8.44093
            5158         88.1904         101.064         54.7626        -5.75177
            5159         44.4256         35.1764         42.1169         12.1647
            5160         49.5500         48.4407         36.0799         13.5976
            5161         44.6025         43.5848         32.6105         12.2151
            5162         40.2189         39.5097         29.1631        -10.9282
            5163         37.3248         34.9689         29.2616        -10.6038
            5164         37.9069         30.6471         35.3700        -10.4982
            5165         44.2116         34.3401         42.8507        -11.7010
            5166         49.2134         38.5887         47.5750        -12.9788
            5167         46.4359         46.8366         32.0287        -12.0678
            5168         76.1687         85.7535         51.1663        -8.51876
            5169         81.4206         46.6111         93.7374         3.61582
            5170         78.2327         88.5985         53.6089        -6.98602
            5171         79.5805         47.4401         91.7620         2.26780
            5172         44.1389         32.6245         43.2283        -11.9094
            5173         48.6903         36.2424         47.5967        -13.1251
            5174         76.1301         47.7994         87.7889     358.121E-03
            5175         80.5471         91.6845         55.0008        -5.75673
            5176         46.1335         44.8741         33.8217        -12.7596
            5177         89.6108         102.940         54.0376         5.03387
            5178         47.7334         47.9413         33.0491         12.5470
            5179         72.9999         47.5978         83.9966         1.42108
            5180         50.6686         51.1242         34.7821         13.1913
            5181         41.1675         40.7698         29.4054         11.0568
            5182         78.9271         47.4922         91.0178        -2.03086
            5183         85.9355         98.1435         53.4439         6.87208
            5184         75.7175         47.8336         87.2974    -34.1888E-03
            5185         88.5705         101.553         54.9753         5.54600
            5186         45.3260         34.0752         43.5828         12.6354
            5187         58.6796         60.8860         56.0703         1.43860
            5188         64.8151         72.6911         51.7190    -741.927E-03
            5189         63.2733         68.9602         55.3541    -622.345E-03
            5190         59.1550         63.8637         52.7658        -1.45300
            5191         58.6761         60.7044         56.2914        -1.44682
            5192         63.2958         69.1251         55.1209    -5.42988E-03
            5193         11.0837         11.3455         10.0360         1.55581
            5194         9.90594         8.01338         10.8078         1.11224
            5195         11.0870         10.0346         11.3512        -1.55730
            5196         9.90695         10.8082         8.01704        -1.11169
            5197         70.6663         81.5335         38.2441    -725.433E-03
            5198         79.4046         91.2917         38.3071    -448.826E-03
            5199         11.8500         11.7720         11.1547        -1.70547
            5200         87.7171         45.7359         99.7797        -8.36743
            5201         38.2765         33.3707         31.9055         11.5215
            5202         39.1107         32.8685         33.7526        -11.8246
            5203         66.7400         46.6955         75.8674        -4.49317
            5204         95.0236         108.979         65.4463    -842.476E-03
            5205         62.8794         70.5601         40.5739        -7.99487
            5206         68.2923         76.5151         49.0291         7.23155
            5207         87.2727         45.9876         100.604        -1.53924
            5208         56.1798         38.6031         62.6876         7.21505
            5209         73.4801         83.2907         48.7377         6.97660
            5210         87.2306         45.8938         100.546        -1.62673
            5211         56.6331         40.1284         62.9802         7.25274
            5212         57.1542         63.0483         39.8129        -8.49673
            5213         86.8845         98.7888         64.4359        -1.03976
            5214         66.6675         45.6525         75.8876        -4.68809
            5215         75.8303         86.9097         34.2605     493.998E-03
            5216         84.9892         96.8265         34.5872     397.974E-03
            5217         68.5391         51.4923         77.1222         4.81392
            5218         69.7813         57.0021         76.5037         6.53848
            5219         83.3612         95.1291         35.0197        -1.23288
            5220         74.3977         85.3481         34.5641        -1.41602
            5221         68.6380         51.6528         76.6381         6.54066
            5222         69.3114         57.9707         74.8856         7.67646
            5223         67.2981         47.0207         76.4574        -4.74141
            5224         94.2861         108.432         62.4190        -1.22229
            5225         62.2636         69.0304         39.9103        -9.55244
            5226         74.5120         84.1084         48.4739         8.26969
            5227         87.2647         45.5793         100.532        -2.08868
            5228         69.2155         77.3514         49.1285         8.04349
            5229         87.3230         45.7605         100.612        -2.04792
            5230         55.9061         39.9142         61.4627         8.32505
            5231         86.2412         98.3426         62.5208        -1.40107
            5232         67.2187         45.7968         76.4810        -4.97480
            5233         57.7726         63.0320         40.1275        -9.72529
            5234         85.4329         97.2332         34.1973     209.391E-03
            5235         76.2975         87.3346         33.6468     368.679E-03
            5236         9.87329         11.0227         7.43295     942.216E-03
            5237         9.69054         8.26717         10.4223        -1.01637
            5238         59.2850         57.2984         61.0756    -550.327E-03
            5239         62.7035         65.3689         59.6177     710.395E-03
            5240         59.5107         56.7742         61.9117    -214.315E-03
            5241         62.7621         64.6272         60.6476        -1.11858
            5242         66.6483         58.5750         71.9720        -3.94815
            5243         65.9220         52.2588         73.8204        -2.77101
            5244         82.6323         47.9594         94.3941        -6.94798
            5245         60.1432         55.9406         63.5882     720.642E-03
            5246         62.9737         62.9712         62.9762    -48.5480E-03
            5247         91.5709         42.0701         104.326         6.33399
            5248         91.2517         43.4943         103.908         7.25064
            5249         65.2474         75.0241         43.3948     620.613E-03
            5250         72.9153         84.1529         43.3752         1.10542
            5251         86.6933         46.1766         98.7216         8.08539
            5252         83.7775         96.0142         56.6196         3.18537
            5253         69.0266         48.8076         78.4831         4.22167
            5254         53.5030         55.4085         37.4234         12.4570
            5255         52.8668         37.5651         55.3529        -11.5348
            5256         73.0097         81.3412         49.4314        -9.85505
            5257         85.8397         45.2103         98.6868         3.96097
            5258         78.8608         88.7419         49.0256        -9.84922
            5259         85.9008         46.0279         98.7806         4.05960
            5260         53.4471         40.6573         54.4803        -12.2542
            5261         91.8660         105.775         56.9148         3.25864
            5262         69.1364         46.7772         78.8682         4.50062
            5263         57.4551         60.8643         37.3873         12.5747
            5264         61.4724         54.6152         66.2154         3.05057
            5265         60.5332         55.3865         63.3000         5.64742
            5266         63.8400         62.7180         63.7465         5.04754
            5267         64.0552         61.3547         66.1554         2.65030
            5268         72.6328         83.6227         36.5253        -1.00176
            5269         69.1131         79.8019         40.1860    -307.440E-03
            5270         77.0386         88.8211         40.1740    -197.275E-03
            5271         40.4303         34.8853         33.7898        -12.3104
            5272         40.6094         33.4537         35.5959         12.2980
            5273         81.5420         92.3133         50.4605         8.93041
            5274         84.1899         45.8280         96.8366        -4.00984
            5275         51.0376         37.0648         51.7187         12.5586
            5276         34.5129         31.4103         28.5279         9.77687
            5277         54.8478         56.7555         36.5012        -13.2464
            5278         32.7988         30.5457         26.6077        -9.08297
            5279         90.7367         104.383         55.1990        -4.17147
            5280         71.4060         49.0941         81.7576        -2.45630
            5281         82.7118         94.6750         55.4812        -4.17935
            5282         51.8288         51.8881         37.0263        -13.4675
            5283         71.2794         47.3238         81.7695        -2.86382
            5284         51.2080         38.7075         52.0670         11.9499
            5285         74.7241         83.7982         50.7437         8.92300
            5286         84.2422         46.7715         96.8621        -4.37043
            5287         75.6957         51.3964         86.2200        -5.34646
            5288         74.7957         48.5283         85.7203        -4.13462
            5289         70.1837         80.8086         45.4557    -949.780E-03
            5290         101.103         38.3457         114.482         3.41937
            5291         99.7180         38.4388         113.174         1.64709
            5292         86.5675         98.0853         32.3759    -449.384E-03
            5293         77.7168         88.4436         31.0951    -543.956E-03
            5294         72.6420         54.2563         81.5137        -6.08993
            5295         73.0118         49.7260         83.0799        -5.38543
            5296         78.9397         89.4894         55.1731         6.23039
            5297         80.4575         91.6669         53.8942         5.95338
            5298         75.1893         49.3042         86.5352    -491.093E-03
            5299         79.6379         48.7698         91.7999        -2.12483
            5300         41.2588         34.5260         36.7306         11.9620
            5301         79.2548         48.5978         91.2702         2.87823
            5302         76.8311         49.2135         88.5240     614.327E-03
            5303         88.5845         101.540         56.4780        -5.22349
            5304         85.3342         97.3148         52.2261        -7.45096
            5305         46.1914         44.0356         34.4741         13.2179
            5306         42.0529         32.1197         41.4785         10.7793
            5307         41.5999         39.8722         31.0608        -11.7537
            5308         36.2511         28.3198         35.1505        -9.52243
            5309         45.6616         36.4408         42.9071        -12.6438
            5310         45.2049         46.6291         30.3289        -11.0088
            5311         45.6558         34.5652         43.5707        -12.8753
            5312         76.7148         48.1039         88.4676     311.675E-03
            5313         79.0542         47.2627         91.1287         2.47351
            5314         77.9474         88.2270         52.5031        -7.47008
            5315         81.0142         92.1623         56.6126        -5.22746
            5316         49.4839         49.1686         34.6710         13.3385
            5317         88.1794         101.062         53.3799         5.98369
            5318         75.1247         47.6924         86.5979    -72.9971E-03
            5319         39.4798         39.7444         27.7081         10.2069
            5320         79.4958         47.8182         91.6912        -1.84661
            5321         86.2350         98.5676         54.9766         6.25528
            5322         58.5070         60.3272         56.4988     15.3248E-03
            5323         63.0961         68.4548         55.8054    -568.708E-03
            5324         69.9234         80.7300         39.2641    -144.480E-03
            5325         78.9321         90.8306         38.8869    -31.5865E-03
            5326         84.4469         96.8446         57.3217        -2.44505
            5327         68.0031         46.2411         77.3010        -5.32966
            5328         71.1734         79.0490         48.8467         9.86890
            5329         87.4456         45.1774         100.547        -3.58366
            5330         54.8943         40.4874         58.1739         10.7279
            5331         55.2593         57.6643         38.5354        -12.4575
            5332         87.3573         44.6399         100.432        -3.42549
            5333         68.1244         48.0295         77.2749        -4.97200
            5334         77.4015         86.9629         48.5927         9.88193
            5335         92.5664         106.689         56.9820        -2.47345
            5336         60.5490         64.7941         39.0737        -12.5553
            5337         53.9958         38.2641         56.9644         11.3454
            5338         86.1385         44.5431         98.3743        -6.83511
            5339         84.2103         45.2922         96.3907        -6.17973
            5340         85.1896         46.8219         97.1575        -7.62661
            5341         90.2100         44.5512         102.422        -8.67582
            5342         40.3959         35.2328         33.3949         12.2727
            5343         87.7999         45.5677         101.210     534.829E-03
            5344         60.0451         42.5092         67.3757        -6.40275
            5345         63.6450         44.8823         71.9364         5.47980
            5346         87.2630         99.1997         64.8962     373.247E-03
            5347         63.6443         43.8202         72.0632         5.63025
            5348         61.0556         67.8433         43.0692         8.00150
            5349         59.9540         41.3293         67.4054        -6.54960
            5350         64.8558         72.4144         46.2226        -7.59572
            5351         87.7853         45.5324         101.188     677.007E-03
            5352         99.7009         39.4130         112.795         6.04653
            5353         100.287         38.3195         113.583         3.66903
            5354         63.0798         53.6017         69.3351        -2.23974
            5355         61.5617         69.6822         47.0097    -147.504E-03
            5356         68.8379         79.0917         46.4004     116.585E-03
            5357         74.1145         54.0939         82.9305         7.64579
            5358         72.6756         50.0605         82.4203         6.01614
            5359         45.3331         41.4620         35.2707        -13.5937
            5360         46.0911         35.7105         42.8690         13.4446
            5361         77.2631         88.0949         31.8549    -364.809E-03
            5362         86.1707         97.7823         32.9493    -271.674E-03
            5363         55.3979         38.2479         60.8294        -8.80156
            5364         69.5764         77.5559         48.8778        -8.71173
            5365         87.2060         45.4704         100.438         2.34102
            5366         55.7150         60.6048         38.5725         9.67902
            5367         85.8940         98.0772         61.5193         1.59749
            5368         67.4139         47.1464         76.5230         4.96219
            5369         93.4665         107.690         59.2729         1.70546
            5370         67.5670         45.9115         76.8782         5.05873
            5371         61.9183         67.5947         39.6402         11.1497
            5372         55.7438         40.1179         60.7193        -9.07421
            5373         76.4112         86.0758         48.8641        -9.09124
            5374         87.3386         45.6316         100.596         2.35106
            5375         58.8447         59.5617         57.8480        -2.17853
            5376         63.1125         68.1484         56.2546        -1.64002
            5377         42.7396         32.0789         41.1828        -11.8699
            5378         79.0800         89.7272         54.1619        -6.55637
            5379         78.4141         47.6342         90.4396         1.67808
            5380         43.0926         41.4984         32.0122         12.0902
            5381         44.4589         44.3733         31.1818         11.8172
            5382         76.7940         47.7912         88.5692    -741.799E-03
            5383         87.7296         100.468         54.4639         6.00673
            5384         41.2278         33.3661         38.1817         11.5840
            5385         80.1904         91.2018         54.8718         5.95041
            5386         76.9053         49.0909         88.6020        -1.11712
            5387         42.2314         33.1864         40.3828        -11.4243
            5388         42.3382         41.9581         30.1296        -11.3788
            5389         78.5740         48.8309         90.5463         2.01994
            5390         86.5221         98.9093         53.9522        -6.54618
            5391         95.5737         40.0636         109.071     921.290E-03
            5392         95.3307         40.2480         108.848     572.624E-03
            5393         51.8818         37.9089         52.3659        -12.8786
            5394         84.3103         45.5612         96.8979         4.39686
            5395         73.9961         82.6556         49.7217        -9.67811
            5396         53.3708         53.4513         38.1024         13.8592
            5397         69.9676         49.2508         79.7936         3.30180
            5398         82.7611         94.8203         54.9724         4.04340
            5399         90.8748         104.584         54.7960         4.02561
            5400         70.0994         47.0919         80.1972         3.71150
            5401         56.7467         58.7596         37.7189         13.6763
            5402         52.3749         40.2247         52.5371        -12.6260
            5403         84.5363         46.5886         97.1432         4.64987
            5404         79.6695         89.5897         48.7100        -10.2007
            5405         59.6874         65.9487         50.3134     65.9607E-03
            5406         66.5016         75.7346         48.8073     573.452E-03
            5407         78.6119         48.7585         90.5137        -2.77036
            5408         78.2813         88.6903         52.5399         7.33337
            5409         46.3517         36.9608         43.6417         12.7908
            5410         75.5460         47.6627         87.0992     439.668E-03
            5411         80.0814         91.1622         53.5786        -6.22251
            5412         75.7202         49.2604         87.1703     882.725E-03
            5413         87.7926         100.552         53.2499        -6.20925
            5414         39.6924         33.0024         35.7239        -11.3887
            5415         47.6651         47.0655         33.7280        -12.9954
            5416         85.5994         97.6506         52.0463         7.41969
            5417         78.2826         47.3384         90.2469        -2.22674
            5418         73.4246         84.5127         36.4661     531.429E-03
            5419         82.3553         94.3117         36.6215     367.097E-03
            5420         75.5640         86.6101         34.2301     726.202E-03
            5421         84.5255         96.3708         34.8388     555.682E-03
            5422         71.8429         82.8680         38.1066     19.8780E-03
            5423         80.3241         92.2954         38.2032    -94.7001E-03
            5424         74.7138         86.2549         41.6952     236.941E-03
            5425         67.2189         77.5668         41.1577    -311.186E-03
            5426         65.0127         72.6961         51.9455        -2.57125
            5427         59.5953         64.6876         52.1968        -2.52263
            5428         65.8343         74.5387         50.1253     787.193E-03
            5429         59.7631         65.5565         51.2002         1.73409
            5430         89.1754         102.406         52.4106         5.33891
            5431         72.5077         47.6700         83.4016         1.27380
            5432         53.5544         53.8153         36.8928         14.0986
            5433         50.1406         40.3125         47.1220        -13.7611
            5434         38.9739         35.5540         31.3986        -11.3337
            5435         81.0028         48.0774         93.0877         4.47601
            5436         83.2610         94.4291         49.9381        -8.89458
            5437         49.5278         37.7646         47.1914        -13.9281
            5438         76.0386         85.5223         50.2564        -8.94706
            5439         80.7483         46.6016         92.9025         3.96275
            5440         50.6566         48.4701         37.5766         14.4462
            5441         39.6282         34.7004         33.5439         11.6199
            5442         72.2665         49.8223         82.8609     927.275E-03
            5443         80.9479         92.5207         52.6407         5.53145
            5444         65.9327         46.3226         74.6450         5.39164
            5445         86.2194         98.4619         61.8341         1.13771
            5446         87.9664         45.1962         101.317         1.77376
            5447         74.9663         84.5784         48.6092        -8.46318
            5448         58.5895         64.2150         40.7754         9.39723
            5449         57.5308         41.0741         63.5133        -8.11413
            5450         67.7185         75.4322         47.8455        -8.47896
            5451         87.8894         45.0276         101.212         1.87064
            5452         57.3509         39.5577         63.4883        -8.26657
            5453         94.2162         108.419         61.7448         1.14390
            5454         63.3360         70.0421         40.5753         10.0196
            5455         65.9791         45.0800         74.7795         5.77725
            5456         59.6199         56.5431         62.2401     971.700E-03
            5457         62.8425         63.8853         61.7066     873.592E-03
            5458         64.8948         52.8061         72.0265         3.58110
            5459         66.3043         59.2133         70.9087         4.49944
            5460         67.9886         78.4892         40.4966     389.808E-03
            5461         75.8215         87.4920         41.0331    -365.141E-03
            5462         79.0649         89.5502         29.4004    -386.246E-03
            5463         87.7239         99.0582         31.2057    -335.768E-03
            5464         43.1655         42.0156         31.3984         11.9904
            5465         77.1789         47.5238         88.9982        -1.51872
            5466         86.4953         98.8377         52.4405         6.96728
            5467         79.4166         90.2469         53.2799        -6.63580
            5468         76.7202         47.5916         88.4725         1.18155
            5469         45.7038         44.6408         32.9151        -12.6753
            5470         44.8135         36.3807         41.2324         12.7101
            5471         41.8905         34.3664         38.1266        -11.9777
            5472         87.0153         99.5301         52.9600        -6.62774
            5473         76.9107         49.0985         88.5762         1.61375
            5474         79.0569         89.7558         53.0352         6.86486
            5475         77.4032         49.0229         89.1380        -2.01999
            5476         59.0486         58.7883         58.9391        -2.69446
            5477         62.8447         66.8940         57.6526        -1.57433
            5478         40.3661         30.7872         38.3260        -11.4402
            5479         40.5117         38.5792         30.5774         11.5110
            5480         77.4069         47.3991         89.2271         2.07969
            5481         78.3233         88.7787         51.8624        -7.47102
            5482         46.9026         36.3100         43.7015        -13.6433
            5483         75.0014         47.6607         86.4448     571.454E-03
            5484         79.6023         90.5917         52.3367        -6.62835
            5485         48.4448         47.2498         34.8049         13.5092
            5486         86.9601         99.4429         51.2196         6.90732
            5487         75.4106         47.6293         86.9287    -809.204E-03
            5488         85.1871         97.0518         50.7811         7.90489
            5489         77.5298         47.3505         89.3407        -2.40654
            5490         46.7534         38.1698         42.7579         13.3263
            5491         47.4822         44.2709         36.1493         14.0028
            5492         48.8427         47.3211         35.3867        -13.7676
            5493         47.1448         38.5698         43.0162        -13.4627
            5494         43.3201         36.7314         37.8042         12.7394
            5495         43.8076         37.1174         38.2190        -12.9009
            5496         44.9037         42.2325         34.0751        -13.0476
            5497         77.9623         49.0480         89.6708        -3.14797
            5498         75.5913         49.4315         86.9739        -1.33681
            5499         79.3961         90.2976         52.2790         6.77414
            5500         77.9668         88.2843         51.4880         7.73016
            5501         77.6433         49.0335         89.3658         2.57367
            5502         75.2067         49.4979         86.5133         1.10634
            5503         87.3732         99.9981         51.9509        -6.59679
            5504         85.8503         97.9612         51.4958        -7.45332
            5505         63.4404         68.9557         55.4096        -2.60701
            5506         59.0365         60.9639         56.2223        -3.43010
            5507         95.3857         40.1193         108.787         2.49631
            5508         95.2304         40.5686         108.652         2.92260
            5509         93.8844         40.8541         107.371         1.05128
            5510         94.1821         40.9130         107.674         1.62658
            5511         73.9351         82.8400         50.8029         8.78453
            5512         85.0241         46.5253         97.8183        -3.96248
            5513         52.8364         39.6844         54.4548         11.7262
            5514         70.7848         47.1425         81.0978        -3.38488
            5515         83.5272         95.5989         57.0022        -3.54729
            5516         51.8889         53.0214         36.5595        -12.6889
            5517         70.8935         48.7650         81.0831        -3.02280
            5518         91.5524         105.372         56.7952        -3.53521
            5519         55.8787         58.8727         36.5427        -12.5489
            5520         80.6038         91.2175         50.5808         8.78973
            5521         84.9266         45.7862         97.7156        -3.73444
            5522         52.3718         37.8351         53.6519         12.4191
            5523         74.1711         82.9012         49.8086         9.60951
            5524         52.2236         40.7290         51.4301         13.1414
            5525         82.4593         94.4969         54.2236        -4.22797
            5526         51.6382         50.8816         37.3494        -13.9402
            5527         70.3008         47.2827         80.4876        -3.36501
            5528         70.4495         49.3107         80.4585        -2.91460
            5529         90.5679         104.217         53.8493        -4.22692
            5530         56.3268         57.7480         37.8428        -14.0375
            5531         52.1863         38.6853         51.8741         13.4498
            5532         80.9214         91.3331         49.4599         9.61892
            5533         71.6630         50.3027         81.3029        -5.31720
            5534         67.9965         77.9521         47.0698    -453.927E-03
            5535         60.5878         67.9389         48.4189    -323.569E-03
            5536         64.4464         52.9193         71.5688        -2.46017
            5537         84.0636         95.7659         34.3530        -1.32888
            5538         75.1571         86.0449         33.6204        -1.56988
            5539         67.8558         47.3149         77.1446        -4.63719
            5540         93.9146         108.051         61.5283        -1.56622
            5541         61.1168         67.3475         39.0983        -10.0676
            5542         75.7400         85.5203         49.0773         8.39340
            5543         87.1039         45.5440         100.324        -2.38088
            5544         69.9602         78.1637         49.4290         8.27030
            5545         87.1738         45.7811         100.418        -2.36879
            5546         55.2207         39.5970         60.2959         8.81939
            5547         85.8961         98.0460         61.6787        -1.65512
            5548         67.7749         46.0249         77.1696        -4.88948
            5549         56.4157         61.2884         39.0842        -9.90441
            5550         85.8059         97.5166         33.5758     105.540E-03
            5551         76.9449         87.8644         32.5129     35.6523E-03
            5552         67.1379         52.1021         74.4420        -6.57887
            5553         66.5936         57.7002         72.6931        -2.27418
            5554         65.1843         52.2816         73.0071    -917.142E-03
            5555         80.5178         48.7138         92.1672        -5.91874
            5556         81.0581         46.4477         92.9187        -5.62708
            5557         60.2029         55.9453         63.4976         2.23312
            5558         63.0294         62.1661         63.7694         1.39626
            5559         91.5520         41.9729         104.556         5.05323
            5560         92.8320         42.2289         105.902         5.52180
            5561         64.3537         73.6910         44.7182         1.48859
            5562         72.2526         83.3672         43.8301         1.04229
            5563         82.1806         46.0680         94.1288         5.98566
            5564         84.7945         46.9819         96.7462         7.48975
            5565         84.0876         96.4902         56.3950         2.67989
            5566         68.2015         48.4533         77.3168         4.90191
            5567         56.4167         58.4175         39.4623         13.1435
            5568         72.0716         80.0274         48.8797        -10.2049
            5569         86.9471         44.6413         99.9049         3.90913
            5570         54.1754         38.9136         56.3284        -12.1072
            5571         87.2017         45.1978         100.125         4.53425
            5572         77.7458         87.2383         48.3997        -10.2252
            5573         54.5311         41.3006         56.1517        -12.0274
            5574         91.8096         105.797         55.2596         3.09128
            5575         68.2409         46.4311         77.6158         5.18146
            5576         43.4468         37.7202         35.7736        -13.3473
            5577         43.6314         35.9603         37.9854         13.3371
            5578         61.8664         69.9174         47.4133        -1.41535
            5579         62.9514         71.6100         46.2345        -1.64460
            5580         68.9327         79.0883         46.8330        -1.56754
            5581         71.6662         82.6647         44.2280    -925.653E-03
            5582         87.0176         98.4411         31.8183    -644.693E-03
            5583         78.2518         88.8604         30.3056    -754.621E-03
            5584         67.9213         77.8413         47.2022     298.432E-03
            5585         60.9227         68.6268         47.6286     828.584E-03
            5586         75.0410         52.2144         85.1176        -5.89250
            5587         72.8075         49.3720         83.2089        -3.99183
            5588         68.5874         79.1941         40.1752    -203.225E-03
            5589         71.2242         82.1824         38.3780    -150.724E-03
            5590         79.9126         91.8523         38.2862    -89.6032E-03
            5591         77.7631         89.5987         39.6910     127.559E-03
            5592         41.2521         38.1588         32.0228         12.1399
            5593         41.4153         32.5414         38.0915        -12.1775
            5594         68.4658         56.6226         75.6231         3.85457
            5595         67.1237         51.6234         75.7012         2.44213
            5596         88.1048         45.2245         101.531     346.867E-03
            5597         71.0766         80.2220         46.5628        -7.82256
            5598         60.8032         43.1139         68.1015        -6.74625
            5599         62.9494         44.5182         70.8575         6.17600
            5600         86.9572         99.0679         63.6945     253.699E-03
            5601         62.8919         43.2812         70.9498         6.29946
            5602         95.3887         109.324         66.2704     375.530E-03
            5603         65.9841         74.4184         43.0543         7.44224
            5604         62.0125         68.6670         43.5916         8.63071
            5605         88.0927         45.1950         101.513     486.791E-03
            5606         60.7010         41.8197         68.1259        -6.91856
            5607         64.1918         71.3300         45.3612        -8.37847
            5608         60.6275         67.3984         49.6754         2.12499
            5609         66.3968         75.4462         49.4140     959.232E-03
            5610         62.5629         53.7723         68.6630    -273.439E-03
            5611         64.8973         59.6675         68.9686        -1.82283
            5612         84.6821         96.6268         35.3370     192.243E-03
            5613         75.5588         86.7079         34.9805     330.215E-03
            5614         61.8127         69.8185         47.5022         1.44486
            5615         68.2675         78.1739         47.4697         1.50674
            5616         73.9855         53.2938         83.4344         6.29425
            5617         73.2432         49.5134         83.4912         5.03785
            5618         56.4830         39.2943         61.5225        -9.63942
            5619         68.5426         76.0264         47.7782        -9.44683
            5620         88.4457         44.2874         101.736         2.36257
            5621         57.7075         61.7305         39.9891         11.3859
            5622         85.5028         97.9585         59.3854         1.35941
            5623         66.3078         46.7367         74.9501         5.70965
            5624         93.6943         107.986         59.2825         1.27676
            5625         65.7808         45.0841         74.2748         6.49110
            5626         63.7028         69.6769         40.7436         11.2844
            5627         57.0536         41.2576         62.1117        -9.26718
            5628         75.0563         84.2181         47.7719        -9.69279
            5629         88.5851         44.5489         101.921         2.25269
            5630         66.3491         75.4745         49.1313    -162.245E-03
            5631         60.0281         66.5504         50.0094     735.359E-03
            5632         95.7921         109.437         68.6120    -480.930E-03
            5633         65.5331         46.1880         74.5574        -3.91943
            5634         64.1033         72.6584         41.9549        -6.27581
            5635         66.5979         74.9101         48.6223         5.82832
            5636         87.1113         46.3828         100.475    -848.275E-03
            5637         72.0828         82.0128         48.6972         5.54392
            5638         87.0926         46.3757         100.449    -973.158E-03
            5639         57.9294         39.9394         65.4354         5.54672
            5640         58.0699         40.9329         65.4617         5.50452
            5641         87.9004         99.3539         67.6246    -569.565E-03
            5642         65.4681         45.3999         74.5723        -4.06015
            5643         58.7072         65.8341         41.5965        -6.34063
            5644         74.0763         85.2059         36.1427     417.365E-03
            5645         83.1308         95.0853         36.1650     354.131E-03
            5646         72.6380         83.7317         37.6201     13.3716E-03
            5647         81.3061         93.3197         37.7627    -183.959E-03
            5648         73.7407         85.1188         42.7998         1.11486
            5649         66.5297         76.6958         42.1185     314.419E-03
            5650         64.8300         45.8555         73.0310         6.20605
            5651         86.1163         98.4872         61.0343     857.399E-03
            5652         88.5327         44.7093         101.936         1.37408
            5653         72.2962         81.3149         46.8378        -8.74570
            5654         59.9962         65.4645         41.7154         10.0770
            5655         58.7675         42.1552         64.7876        -8.37180
            5656         66.7113         73.9277         46.7309        -9.23807
            5657         88.5204         44.5158         101.900         1.49694
            5658         58.5656         40.5254         64.7157        -8.60479
            5659         66.2628         74.2457         42.8717         8.62938
            5660         94.9582         109.079         64.1750     429.292E-03
            5661         64.7046         44.3893         72.9797         6.57669
            5662         60.0926         55.9671         63.5064    -64.9480E-03
            5663         62.9818         62.8889         63.0739    -82.7323E-03
            5664         63.6025         53.3221         70.2233         2.24942
            5665         65.1412         59.8582         69.0497         2.92742
            5666         66.9135         77.1948         41.3923     329.428E-03
            5667         74.5037         86.0140         42.0116    -577.180E-03
            5668         72.6138         54.2409         81.4999         6.03025
            5669         70.8625         50.2069         80.6764         3.76811
            5670         88.3750         44.9657         100.829        -7.20325
            5671         66.2056         74.8510         50.1688        -2.50227
            5672         60.3524         66.2492         50.9454        -3.32225
            5673         81.9327         92.5834         49.2105        -9.58608
            5674         82.6701         47.4210         94.9308         5.01499
            5675         36.8986         33.2067         30.5348        -10.6522
            5676         70.9804         49.8696         81.1629         1.94745
            5677         81.5967         93.4147         53.0395         4.93934
            5678         51.6427         41.4529         48.9351        -13.9342
            5679         39.2592         35.3934         32.0559         11.4830
            5680         52.2880         50.6284         38.3748         14.6177
            5681         55.3682         55.2331         38.4996         14.8232
            5682         71.5747         47.6041         82.2050         2.03411
            5683         89.8539         103.303         52.8329         4.78774
            5684         75.0664         84.0987         49.6549        -9.53389
            5685         82.3449         46.0837         94.6354         4.55537
            5686         50.8574         38.6875         48.8132        -14.0888
            5687         74.6100         48.4064         85.6294        -3.46827
            5688         74.5600         51.2416         85.1828        -3.75425
            5689         63.0113         68.0013         56.3941     522.848E-03
            5690         58.6281         59.4620         57.7475     421.600E-03
            5691         84.4721         96.0859         50.5340        -8.26557
            5692         79.2548         48.6623         91.1419         3.72508
            5693         80.1442         91.4010         52.1676         6.20906
            5694         73.6559         49.7417         84.6156    -159.599E-03
            5695         41.4804         38.2303         32.6511        -12.1276
            5696         43.0934         37.6000         36.2559         12.8064
            5697         49.9298         41.3439         45.1118        -14.3025
            5698         49.0517         46.3540         36.8283         14.2384
            5699         51.8837         50.0606         37.7294         14.7321
            5700         73.6514         47.7069         84.8227     326.571E-03
            5701         88.3267         101.279         51.8406         5.97625
            5702         48.1868         36.9634         45.4563        -13.7795
            5703         77.0643         87.0023         50.8672        -8.31866
            5704         79.0261         47.0509         91.0106         3.19043
            5705         64.6861         71.7460         52.8190        -3.48867
            5706         59.3778         63.0652         53.9638        -3.63511
            5707         45.1987         35.9983         40.7668         13.5726
            5708         45.2434         40.0085         36.4427        -13.8592
            5709         66.6203         58.3080         72.2133         3.38115
            5710         65.3266         52.4790         72.9841         2.37907
            5711         77.0312         87.8757         32.0692    -666.748E-03
            5712         85.9494         97.5766         33.1180    -532.255E-03
            5713         62.6767         65.1960         59.8014     389.957E-03
            5714         59.2167         57.7301         60.4586         1.72122
            5715         47.8759         37.1281         44.5774         13.9228
            5716         47.6957         44.6946         36.1369        -13.9823
            5717         68.2415         75.9939         48.0763         8.64120
            5718         87.8261         45.3157         101.163        -1.84444
            5719         66.2550         46.5292         75.0199        -5.39704
            5720         93.9384         108.198         60.4126        -1.20811
            5721         57.1064         40.9148         62.7587         8.48954
            5722         63.0433         69.4478         40.3599        -10.4155
            5723         58.4045         63.1501         40.4894        -10.6562
            5724         86.1848         98.4205         61.8024        -1.19837
            5725         66.1714         45.1857         75.0522        -5.63778
            5726         56.5472         38.9635         62.5903         8.17761
            5727         73.9913         83.0820         47.4351         9.36304
            5728         87.7647         45.1513         101.081        -1.88456
            5729         76.5273         87.5467         33.3779     117.087E-03
            5730         85.3775         97.2229         34.4665     70.8952E-03
            5731         88.6135         43.4072         101.197         6.32561
            5732         89.0922         44.6059         101.591         7.27124
            5733         44.2663         36.6444         38.2927        -13.5840
            5734         42.9894         37.4770         35.2822         13.1783
            5735         65.8946         74.7716         43.4590         6.11338
            5736         95.8659         109.543         68.5675     283.250E-03
            5737         63.2926         43.9785         71.9603         4.40713
            5738         60.4353         42.6969         68.4180        -4.81720
            5739         70.5600         80.1104         47.1002        -6.21337
            5740         87.2682         46.2657         100.658     270.222E-03
            5741         60.3692         41.8418         68.4456        -4.92583
            5742         87.2634         46.2648         100.650     413.872E-03
            5743         64.1376         72.1403         46.5493        -5.79253
            5744         61.1382         68.6851         43.8267         6.04708
            5745         63.2868         44.7320         71.8565         4.28927
            5746         88.1939         99.5802         68.2529     204.800E-03
            5747         75.0702         85.8493         33.1899        -2.09745
            5748         83.9515         95.5597         34.0211        -1.80805
            5749         46.1781         39.2144         38.7798        -14.2770
            5750         44.5092         37.9217         37.3296         13.7249
            5751         58.8139         59.9520         57.3421         2.19753
            5752         63.0171         67.7126         56.7258         1.76967
            5753         58.9597         58.7618         58.9391         2.06950
            5754         62.7646         66.4555         58.1773         1.24746
            5755         90.3678         43.9427         102.963        -7.26868
            5756         90.2080         42.7000         102.862        -6.47464
            5757         88.7326         44.4994         101.463        -6.15086
            5758         88.5483         43.4219         101.229        -5.87657
            5759         38.1582         29.3729         36.0695        -10.8280
            5760         44.3174         33.9897         41.6883        -12.7513
            5761         44.6470         42.0092         33.8149         12.9830
            5762         38.2625         36.4141         29.0972         10.8157
            5763         80.2530         91.5117         52.5949        -6.13676
            5764         73.7694         47.7001         84.9661    -306.001E-03
            5765         84.2817         95.8267         50.4579         8.36370
            5766         78.8593         47.0668         90.8100        -3.22397
            5767         48.7397         39.9992         44.4170         13.8972
            5768         50.6998         49.7204         36.0825        -14.0290
            5769         41.8365         36.5986         35.2012        -12.3831
            5770         79.8000         48.5304         91.7046        -4.22559
            5771         77.1410         87.1095         51.0471         8.23697
            5772         73.9574         49.6424         84.9980     239.197E-03
            5773         88.1229         101.000         52.1825        -6.11156
            5774         92.7616         41.5655         106.270    -562.487E-03
            5775         93.6829         41.0007         107.191    -363.572E-03
            5776         82.5399         47.4794         94.7762        -5.03129
            5777         75.0982         84.1628         49.8651         9.42732
            5778         50.2670         39.2579         49.0162         13.0035
            5779         81.5195         93.3148         52.9428        -5.00655
            5780         50.8870         48.9539         37.5642        -14.3858
            5781         71.0581         47.5781         81.5311        -2.40464
            5782         71.2054         49.7388         81.4711        -1.91394
            5783         89.5905         102.960         52.4827        -4.99602
            5784         54.9071         55.1156         37.8482        -14.4983
            5785         82.0065         92.7165         49.4493         9.45601
            5786         81.8861         46.2016         94.1010        -4.59556
            5787         51.1880         38.2946         50.1460         13.6557
            5788         71.5966         49.9033         81.6325        -3.89907
            5789         70.7359         54.5867         79.4322        -4.09587
            5790         84.1749         95.9650         34.7143    -894.778E-03
            5791         75.2701         86.2471         34.0191        -1.12174
            5792         68.5587         47.6824         78.0287        -4.42714
            5793         93.4474         107.558         60.4189        -1.97680
            5794         59.9633         65.5196         38.3830        -10.7139
            5795         86.8109         45.5256         99.9565        -2.75836
            5796         76.9645         86.9196         49.5552         8.56595
            5797         53.7638         37.1061         58.6833         9.08222
            5798         70.8994         79.2126         49.7935         8.50419
            5799         86.8947         45.8521         100.066        -2.78899
            5800         54.3995         39.2756         58.8228         9.43234
            5801         85.4178         97.6060         60.5765        -2.03198
            5802         68.4737         46.3101         78.0534        -4.70315
            5803         54.8178         59.3152         37.8914        -9.97467
            5804         67.3350         56.8195         74.2080        -2.24947
            5805         66.5862         51.6320         75.0939        -1.41609
            5806         88.5976         44.6971         102.038     472.450E-03
            5807         70.1786         78.6566         45.3112        -9.11215
            5808         63.0340         44.7996         70.6267         6.88470
            5809         86.4331         98.7650         61.8118     318.044E-03
            5810         60.7767         43.3788         67.6156        -7.60059
            5811         62.2263         68.3298         43.4080         9.74595
            5812         68.3152         76.3881         44.0646         9.24034
            5813         94.7251         108.955         62.8062     103.799E-03
            5814         62.8605         43.2677         70.5962         7.07256
            5815         64.5305         71.2653         45.1749        -9.38199
            5816         60.6489         41.8630         67.6319        -7.80969
            5817         88.5792         44.6492         102.012     590.917E-03
            5818         60.7611         55.2166         64.9568         1.85696
            5819         63.4917         61.4016         65.3930    -98.6555E-03
            5820         63.5010         72.4746         45.5429         1.45492
            5821         71.1784         82.0714         44.5760     827.773E-03
            5822         82.0504         46.2654         93.7206         6.93439
            5823         82.2511         48.3922         93.7813         7.45634
            5824         84.6673         97.1316         57.4691         2.11195
            5825         67.6877         47.8673         76.6600         5.26280
            5826         57.1539         60.2812         39.6975         12.2456
            5827         55.2769         39.1048         58.7458        -11.1434
            5828         70.8786         78.5704         48.5172        -10.1417
            5829         87.9132         44.3577         101.060         3.20009
            5830         76.2655         85.3360         47.7329        -10.4738
            5831         87.7544         44.9718         100.883         3.55409
            5832         55.2951         41.0911         58.2632        -11.0840
            5833         92.1332         106.227         55.2276         2.64480
            5834         67.3369         46.0438         76.3377         5.82134
            5835         60.0945         63.4080         39.1897         13.4149
            5836         69.2297         79.3337         46.9271        -2.56039
            5837         39.1877         36.1391         30.6978         11.4989
            5838         39.5967         31.4407         36.1429        -11.6823
            5839         87.6351         45.7893         101.044     190.949E-03
            5840         69.1576         78.3992         45.8442        -6.55237
            5841         60.9807         43.0816         68.7609        -5.68280
            5842         62.7330         44.2815         70.9271         5.31293
            5843         87.6080         99.3765         66.0686     159.015E-03
            5844         62.7468         43.3322         71.0769         5.39969
            5845         95.8619         109.580         68.3414     122.207E-03
            5846         67.2827         76.3495         44.5455         6.17578
            5847         61.9345         69.1674         44.0330         7.26866
            5848         87.6314         45.7765         101.038     335.698E-03
            5849         60.9032         42.0375         68.7907        -5.82174
            5850         63.7464         71.3174         45.6055        -7.07180
            5851         76.7027         87.5668         32.3858    -901.562E-03
            5852         85.6181         97.2705         33.3813    -732.901E-03
            5853         60.3152         66.4439         50.6531         2.76793
            5854         66.1934         74.9153         50.0642         2.11477
            5855         61.3953         54.5657         66.3843         1.57018
            5856         63.8260         60.3633         66.7881     557.983E-03
            5857         62.6360         71.1674         46.4730         1.42549
            5858         69.2141         79.4075         46.7335         2.00083
            5859         75.4104         52.1482         85.4966         6.22152
            5860         75.8287         48.5290         86.6366         5.58015
            5861         69.2181         76.4770         47.6643        -10.2592
            5862         56.6211         39.9917         60.6200        -10.8954
            5863         88.8484         43.7726         102.082         2.92407
            5864         58.4987         61.6139         40.6279         12.6287
            5865         84.9996         97.4774         58.1679         1.79141
            5866         66.5040         47.1787         75.0441         5.93931
            5867         63.6885         68.6765         40.8491         12.6028
            5868         92.3451         106.521         54.9714         2.20517
            5869         66.4617         45.6610         75.0813         6.41128
            5870         56.7562         41.6750         60.8606        -10.2763
            5871         88.4724         44.5192         101.699         3.17473
            5872         83.8541         96.1602         56.3866        -3.02332
            5873         68.9285         46.6578         78.5804        -4.67974
            5874         54.3351         56.0452         38.0891        -12.8474
            5875         72.3179         80.5110         49.3557         9.75617
            5876         86.6465         45.5797         99.5933        -4.11195
            5877         54.4773         40.7260         56.8388         11.4505
            5878         91.9910         105.988         56.1137        -3.03225
            5879         69.0529         48.4958         78.5528        -4.29719
            5880         58.9486         62.3211         38.3973        -13.0337
            5881         78.7532         88.6487         49.0983         9.75249
            5882         86.5549         44.8760         99.4830        -3.89091
            5883         53.1518         37.8509         55.5874         11.6403
            5884         87.5683         43.9186         100.309         5.25809
            5885         88.9580         44.3489         101.732         6.02886
            5886         95.3411         109.310         65.9743    -345.798E-03
            5887         64.0137         45.1220         72.5557        -4.87473
            5888         66.4797         74.7591         43.2119        -8.03817
            5889         87.5084         45.9225         100.904    -566.329E-03
            5890         65.1666         73.0145         46.8575         6.86091
            5891         70.6331         79.9226         46.6079         7.16789
            5892         87.4914         45.9054         100.881    -697.162E-03
            5893         59.5984         41.1074         67.1936         6.03681
            5894         59.6764         42.1605         67.1538         5.92662
            5895         60.4640         67.6008         42.9110        -6.96393
            5896         63.9434         44.1542         72.5809        -5.03086
            5897         87.6179         99.3384         66.2630    -387.517E-03
            5898         59.7286         56.6351         62.2888        -1.61322
            5899         62.7822         63.4829         61.9866        -1.19415
            5900         66.5014         75.5664         49.3902        -1.29137
            5901         60.1936         66.7576         49.9888        -1.28409
            5902         80.7254         90.9797         48.9885        -9.93927
            5903         84.3176         46.6930         96.7373         5.41843
            5904         69.7277         49.9431         79.4249         2.94706
            5905         82.1031         94.1191         53.2836         4.41141
            5906         53.2785         42.2552         51.7084        -13.7148
            5907         56.4907         57.2017         38.5301         14.5898
            5908         70.6368         47.3718         80.9468         3.03734
            5909         90.4328         104.064         53.1736         4.27209
            5910         74.1289         82.6953         49.0602        -10.1115
            5911         83.9783         45.4665         96.3921         5.04432
            5912         51.8749         38.6639         51.1906        -13.5997
            5913         76.3543         47.7870         87.7430        -3.67553
            5914         72.8551         48.9176         83.5410        -2.73603
            5915         74.1548         51.8355         84.4785        -4.25727
            5916         76.2146         50.2502         87.3253        -3.91520
            5917         63.8448         52.6234         70.9683         1.29496
            5918         65.2521         57.6334         70.8276     754.742E-03
            5919         82.3465         93.0748         48.6620        -9.64788
            5920         80.4832         48.4138         92.3600         4.99283
            5921         80.3783         91.8778         51.2210         5.82058
            5922         70.5197         50.4664         80.4980         1.70124
            5923         40.3380         35.3716         34.0023        -11.8682
            5924         41.5526         36.7437         34.4922         12.3041
            5925         51.0753         42.0062         46.7664        -14.3939
            5926         51.6102         48.4348         39.0106         15.1144
            5927         52.8365         51.9597         37.4304         14.5570
            5928         88.8476         102.005         51.0466         5.47898
            5929         70.9149         47.8320         81.3712         1.99187
            5930         74.9544         83.8928         48.9889        -9.83308
            5931         50.2713         39.1820         46.8100        -14.5477
            5932         80.1841         46.6832         92.1854         4.30238
            5933         63.8859         69.8583         54.5127        -3.54758
            5934         65.3314         72.7489         51.9983        -4.27332
            5935         59.3837         61.2578         55.9349        -4.88669
            5936         60.0275         65.1618         51.9823        -3.75653
            5937         65.4068         58.9517         70.2390         1.81980
            5938         64.0925         52.9384         71.2113         1.17451
            5939         76.6988         87.6385         32.7867    -449.259E-03
            5940         85.6759         97.3905         33.6509    -340.117E-03
            5941         62.6977         64.7042         60.1681         2.40123
            5942         59.4033         57.7469         60.4304         3.25999
            5943         46.9057         37.3278         42.3581         14.0678
            5944         46.7185         41.9383         36.9727        -14.2289
            5945         49.3449         36.7275         48.3342         13.2289
            5946         48.9213         46.7990         36.3174        -13.9500
            5947         65.9175         73.4191         46.7154         8.21018
            5948         88.0318         45.2714         101.440    -882.290E-03
            5949         64.3624         45.3744         72.6996        -5.69054
            5950         94.7054         108.889         63.1271    -606.561E-03
            5951         59.3729         42.2228         66.1286         7.33746
            5952         64.9338         72.4030         41.8014        -9.19037
            5953         86.8097         98.9416         63.3589    -567.187E-03
            5954         64.2828         44.1519         72.7336        -5.88903
            5955         59.6265         65.8832         41.7584        -8.60478
            5956         87.9970         45.2130         101.394    -985.090E-03
            5957         71.7811         80.8068         46.6464         8.49013
            5958         59.1011         40.7347         66.0055         7.42994
            5959         76.2171         87.3362         34.2696     36.1900E-03
            5960         85.1715         97.0888         34.9614     79.6789E-03
            5961         42.7584         34.4759         38.1496        -12.9041
            5962         42.1381         37.8924         33.5696         12.7135
            5963         65.6915         74.9404         43.8857         4.55205
            5964         96.4471         109.748         71.2601     206.507E-03
            5965         63.8088         44.8784         72.7369         3.22202
            5966         59.9286         42.4379         68.1348        -3.63359
            5967         70.3275         80.1925         47.8888        -4.55011
            5968         86.9347         46.7406         100.305     275.221E-03
            5969         59.8737         41.8028         68.1566        -3.70564
            5970         86.9305         46.7672         100.299     403.179E-03
            5971         64.4768         72.8157         47.6671        -4.23814
            5972         60.3993         68.2738         43.7260         4.47727
            5973         63.8077         45.4142         72.6626         3.11119
            5974         88.9162         99.7571         70.9111     194.380E-03
            5975         67.8783         78.3417         41.1423     411.765E-03
            5976         75.7045         87.3627         41.1322     406.705E-03
            5977         64.4118         59.4810         68.4107     36.6210E-03
            5978         62.6817         53.4259         68.9118         1.58163
            5979         67.9427         77.4123         48.3601         3.08275
            5980         62.2489         70.1498         47.7229         2.84002
            5981         72.6143         49.0273         83.2282         2.74957
            5982         73.7343         52.8626         83.4893         5.33215
            5983         65.3640         46.8808         73.3042         6.77489
            5984         84.9424         97.5636         57.2332         1.26293
            5985         89.1133         44.0880         102.425         2.72137
            5986         74.0614         82.6194         46.7454        -10.5842
            5987         59.7639         63.6894         41.3904         12.0878
            5988         58.0544         42.8135         62.3601        -10.3018
            5989         67.9627         74.4797         46.5826        -11.1238
            5990         57.9415         40.9537         62.3615        -10.7236
            5991         89.7339         43.2414         103.056         2.45508
            5992         93.1019         107.416         56.6412         1.37681
            5993         64.6666         44.8474         72.4291         7.58864
            5994         65.9385         71.5792         42.0737         12.4595
            5995         73.9749         85.1664         36.9002    -37.2064E-03
            5996         83.1427         95.1863         36.7603    -98.4579E-03
            5997         84.8946         96.8638         35.3887     92.9850E-03
            5998         76.0482         87.1933         34.5825     156.781E-03
            5999         84.7335         96.3749         33.7528        -1.33159
            6000         75.8569         86.6876         32.8231        -1.58444
            6001         55.4881         40.4299         57.2185        -12.6981
            6002         71.4890         78.9302         48.0737        -11.0165
            6003         87.0495         44.3169         99.8934         4.54234
            6004         56.8193         57.7723         40.1502         14.1223
            6005         83.3519         95.7143         54.6931         3.15589
            6006         67.3608         48.6811         76.0026         5.51144
            6007         60.9265         63.5831         40.1212         14.2659
            6008         91.6126         105.620         53.5910         2.91673
            6009         67.1571         46.8384         75.9787         5.83653
            6010         55.4342         42.8586         56.1627        -12.7658
            6011         88.7790         44.2748         101.791         4.71940
            6012         77.9010         87.1199         47.7905        -10.9279
            6013         84.7473         96.2833         33.3313        -1.81676
            6014         75.9149         86.6232         32.2707        -2.12101
            6015         83.3358         45.6261         95.5351         5.62869
            6016         85.4561         46.3434         97.7367         6.63379
            6017         84.2061         96.2261         36.0268     29.1157E-03
            6018         75.0596         86.2514         35.7543     208.021E-03
            6019         65.7075         75.6928         42.1834     734.066E-03
            6020         74.6600         86.1100         42.6831         2.06437
            6021         62.6761         65.2184         59.7207        -1.03015
            6022         59.1249         58.0578         59.9691        -1.86432
            6023         70.1844         54.8701         78.6755         3.75168
            6024         69.0013         50.7361         78.3816         2.59054
            6025         91.0911         42.2096         104.253         3.99115
            6026         92.3061         42.2355         105.543         4.27619
            6027         64.6448         73.8917         45.0332         2.48697
            6028         72.8362         83.9726         43.8778         2.08109
            6029         59.2715         58.7649         58.9392        -4.06274
            6030         62.8294         66.1102         58.3978        -3.02050
            6031         60.3013         55.8831         63.3773         3.57560
            6032         61.6503         69.0276         48.6266         3.05399
            6033         59.0629         40.8740         66.9246         4.97728
            6034         87.1164         46.4321         100.488    -677.876E-03
            6035         70.4922         80.1551         47.3393         5.70923
            6036         65.8637         74.6952         43.3847        -6.24627
            6037         64.5341         45.6181         73.3949        -3.87145
            6038         95.8948         109.561         68.6670    -279.506E-03
            6039         59.7480         67.2133         42.7055        -5.73899
            6040         64.4716         44.8758         73.4113        -3.99660
            6041         88.2180         99.5291         68.5386    -370.961E-03
            6042         59.1389         41.7309         66.8976         4.91105
            6043         87.1287         46.4239         100.505    -545.510E-03
            6044         65.4537         73.6873         47.8410         5.50385
            6045         82.9484         94.4007         34.0447        -2.81337
            6046         74.1127         84.6686         33.1493        -3.25312
            6047         72.6700         83.8018         38.3145    -582.918E-03
            6048         81.0423         93.0990         38.4559    -770.034E-03
            6049         46.2642         43.2714         35.2843         13.5373
            6050         85.4855         97.4352         49.8208         7.88113
            6051         76.6263         47.5144         88.2522        -2.50189
            6052         78.4537         89.0314         50.9958        -7.48428
            6053         75.6935         47.6268         87.2217         1.59739
            6054         48.3128         45.4074         36.4985        -14.1122
            6055         46.4938         40.1613         39.4781        -13.8530
            6056         47.1308         39.4110         41.8023         13.7614
            6057         76.0853         49.5548         87.4845         2.23799
            6058         86.1703         98.3739         50.6685        -7.41752
            6059         78.3681         88.9168         50.8749         7.54415
            6060         76.9437         49.5348         88.3966        -3.23495
            6061         77.9064         50.0787         89.0258        -5.60462
            6062         77.9452         47.3648         89.5300        -4.35805
            6063         92.2963         42.2437         105.531        -4.29632
            6064         91.5763         41.9539         104.755        -3.97651
            6065         64.7469         74.3652         43.7929    -522.212E-03
            6066         73.0789         84.3618         43.1185    -810.661E-03
            6067         54.6113         39.2010         56.9479         12.0419
            6068         88.0845         43.9577         101.123        -3.90802
            6069         77.2334         86.3926         47.8163         10.7377
            6070         83.8120         96.2985         55.1650        -2.59274
            6071         55.8459         57.2233         39.2966        -13.5243
            6072         67.2978         46.3335         76.2236        -5.88396
            6073         61.4554         64.9610         39.9891        -13.6068
            6074         55.6609         42.0197         57.8536         11.7818
            6075         92.0378         106.123         54.8060        -2.66398
            6076         67.4658         48.4613         76.2002        -5.45963
            6077         88.1149         44.6685         101.173        -4.17121
            6078         70.9967         78.4157         48.0879         10.7998
            6079         63.0450         62.1850         63.8036        -1.21379
            6080         60.6199         55.3750         64.7328    -934.446E-03
            6081         62.7684         63.1881         62.0174        -2.56534
            6082         60.2369         55.9076         63.5509        -2.38675
            6083         70.3764         79.1225         45.6984         8.56147
            6084         94.8412         109.022         63.4626    -318.871E-03
            6085         60.9233         41.9943         68.5943         6.41636
            6086         62.7521         44.3263         70.7782        -5.79602
            6087         87.7617         45.6027         101.172    -412.140E-03
            6088         67.9577         75.9497         43.8224        -9.26979
            6089         87.7750         45.6133         101.189    -281.512E-03
            6090         62.6732         43.1811         70.8114        -5.96619
            6091         61.8297         68.7490         43.6747        -7.99165
            6092         64.0117         71.3400         45.4570         7.84559
            6093         87.3872         99.2766         65.2752    -211.468E-03
            6094         60.7952         43.0051         68.3654         6.13323
            6095         65.6354         75.5334         43.0526    -606.628E-03
            6096         69.4592         79.4338         47.0954        -3.55153
            6097         63.0182         71.2522         47.0856        -3.28204
            6098         74.5277         85.7563         36.6532    -68.4892E-03
            6099         83.7460         95.7751         36.3226    -2.61306E-03
            6100         73.9670         85.2101         37.6223    -489.168E-03
            6101         83.3958         95.5164         37.1891    -452.394E-03
            6102         83.2856         94.5645         33.3432        -3.43324
            6103         74.5642         84.9076         32.1866        -3.97629
            6104         85.9972         45.9074         98.5282        -5.87062
            6105         86.2402         44.4730         98.7671        -5.68784
            6106         63.7077         68.9416         55.3024        -4.47262
            6107         71.2547         82.2213         39.7951        -1.32218
            6108         79.1807         91.1463         39.7924        -1.34524
            6109         80.8882         92.4078         52.8333        -5.61405
            6110         72.5120         47.6724         83.4077        -1.25547
            6111         79.0917         89.9585         51.2152        -7.00489
            6112         74.5348         47.7429         85.8727     759.960E-03
            6113         84.6966         96.3499         49.6387         8.34467
            6114         44.3118         41.4815         33.8663         12.9191
            6115         80.3381         46.6828         92.4302        -3.93611
            6116         83.2831         94.4714         50.0630         8.84034
            6117         49.2373         41.4293         43.4351         14.3852
            6118         49.9981         40.1300         47.0617         13.7012
            6119         52.6285         52.2207         36.8462        -14.2507
            6120         49.9479         47.5624         37.0136        -14.4114
            6121         43.7473         38.2518         36.6634        -13.0239
            6122         76.2266         85.8004         50.5397         8.77203
            6123         77.6618         87.8901         50.5864         8.03607
            6124         72.6726         49.7194         83.3890    -734.535E-03
            6125         88.8527         101.973         52.3912        -5.59498
            6126         86.9159         99.3864         50.8231        -6.94883
            6127         74.7957         49.8305         85.9546         1.44832
            6128         92.3505         41.6959         105.833     860.969E-03
            6129         92.8351         41.6366         106.308        -1.80267
            6130         92.0351         42.0585         105.514         1.41858
            6131         84.0699         46.8417         96.4045        -5.64258
            6132         74.1335         82.6860         48.9382         10.1712
            6133         53.6605         42.3343         52.5279         13.5623
            6134         69.6239         47.6436         79.6151        -3.27399
            6135         81.5317         93.4687         52.0231        -4.73109
            6136         53.0060         51.5397         38.7599        -14.7041
            6137         69.7660         50.0689         79.4747        -2.79168
            6138         89.7247         103.175         51.5028        -4.71374
            6139         57.0368         57.1819         39.4205        -15.0951
            6140         83.7604         45.5156         96.1193        -5.16850
            6141         53.2653         40.2398         52.1255         14.1232
            6142         80.8930         91.0908         48.4890         10.1956
            6143         83.5981         95.4483         35.3142    -784.967E-03
            6144         74.6998         85.7316         34.8159    -970.218E-03
            6145         79.6875         49.6176         90.8636         6.84177
            6146         89.0855         44.2151         102.527     937.915E-03
            6147         71.4442         79.8991         45.8286        -9.69227
            6148         63.7426         45.5294         71.2920         7.15366
            6149         85.8937         98.3864         60.0014     575.243E-03
            6150         59.9055         43.2177         65.9308        -8.62962
            6151         61.4042         66.6540         42.5756         10.8454
            6152         66.8223         74.3469         42.9191         9.77442
            6153         94.5495         108.807         62.1408     424.900E-03
            6154         63.5643         43.8248         71.2519         7.42904
            6155         65.7808         72.4235         45.7593        -10.0347
            6156         59.7319         41.4747         65.9148        -8.88400
            6157         89.0837         44.0787         102.510         1.02814
            6158         76.9994         87.7549         31.6910        -1.25279
            6159         85.8534         97.4094         32.8604        -1.05047
            6160         65.2843         73.1059         51.6405         2.94691
            6161         64.4400         70.8397         53.5967        -4.41312
            6162         59.4528         62.1409         54.9940        -4.69675
            6163         63.5244         68.9309         55.4079         3.32516
            6164         58.9774         61.0182         56.1186         3.16582
            6165         46.6693         40.3454         38.4365         14.4181
            6166         62.7497         63.3300         61.7522         2.84421
            6167         59.9205         56.6616         61.9980         4.04498
            6168         47.6319         39.0410         41.6219         14.5737
            6169         49.2586         44.3596         38.8221        -14.9846
            6170         49.6683         38.5158         46.4259         14.3322
            6171         49.3955         46.0667         37.5622        -14.5743
            6172         68.5164         79.0634         41.1811         1.08072
            6173         68.0097         78.5029         40.1141    -922.149E-03
            6174         77.4316         89.2521         40.6999         1.38836
            6175         75.9495         87.6116         40.5011    -433.880E-03
            6176         65.0933         58.5912         70.0634    -376.510E-03
            6177         63.0954         53.0055         69.6489         2.01983
            6178         85.0068         96.9994         35.4806     33.3667E-03
            6179         75.8771         87.0831         35.1927     95.9131E-03
            6180         70.8195         49.5093         81.0406         1.72473
            6181         71.6777         53.2023         81.2085         3.30970
            6182         64.1824         46.4873         71.4576         7.61565
            6183         84.9901         97.6719         57.0044     764.758E-03
            6184         89.7358         43.6482         103.122         2.18534
            6185         73.1559         81.1483         45.9858        -11.3096
            6186         61.5945         65.4941         42.5731         12.6520
            6187         59.5093         43.9762         64.2473        -10.0844
            6188         66.5045         72.6342         45.7527        -11.2105
            6189         59.4034         41.9756         64.3755        -10.4054
            6190         89.6974         43.4649         103.112         1.42564
            6191         93.4969         107.863         57.6446     816.182E-03
            6192         63.5166         44.3176         70.6579         8.34982
            6193         84.7463         96.5581         34.5579    -595.948E-03
            6194         75.7995         86.8065         33.8058    -803.266E-03
            6195         54.4214         40.2052         54.9635        -13.3425
            6196         72.3288         80.0611         48.2991        -10.8897
            6197         85.7772         44.6977         98.3286         5.36604
            6198         55.6097         56.2977         39.4257         14.0024
            6199         82.7298         95.0428         53.2239         3.50509
            6200         67.3631         49.7639         75.8803         5.15177
            6201         90.9938         104.839         52.5920         3.48266
            6202         67.7767         47.1308         76.9206         5.19324
            6203         59.3283         61.3218         39.4887         14.3950
            6204         55.1352         43.5421         54.4510        -13.5397
            6205         87.4347         45.2299         100.012         6.32837
            6206         84.6491         96.0732         32.9994        -2.36640
            6207         75.8775         86.4448         31.8074        -2.74304
            6208         84.5497         96.5743         35.8896     9.93069E-03
            6209         75.3795         86.5924         35.6591     136.264E-03
            6210         62.6959         64.4010         60.5000        -2.53639
            6211         59.5223         57.4220         60.9205        -3.29069
            6212         89.1886         43.1881         102.172         4.57654
            6213         89.5755         43.7699         102.719         4.19395
            6214         65.6678         75.3480         43.9944         2.18567
            6215         73.3067         84.4021         44.0125         3.04444
            6216         59.5104         59.4742         57.9245        -5.59961
            6217         63.1490         67.0780         57.1464        -4.31641
            6218         67.3256         76.2768         49.2906         3.86225
            6219         61.1741         67.9814         49.5322         3.39766
            6220         61.7216         42.6807         69.8923         5.35526
            6221         87.5400         45.9084         100.945    -116.893E-03
            6222         69.4273         78.5086         45.7064         7.20683
            6223         62.0050         43.7984         70.1236        -5.17393
            6224         95.4098         109.371         66.1522    -150.616E-03
            6225         62.6015         70.1104         44.7897        -6.77219
            6226         61.9337         42.8330         70.1521        -5.31131
            6227         87.7858         99.4561         66.6903    -27.8587E-03
            6228         61.7189         43.5927         69.7485         5.30976
            6229         87.5439         45.9059         100.949     25.2069E-03
            6230         62.9616         70.5105         45.0795         6.80311
            6231         67.9251         56.0089         75.4240        -2.03806
            6232         67.9457         51.0326         77.0280        -1.81786
            6233         47.6868         45.3916         35.4150         13.7472
            6234         86.1400         98.3352         49.7843         7.46936
            6235         75.4957         47.6629         86.9848        -1.57436
            6236         46.8445         43.3725         36.1872        -13.8233
            6237         47.5103         40.3036         41.3490        -14.0194
            6238         45.3021         38.5825         39.2131         13.4033
            6239         75.8292         49.6620         87.1669        -2.20323
            6240         91.3031         42.6664         104.623        -3.35381
            6241         91.6196         41.9940         104.958        -2.71747
            6242         74.5793         48.1694         85.7358        -2.64556
            6243         74.9065         50.7801         85.7458        -3.37710
            6244         85.4577         97.2511         34.1493    -205.227E-03
            6245         76.4274         87.4530         33.4846    -275.163E-03
            6246         69.2528         50.4794         78.8151        -2.19882
            6247         69.9770         54.2347         78.7998        -2.55927
            6248         60.7489         67.4347         49.7929        -2.67241
            6249         90.0178         103.563         51.7301         4.44353
            6250         70.8584         47.5487         81.2650         2.58687
            6251         53.1403         42.9243         50.3710        -14.2162
            6252         80.9336         91.0941         48.1981        -10.3217
            6253         52.2083         39.7371         50.3651        -14.2757
            6254         53.8438         52.6580         39.1835         14.7678
            6255         81.8780         93.9934         51.9429         4.22185
            6256         74.5279         47.7305         85.8687    -665.360E-03
            6257         87.3535         99.9840         50.5794         6.65064
            6258         49.5988         47.4253         36.5637         14.2363
            6259         48.7176         40.7530         43.2772        -14.1816
            6260         44.0192         40.3384         34.6554        -13.0058
            6261         85.3896         97.3158         50.5536        -7.85324
            6262         77.4080         49.2324         89.0123         3.01417
            6263         47.9813         37.9132         43.7371        -14.2604
            6264         77.8249         88.1078         50.9113        -7.90484
            6265         77.1458         47.4046         88.8790         2.45459
            6266         48.6045         44.4260         37.7169         14.6261
            6267         45.4855         39.6650         38.1753         13.5706
            6268         79.1082         89.9789         51.2428         6.99648
            6269         74.7220         49.7848         85.8814        -1.26902
            6270         65.7034         52.0733         73.7695         1.26294
            6271         66.9574         57.3402         73.3956         2.37990
            6272         73.3485         84.5425         37.9715    -558.641E-03
            6273         81.8362         93.9425         38.2594    -888.083E-03
            6274         71.9972         83.0613         39.3456        -1.21651
            6275         80.8166         92.8923         39.0757        -1.32496
            6276         37.1789         27.5233         36.5368        -9.92324
            6277         37.3764         36.7937         27.4757         9.98720
            6278         89.6189         43.8276         102.630        -5.02672
            6279         89.9418         42.8021         102.983        -4.46644
            6280         75.6117         87.1863         42.1719         2.16133
            6281         67.8196         78.1589         42.1032         1.70803
            6282         60.7787         55.1449         64.3859         4.40073
            6283         62.9060         62.1831         63.2279         2.84940
            6284         74.8309         48.3935         85.8503         3.74420
            6285         76.4065         51.0578         87.0810         5.60114
            6286         76.6869         87.6683         33.0370     9.11478E-03
            6287         69.1784         50.3189         78.8120         1.63924
            6288         70.0069         54.1507         78.8759         2.47915
            6289         69.2516         76.9712         48.3342         9.22621
            6290         87.7860         45.2131         101.065        -2.41240
            6291         56.2716         40.7040         61.0948         9.37910
            6292         93.5939         107.832         59.5454        -1.56009
            6293         66.8839         47.0339         75.7238        -5.43960
            6294         85.6239         97.9558         60.2649        -1.58601
            6295         66.7927         45.5233         75.7607        -5.71775
            6296         57.6978         61.7843         39.9831        -11.3051
            6297         62.4801         68.3689         39.9987        -11.0184
            6298         75.1102         84.3755         47.9397         9.46980
            6299         87.7093         44.9504         100.963        -2.39309
            6300         55.4525         38.6441         60.0511         9.93478
            6301         91.8377         42.3321         105.198         3.09682
            6302         91.6119         42.0407         105.003         2.16465
            6303         64.1642         72.8469         46.1895         3.72658
            6304         71.3974         82.0249         45.4274         3.26765
            6305         67.4155         51.1925         76.3232         1.42903
            6306         68.6028         55.7204         76.4000         2.68722
            6307         45.6117         35.7478         41.8848        -13.4843
            6308         45.8769         42.1838         35.4709         13.7031
            6309         76.2967         87.1880         32.8018        -1.06613
            6310         85.2064         96.8943         33.7327    -862.889E-03
            6311         91.1969         105.146         51.7884         2.86119
            6312         65.7339         46.4369         73.7279         7.12857
            6313         63.2258         66.0114         41.5974         14.7823
            6314         56.7790         44.4223         57.3840        -12.9964
            6315         70.8827         77.9403         47.6305        -11.4503
            6316         56.4159         41.8313         57.5385        -13.2806
            6317         76.3621         84.7350         46.7806        -11.9258
            6318         58.0814         58.2876         41.4593         14.9855
            6319         66.3991         49.0960         74.3865         6.24923
            6320         83.0940         95.6213         52.9133         2.64587
            6321         72.7387         52.2043         82.8258        -3.12953
            6322         71.2884         49.1198         81.7196        -1.32194
            6323         61.2444         68.6641         48.5895        -1.96069
            6324         67.1405         76.3568         49.0063        -2.43759
            6325         48.5602         41.7279         40.2752         15.0043
            6326         48.5649         41.7659         40.2278        -15.0115
            6327         47.8839         39.6334         41.3837        -14.7154
            6328         49.4280         43.1870         40.2638         15.2284
            6329         75.8525         87.1483         35.9928    -20.8216E-03
            6330         84.9247         97.0011         36.0395    -47.7293E-03
            6331         63.7103         52.3554         70.7155         2.55432
            6332         64.9489         57.4709         70.3540         1.73998
            6333         60.1197         62.2333         54.8295        -7.00816
            6334         64.8764         70.9840         53.3356        -6.09661
            6335         67.5469         47.8810         76.6322         4.71621
            6336         90.0206         103.605         50.7629         4.16632
            6337         58.9039         59.1851         40.6642         15.4912
            6338         54.4200         44.3866         51.3955        -14.5045
            6339         80.1966         89.9811         47.5239        -10.8418
            6340         53.8405         41.9096         51.1174        -14.9634
            6341         73.1087         81.0430         48.0257        -10.9937
            6342         54.6507         52.5506         40.4299         15.4398
            6343         80.9183         92.7928         50.5525         4.91973
            6344         68.2520         50.8280         77.1983         3.61071
            6345         61.3981         68.1301         49.5590        -4.01547
            6346         67.4063         76.5439         49.0223        -3.35711
            6347         51.3991         39.7621         48.4725         14.5903
            6348         51.9589         47.9675         39.9466        -15.4839
            6349         76.6115         47.6135         88.1291        -3.24985
            6350         75.5600         50.1444         86.6947        -2.95153
            6351         73.3542         48.2493         84.3667        -1.38273
            6352         73.9726         50.8027         84.7280        -2.35292
            6353         66.8710         77.0720         42.2671    -954.110E-03
            6354         74.8006         86.3111         42.3266        -1.55313
            6355         70.5082         80.8844         46.1216        -3.28767
            6356         64.1182         72.9524         45.9224        -3.18175
            6357         66.1200         56.9491         72.5132     136.877E-03
            6358         64.8126         52.0396         72.5724    -900.882E-03
            6359         71.7904         80.2077         45.9037         9.92088
            6360         60.4776         41.6863         67.6785         7.31844
            6361         94.1207         108.445         60.3164    -652.482E-03
            6362         63.0354         43.3764         71.0187        -6.55319
            6363         60.8177         66.8643         42.4681        -9.38099
            6364         88.6565         44.5441         102.085    -741.905E-03
            6365         63.1231         44.7010         70.9800        -6.35263
            6366         88.6910         44.5979         102.130    -662.589E-03
            6367         86.2911         98.6714         61.3212    -399.488E-03
            6368         64.6767         71.7299         45.5605         8.75949
            6369         60.3238         43.2196         66.8237         8.03559
            6370         83.6329         95.0685         33.5956        -2.68685
            6371         74.8379         85.3945         32.5669        -3.10525
            6372         84.3097         95.4091         32.2791        -3.78608
            6373         75.7226         85.8558         30.7780        -4.39285
            6374         88.0734         44.7128         100.953        -5.16719
            6375         88.1903         43.6783         101.070        -4.80200
            6376         80.2303         91.6222         51.4659        -6.02667
            6377         72.0397         47.8871         82.8245    -978.684E-03
            6378         79.8024         46.7880         91.7185        -4.40997
            6379         83.0555         94.0851         49.1460         9.21569
            6380         50.7112         41.7535         46.2779         14.3630
            6381         53.3491         51.9656         38.2952        -14.9356
            6382         76.0596         85.5458         49.7503         9.08862
            6383         72.1806         50.2512         82.7075    -394.643E-03
            6384         88.2111         101.145         50.9122        -6.00994
            6385         91.7795         42.2581         105.231        -1.91046
            6386         92.2723         41.7194         105.740        -1.17050
            6387         78.5632         50.3976         89.4000         6.96276
            6388         79.2458         47.3336         90.5458         6.50016
            6389         77.9068         88.5183         30.5395        -1.24260
            6390         86.6728         98.1033         32.0040        -1.05781
            6391         63.5871         60.6592         66.1146        -1.01673
            6392         62.3129         53.7954         68.2325        -1.13688
            6393         85.1497         97.1064         35.2025     11.9791E-03
            6394         76.0597         87.2332         34.7935     55.3608E-03
            6395         85.1239         96.8927         34.1651    -569.529E-03
            6396         76.1646         87.1385         33.3475    -757.546E-03
            6397         55.4636         41.6801         55.4163        -13.8776
            6398         71.2917         78.3550         47.5678        -11.6544
            6399         57.8342         57.0822         41.9071         15.5172
            6400         82.4901         94.9583         51.5386         2.90625
            6401         66.4238         49.8734         74.3174         6.00415
            6402         90.6319         104.436         50.6098         3.23373
            6403         66.1821         47.0640         74.4294         6.53853
            6404         61.6243         63.6338         41.0748         14.9990
            6405         56.4626         45.2263         55.4967        -13.8158
            6406         77.4588         86.2419         47.1387        -11.6256
            6407         85.5070         96.9824         32.7266        -1.70642
            6408         76.7137         87.3614         31.4740        -1.99793
            6409         64.9688         74.0716         45.3562         3.50111
            6410         72.5038         83.3794         44.6833         3.35372
            6411         92.8758         41.3326         106.292        -2.06458
            6412         84.9372         96.6809         49.6291        -8.21123
            6413         76.6956         49.7603         88.0402         3.46244
            6414         45.9748         41.7914         36.4640        -13.6799
            6415         50.2813         42.8877         43.6513        -14.7820
            6416         50.6797         48.0188         37.8155         14.7022
            6417         73.5702         47.9214         84.7010    -532.858E-03
            6418         86.6115         98.9944         49.4551         7.10924
            6419         73.8697         50.3123         84.7588        -1.38600
            6420         78.5629         89.3233         49.9584         7.30497
            6421         46.3303         41.3430         37.6569         13.8571
            6422         49.6282         44.5935         39.2094         15.1161
            6423         76.8880         86.8283         49.4173        -8.58977
            6424         76.6967         47.5378         88.2839         2.90528
            6425         47.9162         38.8349         42.4233        -14.5554
            6426         85.0764         96.9125         34.5429    -354.811E-03
            6427         75.8195         86.8871         34.1869    -541.097E-03
            6428         70.4979         49.5652         80.6490        -1.45728
            6429         70.8755         53.3689         80.2385        -2.52449
            6430         72.7201         83.8691         39.0148        -1.17990
            6431         81.5188         93.6426         38.8935        -1.38544
            6432         89.3566         43.9023         102.495        -4.15162
            6433         89.4220         43.1799         102.553        -3.78232
            6434         74.5873         85.9285         43.1656         2.91235
            6435         66.9309         76.9512         43.1564         2.36110
            6436         61.3237         54.5103         66.0246         3.10926
            6437         63.1794         61.0900         64.7802         2.62031
            6438         85.2993         97.1600         34.5842    -119.454E-03
            6439         76.2369         87.3359         34.1104    -132.382E-03
            6440         67.7007         50.7352         76.8647     546.623E-03
            6441         68.6653         54.9466         76.8914         1.67634
            6442         68.5241         75.6116         47.2695         10.2981
            6443         88.4774         44.6099         101.787        -2.47487
            6444         57.2179         41.8401         61.7020         9.96287
            6445         93.3189         107.613         57.8628        -1.47638
            6446         65.8375         46.9119         74.0748        -6.37089
            6447         85.2650         97.7578         58.6759        -1.49365
            6448         59.7585         63.9306         41.3888        -11.7888
            6449         65.7295         45.1358         74.1297        -6.67868
            6450         64.2958         70.1195         41.1136        -11.6868
            6451         57.9534         40.9099         62.4566         10.6339
            6452         74.4838         83.2166         47.0450         10.4008
            6453         88.3984         44.3200         101.683        -2.39553
            6454         90.0182         43.4725         103.255         3.67447
            6455         63.4152         71.6511         47.0183         3.90719
            6456         69.9878         79.9075         46.9923         4.46665
            6457         64.8093         68.3083         42.1765         14.5645
            6458         91.8359         105.958         52.7386         2.11915
            6459         64.8466         45.7742         72.3534         7.88895
            6460         57.2426         43.8798         59.2107        -12.1591
            6461         69.7043         76.2685         47.0891        -11.7733
            6462         57.5727         42.1517         59.9169        -12.5621
            6463         75.3557         83.6368         46.6745        -11.6699
            6464         59.6999         61.1846         41.9633         14.4582
            6465         65.8585         48.3224         73.6389         6.78254
            6466         83.7777         96.4275         54.0671         1.89191
            6467         75.8960         50.7436         86.7625         4.47977
            6468         75.3550         47.9400         86.6624         2.84886
            6469         74.6190         85.7641         35.7476    -401.596E-03
            6470         83.3699         95.3483         36.1887    -222.065E-03
            6471         77.3861         88.0075         30.9200        -1.67662
            6472         86.1591         97.6046         32.3013        -1.42823
            6473         60.1493         65.7394         51.3933         3.34458
            6474         65.9504         74.1590         50.8363         3.44181
            6475         63.4617         44.7991         72.3652        -2.92153
            6476         89.1430         99.8113         71.6930    -145.637E-03
            6477         60.7278         68.7350         44.2419        -3.95759
            6478         86.8769         46.8578         100.244    -311.428E-03
            6479         70.1377         80.0449         47.9757         4.10917
            6480         60.2263         42.2226         68.6214         3.31357
            6481         60.2673         42.7831         68.5879         3.25853
            6482         65.8423         75.1256         44.0586        -4.47653
            6483         86.8815         46.8283         100.249    -193.154E-03
            6484         64.1252         72.4813         47.5285         3.85014
            6485         96.5309         109.776         71.6220    -180.861E-03
            6486         63.5132         45.3100         72.3536        -2.84171
            6487         69.6026         53.5495         78.6433         1.08049
            6488         69.3123         49.8998         79.1268     721.378E-03
            6489         60.0347         56.3866         62.4756        -3.84299
            6490         62.7503         63.7313         60.7968        -4.25558
            6491         63.2661         67.4322         56.7516         4.53312
            6492         59.4270         60.1874         57.1087         5.31854
            6493         71.8925         51.8465         82.0022        -1.59646
            6494         72.1301         48.6763         82.8321        -1.17952
            6495         64.3022         73.6046         44.8145        -1.56613
            6496         71.6844         82.5815         44.6888        -2.02744
            6497         80.7499         46.5187         92.6452         5.26448
            6498         80.7974         48.8646         92.2925         6.64351
            6499         78.3523         90.2512         40.3292         1.53918
            6500         69.1966         79.8107         41.2568         1.73437
            6501         61.6658         68.4194         49.4381         4.46674
            6502         67.5454         76.3005         49.3778         4.83028
            6503         84.4743         96.5544         36.2858    -127.539E-03
            6504         75.3143         86.5907         36.3125    -79.5327E-03
            6505         78.4007         90.3065         40.1669        -1.33774
            6506         70.5068         81.3559         40.3631        -1.52994
            6507         80.4892         90.4182         47.7452         10.6535
            6508         54.2727         41.7336         52.4098         14.6548
            6509         58.1329         57.4557         41.0995        -15.8167
            6510         68.7363         50.8684         77.9299        -3.06482
            6511         89.1185         102.432         49.5630        -4.83601
            6512         80.8098         92.6830         50.2406        -4.91319
            6513         55.1228         52.5890         41.1379        -15.7480
            6514         68.6180         48.0724         78.2416        -3.51134
            6515         54.9185         44.7042         52.2071         14.4438
            6516         73.7467         82.0363         48.2330         10.6308
            6517         63.0969         53.3817         69.6329     25.8793E-03
            6518         64.3895         59.6185         68.2823     135.076E-03
            6519         60.4354         55.7282         63.3040         4.73413
            6520         62.7592         63.4413         61.0947         4.36962
            6521         79.7177         49.1773         91.1815         5.95801
            6522         79.4062         47.0234         91.0331         5.40976
            6523         77.0424         87.4838         30.5946        -2.74492
            6524         85.7249         97.0392         32.0989        -2.35627
            6525         78.4995         88.9694         29.7068        -1.54081
            6526         87.1556         98.4809         31.4353        -1.31763
            6527         75.2739         86.7744         42.5278        -2.45464
            6528         67.6828         77.9566         42.3677        -1.96136
            6529         60.0353         64.6689         52.5252         4.47288
            6530         65.7610         73.2045         51.6482         5.13002
            6531         82.0731         92.6619         48.1049         9.88553
            6532         55.2907         53.3772         40.3016        -15.6515
            6533         87.9282         100.809         49.4783        -6.01699
            6534         70.5198         51.1316         80.4263    -918.667E-03
            6535         79.8911         91.3090         50.2004        -6.02573
            6536         70.4794         48.3293         80.8202        -1.37893
            6537         52.5839         43.3944         48.2518         14.6925
            6538         75.1804         84.2485         48.7083         9.75353
            6539         69.9446         49.2606         80.0585    -27.0974E-03
            6540         70.0668         52.8390         79.4640    -745.115E-03
            6541         68.2544         53.8723         76.7517    -368.878E-03
            6542         68.2002         49.8842         77.6970    -787.610E-03
            6543         49.7799         40.8709         43.5511        -15.1755
            6544         50.5892         44.7712         40.6697         15.5093
            6545         90.6427         42.8148         104.105    -885.968E-03
            6546         90.5892         42.9988         104.060        -1.07005
            6547         75.6311         86.9464         36.3827    -103.013E-03
            6548         84.6617         96.7948         36.5422    -204.129E-03
            6549         64.6128         51.8900         72.2649         1.81212
            6550         65.7705         56.9057         71.9938     646.184E-03
            6551         60.1290         63.0038         54.1441        -6.47344
            6552         65.5805         72.0691         52.4021        -6.76830
            6553         88.7619         101.969         49.0812         5.05754
            6554         56.3269         55.0544         40.3480         15.6537
            6555         68.4478         48.2763         78.0141         3.39251
            6556         55.0476         46.1858         50.2670        -15.1872
            6557         80.9043         90.9806         47.4921        -10.5419
            6558         73.9443         82.3464         48.0366        -10.5666
            6559         53.0270         42.1011         48.9338        -15.3298
            6560         53.8275         50.2127         41.0491         15.8350
            6561         79.8845         91.4846         49.1720         5.55871
            6562         69.0065         51.3762         78.2858         2.29039
            6563         61.6170         67.4717         50.3908        -5.91464
            6564         67.4189         75.7629         49.8039        -5.71973
            6565         50.9694         41.3857         45.3363         15.3405
            6566         51.0947         46.1520         40.1853        -15.4966
            6567         71.6403         82.3643         45.1736        -3.08147
            6568         64.6943         73.9153         45.1025        -2.67143
            6569         64.9183         58.3957         69.8958    -414.081E-03
            6570         63.5305         52.9308         70.4252    -896.348E-03
            6571         88.8192         44.3236         101.700        -5.44972
            6572         89.3855         43.0320         102.258        -5.21533
            6573         79.7846         50.2624         90.5045         8.10700
            6574         80.0286         47.3181         91.1086         7.65688
            6575         63.6250         60.0318         66.5201        -2.05881
            6576         61.7953         54.0962         67.1324        -2.38762
            6577         85.2915         97.1039         34.3213    -293.667E-03
            6578         76.1972         87.2471         33.8000    -394.885E-03
            6579         62.8089         53.3199         69.1395        -1.65120
            6580         61.8333         54.0402         67.1938         2.52776
            6581         64.0704         59.4644         67.7893        -1.24612
            6582         85.1625         97.0526         34.8083    -146.833E-03
            6583         85.5390         97.3253         34.0776    -88.8099E-03
            6584         76.5919         87.5930         33.2202    -135.247E-03
            6585         76.0698         87.1976         34.4367    -187.684E-03
            6586         66.6904         72.9526         45.9063         11.0623
            6587         89.6339         43.7366         103.078        -1.23983
            6588         88.1984         44.7622         101.444        -2.90529
            6589         69.4928         76.7487         47.7235         10.3935
            6590         59.7481         43.7351         65.0125         9.55290
            6591         56.4576         41.6246         60.2497         10.5308
            6592         66.5541         47.4496         75.0241        -6.03389
            6593         93.3223         107.677         57.0710    -977.061E-03
            6594         64.0784         46.2405         71.4108        -7.53709
            6595         92.9723         107.216         57.0915        -1.85415
            6596         66.4294         45.5872         75.0654        -6.37402
            6597         84.9823         97.4544         58.1578        -1.82866
            6598         58.0915         61.2806         40.3374        -12.4379
            6599         85.4277         98.0417         58.3835    -603.376E-03
            6600         61.4324         65.7779         42.4667        -12.0715
            6601         63.9571         44.3298         71.4862        -7.83325
            6602         66.4110         72.2050         42.3397        -12.4008
            6603         63.0181         68.0700         40.4313        -12.3183
            6604         56.5382         39.7406         60.8355         10.5505
            6605         88.1149         44.3901         101.334        -2.79654
            6606         75.5210         84.4593         47.4749         10.4224
            6607         72.7781         80.7162         45.8288         11.2606
            6608         89.5946         43.5939         103.023        -1.19086
            6609         59.5173         41.7127         65.0074         9.79833
            6610         62.9755         71.3686         46.8075         2.71252
            6611         68.9985         78.8828         47.3818         3.20768
            6612         64.3792         68.5651         41.5310         13.7388
            6613         92.4293         106.661         54.4523         1.77252
            6614         64.6439         45.2554         72.1808         7.90110
            6615         57.6953         43.3349         60.9233        -11.2442
            6616         68.9671         75.4794         46.8886        -11.5456
            6617         57.7887         41.5348         61.2018        -11.7010
            6618         74.9839         83.4860         46.8504        -11.0916
            6619         59.8695         62.3202         41.7138         13.6641
            6620         65.4899         47.5314         73.2526         6.96532
            6621         84.3654         97.0249         55.5804         1.54735
            6622         73.2552         84.3420         36.6536    -483.560E-03
            6623         82.3692         94.3255         36.6130    -367.598E-03
            6624         60.0185         56.7365         61.5955        -5.28852
            6625         62.8267         62.4125         61.3549        -6.23850
            6626         71.3166         52.7033         81.0243         2.13967
            6627         70.8165         49.1754         81.1474     877.055E-03
            6628         62.9534         66.0519         58.2012         4.36667
            6629         59.5521         58.8539         58.6824         5.55989
            6630         49.7076         43.7546         40.1551        -15.2852
            6631         49.0676         41.0977         41.9017         15.1097
            6632         79.5260         91.5150         39.5696         1.27184
            6633         76.6965         88.3956         41.6416         2.27113
            6634         68.5151         78.9096         42.1491         2.38177
            6635         70.5977         81.4499         40.4477         1.67224
            6636         63.7070         68.8490         55.3648         4.65278
            6637         59.3794         61.2345         55.9582         4.88188
            6638         76.2080         85.8825         48.6188        -9.01056
            6639         50.8206         41.3585         45.0670        -15.3305
            6640         87.0538         99.6247         49.0062         6.68089
            6641         71.8848         48.1251         82.6259     494.042E-03
            6642         51.0069         46.4538         39.7601         15.3828
            6643         51.7284         44.8643         44.0400        -15.2678
            6644         48.0055         43.5470         38.1077         14.3232
            6645         45.8365         40.4271         37.8690        -13.7054
            6646         78.4235         89.2578         49.1261         7.18350
            6647         72.0381         50.8031         82.4418    -251.545E-03
            6648         83.9049         95.2457         48.9175        -8.84233
            6649         79.9724         91.9967         39.9127        -1.91613
            6650         77.7690         89.6032         40.8744        -1.91869
            6651         69.7615         80.4648         41.0201        -1.83593
            6652         71.4613         82.4210         40.2820        -1.90924
            6653         81.2285         91.4551         47.7359         10.3442
            6654         53.5013         41.4933         50.8930         14.8584
            6655         56.6423         55.0009         41.0310        -15.8793
            6656         88.2177         101.223         49.1083        -5.64146
            6657         69.2432         51.4192         78.6231        -1.98550
            6658         80.0845         91.6543         49.8933        -5.67473
            6659         53.5375         49.7498         40.9776        -15.8185
            6660         69.1602         48.4540         79.0412        -2.42865
            6661         54.3575         45.6800         49.2437         15.1941
            6662         74.3808         83.0245         48.2410         10.2863
            6663         60.2039         56.6379         61.2359         6.71051
            6664         62.8368         63.4701         60.4150         5.90421
            6665         85.7180         98.2888         59.2379    -242.504E-03
            6666         61.6475         66.9212         42.7372        -10.8860
            6667         63.2821         43.7318         70.7556        -7.74748
            6668         60.8689         44.1827         66.8929         8.82729
            6669         89.4473         43.8163         102.903    -527.102E-03
            6670         60.1689         41.8401         66.3739         8.96858
            6671         71.4628         79.1658         45.2086         11.1782
            6672         68.1318         75.0180         43.3621        -11.3564
            6673         65.6141         71.9288         45.4413         10.5685
            6674         89.4607         43.8784         102.924    -508.643E-03
            6675         63.3931         45.4744         70.6914        -7.48646
            6676         93.5825         107.964         57.7966    -557.100E-03
            6677         66.7097         74.8811         50.3945         5.06609
            6678         61.0581         66.4549         51.1444         5.62389
            6679         65.1272         68.0111         42.8732         15.2073
            6680         91.2501         105.238         51.2647         2.47572
            6681         64.9254         46.3463         72.3611         7.85007
            6682         57.9104         45.7164         58.6249        -12.9982
            6683         75.1306         83.0088         46.3117        -12.2970
            6684         69.1536         75.1880         46.6569        -12.3849
            6685         57.2767         42.6823         58.5514        -13.2876
            6686         59.4561         59.9343         42.3255         15.1460
            6687         83.1614         95.7746         52.5711         2.18383
            6688         65.2612         49.4170         72.3448         7.26348
            6689         84.1979         95.5333         32.9758        -2.91943
            6690         75.4691         85.9106         31.7391        -3.38221
            6691         71.0246         80.9408         46.6116         5.57424
            6692         63.9346         71.9877         47.1516         5.04863
            6693         61.1045         54.6902         65.2861         4.12232
            6694         63.0449         60.9182         64.2285         4.12395
            6695         68.5879         77.6173         48.5671         5.49962
            6696         62.5994         69.6739         48.7195         5.32655
            6697         84.0470         96.2113         37.1155    -468.373E-03
            6698         75.0141         86.3354         37.1379    -371.143E-03
            6699         76.9518         86.9833         49.0193        -8.49411
            6700         74.5670         48.0214         85.7981         2.08273
            6701         49.9762         46.0238         38.8212         14.8216
            6702         85.4675         97.4286         48.7946         7.86232
            6703         50.9029         44.5895         42.6137        -15.1336
            6704         48.9323         43.7791         39.6022         14.6421
            6705         50.2959         45.6600         39.8948        -14.9983
            6706         77.5501         87.9536         48.8503         7.92434
            6707         74.5907         50.7386         85.4276         2.94207
            6708         85.2608         97.1358         48.8985        -8.01600
            6709         81.4027         93.5413         50.3862        -4.11684
            6710         56.7546         54.3987         42.3078        -16.0563
            6711         66.5462         48.2760         75.0989        -5.27448
            6712         56.1868         46.3471         53.1397         14.6964
            6713         78.7478         87.8473         46.9180         11.6102
            6714         55.1974         43.2297         52.6124         15.1029
            6715         72.1851         79.5428         47.4237         11.6452
            6716         60.3569         60.4030         42.0606        -15.9784
            6717         89.8700         103.438         49.8660        -4.02524
            6718         66.5569         51.2179         74.4080        -5.19668
            6719         75.4540         86.7878         43.1684         3.83722
            6720         66.6438         76.3795         43.9662         3.29920
            6721         67.7550         54.7123         75.7881    -40.2318E-03
            6722         66.7830         50.5528         75.6551        -1.32417
            6723         89.6155         43.7219         102.894         3.20698
            6724         51.0624         43.4421         42.9963         15.6984
            6725         50.2239         43.6801         41.1610        -15.4722
            6726         73.9883         81.5322         45.9207        -12.4108
            6727         58.2952         45.0439         60.3607        -12.1771
            6728         64.8260         48.5125         71.7793         7.72146
            6729         83.1199         95.7982         52.0383         1.71384
            6730         63.9695         45.6975         70.8030         8.68501
            6731         91.8074         105.949         52.0707         1.71587
            6732         66.3562         70.4773         42.8034         14.3833
            6733         60.9978         62.7410         42.7623         14.5903
            6734         58.4683         43.0322         61.0173        -12.5083
            6735         67.6714         72.8493         45.9377        -13.0212
            6736         69.3128         78.6606         47.9154         5.47560
            6737         63.2325         70.7973         47.9470         5.21825
            6738         65.7892         47.7549         73.6818        -6.76631
            6739         92.6575         106.906         55.4639        -1.79216
            6740         89.1447         44.0649         102.457        -2.73102
            6741         69.0752         75.7433         47.0372         11.3224
            6742         64.0470         68.7316         41.1531        -13.0758
            6743         57.8637         42.8483         61.8983         10.5367
            6744         89.1110         43.6851         102.403        -2.55059
            6745         75.0573         83.5073         46.8048         11.2248
            6746         56.6735         40.4737         60.0103         11.5667
            6747         65.6143         45.5992         73.7117        -7.15842
            6748         84.7344         97.3537         56.7388        -1.48599
            6749         58.3174         60.7051         40.6748        -13.2984
            6750         61.7183         53.9561         66.7293         3.89633
            6751         63.3963         59.7432         65.9288         3.74307
            6752         58.8412         46.8755         59.6571        -12.9417
            6753         65.3721         67.7302         43.6180         15.6828
            6754         91.2447         105.255         50.6701         2.06253
            6755         64.1281         46.3984         70.9066         8.59859
            6756         82.5209         95.1307         50.7385         2.02011
            6757         64.4476         49.9178         70.6661         8.07252
            6758         60.6896         61.4010         43.1248         15.2895
            6759         58.0935         43.8088         59.2441        -13.4313
            6760         68.5788         74.0298         46.3257        -12.9878
            6761         71.1661         80.7835         46.8556         6.54085
            6762         64.5146         72.3628         47.2239         6.13501
            6763         92.6481         106.837         56.3827        -2.17889
            6764         67.0927         47.8537         75.7510        -5.72136
            6765         88.4726         44.5118         101.688        -3.26569
            6766         70.2312         77.6298         48.0241         10.4534
            6767         62.1423         66.6051         40.0476        -12.7669
            6768         55.8920         41.6131         58.9438         11.1165
            6769         55.1297         38.9202         58.7010         11.0053
            6770         88.4089         44.0434         101.599        -3.09194
            6771         76.3376         85.4318         47.7564         10.4574
            6772         66.9500         45.9198         75.7749        -6.09381
            6773         84.5733         97.0995         56.8888        -1.98899
            6774         56.5951         59.4662         39.3592        -12.3581
            6775         60.9225         54.8765         64.4237         5.32468
            6776         62.9546         60.7190         63.6163         5.54281
            6777         66.7423         55.4767         74.0495     722.051E-03
            6778         65.5722         51.3754         73.8003         1.33118
            6779         65.1719         74.3692         45.1590        -3.44976
            6780         72.7026         83.5019         44.8160        -3.95215
            6781         75.9373         87.1473         35.1791    -66.3703E-03
            6782         85.0886         97.0484         35.2474    -54.0170E-03
            6783         76.4987         88.1774         41.7242        -2.23767
            6784         69.0398         79.5617         41.7413        -2.24333
            6785         83.2667         94.3465         48.2996         9.23999
            6786         54.3863         51.4010         40.8954        -15.7633
            6787         71.4718         51.4957         81.5892     606.934E-03
            6788         86.8388         99.3437         48.7063        -6.78669
            6789         79.2497         90.4961         49.3101        -6.37322
            6790         71.8330         48.4283         82.5312     204.897E-03
            6791         52.9189         44.9075         46.7800         15.2330
            6792         75.1734         84.2795         48.3358         9.75311
            6793         67.2518         54.2237         75.1878        -1.45474
            6794         67.3421         49.9732         76.4906        -1.76066
            6795         75.7809         87.1364         36.6296    -110.160E-03
            6796         84.9260         97.1152         36.7753    -162.272E-03
            6797         60.5371         65.4156         51.9650        -5.30720
            6798         60.4997         62.8548         54.1757        -7.73912
            6799         65.4090         71.2120         52.8970        -7.65939
            6800         65.7999         72.9424         51.8234        -5.87341
            6801         90.2124         43.2323         103.692    -166.281E-03
            6802         90.2550         43.1837         103.734    -81.5457E-03
            6803         89.2916         102.684         49.1901         4.48406
            6804         69.9620         47.9817         80.1114         2.48244
            6805         88.5377         101.626         49.8794         5.54063
            6806         67.6001         48.4507         76.7722         4.00041
            6807         56.4477         47.8271         51.5758        -15.3359
            6808         52.1885         43.7609         46.7646        -14.9237
            6809         82.5188         93.2955         48.2195        -9.64091
            6810         79.5372         88.9936         47.0212        -11.2531
            6811         50.9006         40.4436         46.4532        -15.0113
            6812         74.8196         83.7026         48.4407        -9.99941
            6813         72.9743         80.8141         47.6305        -11.1787
            6814         55.4396         52.3410         41.8732         16.0446
            6815         52.3940         48.3027         40.3709         15.6226
            6816         80.3493         92.1448         49.3839         5.06757
            6817         67.8969         51.5951         76.5905         3.34301
            6818         70.1295         51.0917         79.9024         1.38325
            6819         79.8557         91.2888         49.9939         5.99357
            6820         62.2582         69.0580         49.1505        -5.33974
            6821         68.4582         77.4362         48.6770        -5.47939
            6822         52.4905         42.5850         47.0541         15.6149
            6823         52.2086         47.2468         41.0569        -15.7862
            6824         65.2501         57.4059         70.9206        -1.10473
            6825         63.7216         52.5194         70.7544        -1.99573
            6826         63.2315         60.6433         65.1096        -3.15217
            6827         60.9872         54.8058         64.7612        -4.86636
            6828         73.8126         84.9524         36.5278    -280.992E-03
            6829         72.7587         83.8065         36.8861    -580.728E-03
            6830         81.9485         93.8311         36.4138    -828.081E-03
            6831         82.8247         94.8478         36.8013     12.8118E-03
            6832         59.8512         57.8820         59.7350        -6.35499
            6833         62.8488         63.9300         60.0014        -5.73448
            6834         62.8145         66.1379         58.3916         2.81438
            6835         59.2096         58.8351         58.8794         3.72379
            6836         79.7026         91.6692         38.7944     409.935E-03
            6837         70.5872         81.4859         39.3630     477.436E-03
            6838         59.8805         57.9883         59.5327         6.61042
            6839         62.9355         64.7754         59.1053         5.77796
            6840         85.2254         97.9074         57.5541     10.9728E-03
            6841         64.7827         70.0820         44.5775        -11.8635
            6842         61.3124         43.1173         67.2824        -9.56078
            6843         61.3852         45.2160         67.0169         9.35651
            6844         61.8678         43.3767         68.1883         9.20551
            6845         70.4672         77.2592         44.4466         12.3158
            6846         69.9206         76.9635         44.2734        -11.7305
            6847         63.8565         68.6675         43.9668         12.2262
            6848         61.4271         45.1975         67.1189        -9.29402
            6849         93.1526         107.536         55.8572    -90.4849E-03
            6850         67.8916         76.4467         49.3480         5.84352
            6851         62.0682         68.6862         49.4216         5.37766
            6852         84.2453         96.4607         37.3787    -579.004E-03
            6853         75.4362         86.7890         36.9815    -288.561E-03
            6854         75.9958         85.6711         48.0525        -9.00915
            6855         78.2956         88.9856         49.5413        -7.43613
            6856         73.2254         48.1580         84.2441     955.218E-03
            6857         85.8756         98.0112         48.5231         7.52191
            6858         52.6416         48.4386         41.0770         15.5696
            6859         84.5576         96.1748         48.2439         8.42138
            6860         52.0951         46.1394         43.0483        -15.4717
            6861         49.3849         43.4145         40.9928         14.7572
            6862         51.8364         47.9157         40.1203        -15.3172
            6863         50.3878         44.7956         41.2172        -15.0529
            6864         77.7888         88.3639         48.7029         7.62723
            6865         76.9644         86.9711         49.2394         8.51336
            6866         72.8764         51.1235         83.3772         1.64577
            6867         85.9486         98.0919         49.0205        -7.54227
            6868         84.3603         95.8807         48.6682        -8.58860
            6869         81.9545         94.3211         50.6039        -3.28292
            6870         58.4806         57.3705         42.6935        -15.8663
            6871         80.0664         91.8353         48.7772        -5.07150
            6872         55.1170         51.5141         42.0750        -16.1383
            6873         67.7201         48.5149         76.9642        -3.77414
            6874         56.0500         47.1229         51.5488         15.1974
            6875         56.5472         45.8294         54.8616         14.1625
            6876         80.1173         89.8438         47.2571         10.9454
            6877         54.4241         43.0331         50.9660         15.3387
            6878         55.8581         43.2560         54.2522         14.7476
            6879         77.1525         85.5613         46.6515         12.2063
            6880         71.0864         77.8366         47.2291         12.1148
            6881         73.3714         81.4486         47.7535         10.9324
            6882         62.1230         63.4504         42.0780        -15.6271
            6883         59.2618         58.6743         41.9152        -16.0390
            6884         90.5624         104.351         50.3993        -3.24626
            6885         88.4883         101.658         47.9292        -4.86490
            6886         67.8395         51.6288         76.4979        -3.37798
            6887         71.1984         52.1539         81.0754         1.20666
            6888         72.1738         48.6020         82.9037         1.02687
            6889         59.4536         63.4263         53.5912         3.60131
            6890         64.9403         72.0562         52.5652         4.06990
            6891         59.8837         59.6522         57.4373         7.18537
            6892         77.0316         49.9359         88.2844         4.27012
            6893         78.4321         47.2379         90.0558         4.62496
            6894         80.0922         92.1136         40.3337        -2.47118
            6895         71.2432         82.0922         41.0793        -2.66099
            6896         77.5638         89.2643         41.8640         3.28602
            6897         69.2961         79.7333         42.2386         3.07027
            6898         61.8688         53.7172         66.9815        -4.23271
            6899         63.3609         59.7319         65.8082        -3.95097
            6900         75.5306         86.6388         34.6907    -483.824E-03
            6901         84.8009         96.6742         34.8697    -361.033E-03
            6902         62.9262         44.0671         69.7096        -8.76111
            6903         62.9627         67.4081         43.4182        -12.4105
            6904         84.9365         97.6544         56.6691    -380.299E-03
            6905         60.4090         42.5276         65.9835         9.88184
            6906         71.3895         78.6281         44.9601         11.9413
            6907         60.1897         44.8316         64.8720         10.2122
            6908         67.7998         73.5975         43.0790        -12.8443
            6909         65.7867         71.2978         45.1441         11.9052
            6910         93.0864         107.458         55.7090    -524.589E-03
            6911         63.0446         46.1710         69.5635        -8.47727
            6912         53.0128         48.0161         41.7116         15.9978
            6913         51.3561         41.4096         46.1395        -15.3238
            6914         74.7666         85.8045         43.9803         4.72849
            6915         66.0753         75.3707         44.9215         4.20425
            6916         84.8432         96.8119         35.4091    -105.977E-03
            6917         75.7855         86.9844         35.2051    -138.273E-03
            6918         77.4783         89.0782         42.3151         3.94732
            6919         67.3891         77.2552         43.6891         3.62369
            6920         50.9331         42.6332         43.6840        -15.6065
            6921         50.2865         43.5180         41.4484         15.4994
            6922         65.1676         51.4811         73.1652        -1.82450
            6923         66.4235         56.0022         73.3752    -602.111E-03
            6924         59.8652         62.2596         54.8696         6.13908
            6925         64.2933         69.7586         54.3927         5.86395
            6926         64.4679         57.9273         69.2401         2.39757
            6927         62.9191         52.4817         69.0598         4.45698
            6928         68.2709         49.5294         77.8199         1.43637
            6929         68.8774         53.1094         77.8185     468.119E-03
            6930         74.1130         85.3536         37.3440     353.235E-03
            6931         83.2667         95.3566         37.0311     324.332E-03
            6932         67.5220         55.3506         75.2240    -436.971E-03
            6933         67.2331         50.9353         76.2033    -356.134E-03
            6934         91.0324         42.5686         104.512     549.195E-03
            6935         90.2777         43.2382         103.732         1.34143
            6936         72.9149         84.0285         37.4331    -28.8616E-03
            6937         81.7015         93.6966         37.3179    -57.2481E-03
            6938         50.2883         41.8676         43.3405         15.4076
            6939         50.4719         45.0029         40.2440        -15.4236
            6940         75.6847         83.4063         46.2430        -12.7817
            6941         58.5911         47.7014         57.9897        -13.6733
            6942         90.0778         103.755         49.0200         3.26480
            6943         64.0987         65.7898         43.3052         15.8540
            6944         64.3624         47.1849         71.2296         8.23423
            6945         81.9343         94.3929         49.9860         2.76465
            6946         64.6914         50.9718         70.9242         7.56621
            6947         60.2887         59.8545         43.6798         15.9025
            6948         58.0768         44.8672         58.0028        -14.1179
            6949         69.4005         75.1615         46.6288        -12.8792
            6950         71.9694         82.1411         45.9867         5.62869
            6951         65.2912         73.6643         46.4186         5.80834
            6952         60.5289         55.6986         62.4370         6.84803
            6953         62.8265         62.0957         61.9387         5.80263
            6954         65.2672         74.7619         44.4652        -2.42309
            6955         72.7451         83.7287         44.3832        -3.03506
            6956         75.7908         87.0866         36.0472     32.8580E-03
            6957         84.8982         96.9232         35.7282    -4.07586E-03
            6958         55.5917         52.9548         41.4161        -15.9595
            6959         87.1855         99.8377         48.4688        -6.41694
            6960         68.8975         52.2009         78.0256        -1.52085
            6961         68.7635         48.9339         78.5096        -1.99320
            6962         79.4559         90.8510         49.0947        -6.03740
            6963         54.1057         46.0609         48.0013         15.4129
            6964         74.4749         83.2272         47.9231         10.1918
            6965         67.5012         53.4127         75.7429        -2.01179
            6966         67.3111         49.5019         76.4344        -2.69378
            6967         60.1295         61.4256         55.5435        -7.50917
            6968         64.7215         70.1192         53.8819        -7.00162
            6969         54.9120         52.7813         40.2562         15.6384
            6970         87.6801         100.514         48.5739         5.98980
            6971         59.6136         59.5779         41.5547         15.8451
            6972         66.4486         48.1898         74.9282         5.46812
            6973         69.3541         48.2924         79.3004         2.50938
            6974         53.7181         45.8353         47.3640        -15.4094
            6975         56.3715         46.3030         53.7240        -14.5498
            6976         81.6174         92.0079         47.5077        -10.1661
            6977         78.7525         87.8660         46.9871        -11.5803
            6978         72.1507         79.5297         47.6165        -11.5520
            6979         55.0155         42.8849         52.6340        -14.9941
            6980         74.6923         83.5672         47.9893        -10.0469
            6981         57.3772         54.7370         43.1225         16.2977
            6982         81.0648         93.1633         49.6710         4.17973
            6983         67.1953         51.0112         75.5055         4.60484
            6984         70.0058         51.6765         79.6521     824.687E-03
            6985         79.3288         90.6924         48.9137         6.09658
            6986         68.5312         78.0559         48.0614        -3.88925
            6987         62.8720         62.1839         62.9895        -3.43060
            6988         60.5174         55.5681         63.6863        -4.37890
            6989         74.9673         86.1569         35.8182    -212.089E-03
            6990         83.7414         95.7941         36.4861     100.201E-03
            6991         59.6790         58.6941         58.7909        -6.07993
            6992         60.1729         57.4396         59.7792        -7.78051
            6993         63.0952         66.2638         57.7714        -5.18747
            6994         62.8837         63.1997         60.2560        -6.77074
            6995         79.9391         91.9436         39.0696     893.506E-03
            6996         71.4384         82.4373         39.4426         1.05849
            6997         60.1413         57.2386         60.1962         7.36391
            6998         85.5381         98.1484         58.6451     333.549E-03
            6999         65.2397         71.2393         45.0708        -10.9638
            7000         60.5536         42.2992         66.5849        -9.31762
            7001         62.8121         45.6560         69.4616         8.31294
            7002         62.6911         43.5464         69.7216         8.34477
            7003         67.5292         74.5496         43.0856         10.9271
            7004         70.6353         78.4257         44.9424        -10.7016
            7005         62.6574         67.6140         43.2820         11.6537
            7006         60.6886         44.1947         66.5177        -9.03803
            7007         94.1279         108.475         60.1140     365.880E-03
            7008         72.4623         79.1948         45.2316        -13.1045
            7009         59.2182         46.1678         61.3803        -12.1323
            7010         63.5884         47.9160         69.6821         8.77191
            7011         83.5638         96.3262         52.7761     927.255E-03
            7012         92.1888         106.431         52.6810     977.570E-03
            7013         63.1243         45.6640         69.2074         9.48852
            7014         67.8340         72.5101         43.4341         14.2200
            7015         62.1538         64.1485         43.4701         14.6851
            7016         59.2812         43.8834         62.0600        -12.3890
            7017         66.6756         71.6203         45.4670        -12.9779
            7018         68.9978         75.1851         46.6844         12.0890
            7019         92.2649         106.479         53.7763        -1.75121
            7020         65.3393         48.4081         72.7287        -7.23591
            7021         58.0994         44.4627         60.5553         11.8900
            7022         63.5177         67.1855         41.2443        -14.0301
            7023         65.0937         45.9556         72.7323        -7.69719
            7024         84.2640         96.8948         55.5000        -1.75405
            7025         59.5338         61.3410         41.7109        -14.1461
            7026         57.6545         41.9653         60.3433         12.3013
            7027         74.7240         82.6988         46.3249         11.9667
            7028         62.0280         53.4488         67.2421         4.59032
            7029         63.8870         58.7099         67.6451         3.17630
            7030         77.8967         88.5473         48.6144        -7.49620
            7031         51.3246         45.6944         41.9705         15.3028
            7032         51.8234         46.9545         41.3418        -15.4161
            7033         77.1045         87.2395         48.9344         8.34271
            7034         85.7589         97.8738         48.1244        -7.51607
            7035         81.2524         93.4650         49.5207        -3.75935
            7036         66.1589         47.9816         74.4283        -5.95484
            7037         58.1558         56.0219         43.3225        -16.2667
            7038         82.5692         95.0505         51.6796        -2.85557
            7039         57.1408         56.8109         41.0852        -15.0962
            7040         66.1155         46.9119         74.3247        -6.66038
            7041         57.1682         47.7467         53.7989         14.8644
            7042         56.8132         45.0960         56.5779         13.4717
            7043         55.7799         42.1093         55.6000         14.0014
            7044         77.1621         85.7966         46.9889         11.7822
            7045         78.0064         86.7727         46.7891         11.9204
            7046         56.6283         44.5277         54.5614         15.0177
            7047         70.5144         77.0757         47.1377         12.1493
            7048         71.6328         78.6577         47.3022         11.9360
            7049         62.0334         62.5836         42.8789        -16.0867
            7050         60.9729         62.5386         40.9924        -15.1641
            7051         89.9501         103.576         49.1795        -3.57283
            7052         66.7387         50.4255         74.7900        -5.44977
            7053         66.3488         49.6461         74.2199        -6.15272
            7054         91.0906         105.014         51.5317        -2.92054
            7055         75.4622         84.7503         48.2989        -9.53070
            7056         87.8832         100.747         49.4817         6.06137
            7057         69.9887         48.2309         80.1631         2.03491
            7058         52.5538         45.1669         45.5249        -15.3357
            7059         79.1633         90.3080         49.5917         6.59516
            7060         70.8346         51.3210         80.8132     338.832E-03
            7061         83.3314         94.4434         48.0916        -9.19611
            7062         81.5827         48.2405         93.3695         6.18946
            7063         79.5109         46.8818         91.3428         4.57843
            7064         62.2450         53.0881         67.6137        -4.96534
            7065         63.9604         58.3261         67.9440        -3.44072
            7066         73.0808         83.8261         44.8414         4.55038
            7067         65.3840         74.3256         45.6059         4.49298
            7068         75.9173         87.3710         37.5141    -161.437E-03
            7069         85.0507         97.3511         37.4721    -232.687E-03
            7070         84.6964         96.6537         35.4059    -155.664E-03
            7071         75.4312         86.6305         35.4961    -175.684E-03
            7072         75.6053         86.8215         43.4813         4.57069
            7073         68.0079         77.9106         43.6461         4.10381
            7074         65.6939         50.8052         73.9924        -2.50574
            7075         66.7853         55.0845         74.2383        -1.15824
            7076         80.9298         93.0282         39.9392        -2.28964
            7077         71.7395         82.6911         40.7000        -2.43492
            7078         64.6105         57.0383         69.7946         3.20524
            7079         63.6100         51.7257         70.3359         4.53576
            7080         53.2433         45.0607         45.5179        -16.1614
            7081         51.5224         44.8382         42.3067         15.8239
            7082         83.7215         95.9077         37.5038    -675.679E-03
            7083         74.5921         85.9240         37.9550    -755.504E-03
            7084         52.2126         44.8416         43.6315        -16.0019
            7085         52.3687         44.4473         44.4187         16.0020
            7086         63.0653         66.9752         43.4888         13.0759
            7087         62.8458         46.6949         68.8639         8.99145
            7088         66.0802         71.5467         45.2758        -12.0706
            7089         60.4195         43.0510         65.4317        -10.5312
            7090         84.7074         97.4553         55.9286     329.157E-03
            7091         93.6588         108.048         58.0065     340.247E-03
            7092         60.4944         45.2462         65.1463        -10.2621
            7093         71.3711         78.6497         44.9684        -11.8695
            7094         68.1117         74.4174         43.2477         12.2374
            7095         62.4816         44.1258         68.7935         9.30742
            7096         66.3479         73.1870         51.5127        -7.35309
            7097         60.5540         64.5012         52.8116        -6.42209
            7098         69.3193         52.5030         78.5632     638.223E-03
            7099         69.1280         48.9414         79.0123         1.57619
            7100         66.6555         72.0592         45.5231         12.3617
            7101         60.5994         46.0135         64.7142         10.7213
            7102         84.1583         96.9341         54.3371    -578.396E-03
            7103         63.3906         44.7410         70.1517        -8.83200
            7104         62.6098         66.2414         43.2425        -13.2488
            7105         63.5201         47.0456         69.9646        -8.52437
            7106         92.5987         106.916         53.9113    -606.592E-03
            7107         68.2471         73.3121         43.4975        -13.9028
            7108         60.0736         43.1353         64.5946         10.9852
            7109         68.4208         53.8295         76.9956     184.397E-03
            7110         66.8964         50.1793         75.8349         1.96495
            7111         79.4531         91.3701         41.0993        -3.18375
            7112         71.3053         82.0435         41.7614        -3.44229
            7113         78.7091         90.5774         41.1144         2.85749
            7114         70.6772         81.4020         41.4843         2.88348
            7115         64.1855         68.7395         55.0003         7.07878
            7116         60.3042         61.4249         55.4352         8.07498
            7117         84.3917         96.6834         37.8853    -790.180E-03
            7118         75.4266         86.8421         37.7555    -552.023E-03
            7119         69.2177         79.9198         40.2335     459.161E-03
            7120         65.1002         71.5015         52.9284         6.01698
            7121         70.6344         80.7961         46.4376        -4.34889
            7122         63.7354         72.1355         46.7109        -3.92728
            7123         66.0294         51.6164         74.4034     256.089E-03
            7124         67.2259         56.4064         74.3222         1.42598
            7125         53.0897         44.0145         46.5081         15.9716
            7126         53.6359         47.7461         43.1602        -16.2793
            7127         89.4358         43.9010         102.868         1.37779
            7128         89.6498         43.6478         103.111     470.041E-03
            7129         71.8895         82.8717         37.4326    -654.377E-03
            7130         80.5453         92.4900         37.7858    -248.089E-03
            7131         60.1595         60.5616         56.2995        -7.98778
            7132         63.9973         68.2112         55.4434        -7.08933
            7133         69.6540         79.4260         47.3100        -4.56808
            7134         62.6042         70.2211         48.0734        -4.20304
            7135         55.6286         42.5046         54.6915        -14.3918
            7136         71.2535         78.1189         47.3087        -12.0014
            7137         57.8986         56.4090         42.5333         15.9212
            7138         81.7900         94.0821         50.5879         3.57976
            7139         66.4676         50.4893         74.3221         5.70006
            7140         90.0577         103.703         49.6081         3.63110
            7141         60.8991         61.6065         41.7615         15.7277
            7142         66.0700         47.6515         74.2553         6.30105
            7143         56.9988         46.7263         54.8419        -14.3810
            7144         77.9067         86.6715         46.8854        -11.8728
            7145         75.8379         85.2839         48.6949         9.30479
            7146         52.0812         45.4362         43.9951         15.3992
            7147         78.9199         89.9809         49.3461        -6.75667
            7148         86.4366         98.7746         48.9089        -7.15871
            7149         53.1300         49.7242         40.4531        -15.5493
            7150         83.9553         95.3374         47.9348         8.78456
            7151         70.3961         76.6140         46.9047         12.6413
            7152         57.9117         47.9325         55.6933         14.4224
            7153         81.8156         94.2479         49.7992        -2.86617
            7154         64.5435         47.8691         71.5494        -7.74816
            7155         59.7458         58.7847         43.6707        -16.0619
            7156         90.6387         104.475         49.8491        -2.78928
            7157         64.9951         51.1007         71.5188        -7.13683
            7158         63.4184         64.5535         43.3971        -16.0506
            7159         75.7901         83.5150         46.2419         12.8188
            7160         57.5448         44.2336         57.3525         14.1703
            7161         76.4812         86.4186         48.1704         8.63402
            7162         54.0185         48.3950         44.1913         15.9341
            7163         85.2526         97.2579         47.0951        -7.55725
            7164         52.8263         48.3534         41.5911        -15.6399
            7165         84.0435         95.5042         47.4575         8.61066
            7166         70.7869         80.7015         46.7014        -5.35126
            7167         64.4112         72.5959         46.8614        -5.31018
            7168         70.9616         77.5205         46.9854         12.3938
            7169         58.4625         49.8535         54.5271         15.0295
            7170         81.0188         93.2912         48.5244        -3.32053
            7171         65.1367         48.5258         72.6926        -6.61531
            7172         59.3194         57.4278         44.1801        -16.3923
            7173         89.5331         103.081         47.6489        -3.25362
            7174         65.3105         52.1549         71.9987        -6.23423
            7175         62.0800         61.7958         44.0955        -16.4895
            7176         77.5116         85.9951         46.4994         12.2395
            7177         57.3559         45.7069         54.9947         15.1636
            7178         59.8181         59.9911         57.1282        -6.89986
            7179         63.5004         67.2433         56.5623        -6.18551
            7180         60.3296         56.6622         60.6671         7.87604
            7181         71.8731         82.8961         40.0329         1.81866
            7182         80.0005         92.0264         39.9323         1.95363
            7183         60.2229         57.7086         59.2464         8.27462
            7184         62.9895         63.5738         59.4940         7.50046
            7185         72.4275         83.5433         38.9464         1.02398
            7186         80.6196         92.6666         38.8214     960.088E-03
            7187         66.5709         74.0199         51.0006        -6.49974
            7188         61.2769         66.2594         51.3744        -6.56401
            7189         67.1300         74.2714         50.7188        -7.84771
            7190         61.6928         65.7760         51.7383        -8.28252
            7191         73.8028         82.2861         47.3639        -10.4865
            7192         78.8157         90.1116         47.9947         6.14295
            7193         56.7847         53.8391         42.8421         16.2992
            7194         87.0244         99.6913         47.4083         6.15178
            7195         54.4858         47.5538         46.6442        -15.8089
            7196         81.1936         91.4331         46.9455        -10.3423
            7197         82.3674         94.5080         38.1510     947.315E-03
            7198         75.2132         86.4331         35.8692    -107.664E-03
            7199         84.2148         96.2228         35.9460    -63.8199E-03
            7200         90.5171         104.227         51.9254         3.90954
            7201         69.7717         47.4303         79.7928         3.47198
            7202         58.5051         59.4775         39.7322         14.9420
            7203         54.6767         43.8891         52.7956        -14.0602
            7204         80.0908         89.9595         48.1551        -10.5660
            7205         73.2029         81.2800         48.4672        -10.6861
            7206         53.2704         39.8690         52.6798        -13.8242
            7207         82.1508         94.4027         51.8952         3.77843
            7208         68.4867         50.1291         77.5993         3.90850
            7209         74.9608         82.2345         46.0231        -13.2057
            7210         59.3796         48.8061         58.8849        -13.5452
            7211         63.5727         47.9141         69.6044         8.86914
            7212         65.5740         67.5077         44.4002         16.0067
            7213         90.6386         104.493         49.3657         2.44348
            7214         81.8998         94.4158         49.5301         2.33971
            7215         63.7288         51.4128         68.7142         8.74125
            7216         61.3378         60.5956         45.0277         16.2428
            7217         58.6062         46.1682         57.9806        -14.3560
            7218         68.7998         74.0056         46.4363        -13.3766
            7219         71.3104         80.7014         46.9882         7.22446
            7220         65.0948         72.7276         47.2539         7.11241
            7221         60.7678         55.1262         63.3405         6.67172
            7222         62.8946         60.5004         62.9482         6.86398
            7223         72.4293         78.8041         45.2497        -13.5922
            7224         60.0116         47.2602         62.2487        -12.0396
            7225         62.7857         49.4830         67.2898         9.92064
            7226         83.3579         96.1385         52.0776     412.866E-03
            7227         62.2854         45.6906         67.4939         10.3318
            7228         91.9849         106.196         51.8805     726.479E-03
            7229         69.0720         73.6663         44.2703         14.6696
            7230         63.2186         65.4873         44.1051         14.7316
            7231         60.0163         44.7266         63.0387        -12.2081
            7232         66.1358         70.3619         45.2464        -13.6570
            7233         69.6862         75.8424         46.8194         12.4224
            7234         91.6017         105.670         52.2101        -2.30547
            7235         65.6797         49.4491         73.0904        -6.84746
            7236         57.0163         44.1699         58.2964         12.6010
            7237         63.4907         66.1246         41.9031        -14.9840
            7238         82.9877         95.5417         52.4470        -2.51137
            7239         57.1551         57.7341         40.5792        -14.4869
            7240         65.3977         46.7289         73.1297        -7.36175
            7241         56.2212         41.4364         57.5863         13.0874
            7242         75.7942         83.9042         46.5319         12.1636
            7243         62.2434         52.9516         67.4971         5.43429
            7244         63.7799         57.9155         67.5321         4.62785
            7245         82.6295         94.9254         53.0369        -3.57946
            7246         55.3848         54.9820         39.8301        -14.6965
            7247         67.8043         47.1233         76.9626        -5.17388
            7248         55.3863         43.4027         55.2812         13.2563
            7249         78.6183         87.9427         47.7215         11.0504
            7250         54.1642         40.5702         53.8015         13.8558
            7251         72.2418         79.8849         48.1599         11.0325
            7252         60.1051         61.8395         40.2308        -14.8081
            7253         90.9270         104.747         52.6658        -3.59236
            7254         68.0851         49.5317         77.0277        -4.62744
            7255         75.7482         87.2139         37.9095    -458.283E-03
            7256         84.8944         97.2027         37.6383    -450.098E-03
            7257         81.2839         93.4061         39.3278        -1.74613
            7258         72.1450         83.1763         40.3543        -2.20992
            7259         65.3655         55.9525         71.5851         2.76283
            7260         64.5591         51.2561         72.1006         3.54926
            7261         53.8469         45.1628         46.7271        -16.1938
            7262         53.5930         47.6028         43.2377         16.2779
            7263         83.3948         95.6046         37.9631    -949.277E-03
            7264         74.2991         85.6306         38.7693        -1.22986
            7265         64.1756         68.1145         44.1574         13.3767
            7266         62.7895         47.6193         68.2415         9.44515
            7267         65.5691         70.3019         44.9004        -12.8775
            7268         61.1518         43.9373         66.2160        -10.5492
            7269         83.9068         96.7021         53.5288     146.249E-03
            7270         92.6130         106.934         53.9015     511.019E-03
            7271         61.2323         46.3456         65.8242        -10.3169
            7272         71.1853         77.9219         44.7403        -12.6502
            7273         67.8499         73.2153         43.1709         13.4185
            7274         61.5942         44.0264         67.0723         10.1617
            7275         67.8482         53.2227         76.3089         1.73624
            7276         67.0868         49.5064         76.0941         2.97690
            7277         78.0527         89.8504         41.3951        -2.88312
            7278         80.3273         92.3451         40.7072        -2.99357
            7279         70.2195         80.7548         42.1654        -3.49210
            7280         71.5991         82.4513         41.3202        -3.04132
            7281         79.7601         91.7529         40.4266         2.45115
            7282         78.4513         90.1593         42.0176         4.02954
            7283         70.2220         80.6918         42.4135         3.80716
            7284         71.7860         82.7204         40.8952         2.64653
            7285         63.6983         67.1349         56.3144         7.29670
            7286         60.2630         60.2201         56.5031         8.46944
            7287         64.6608         70.1661         53.9043         6.69109
            7288         60.4612         62.7397         54.2856         7.70776
            7289         84.9577         97.0488         36.1169     53.2850E-03
            7290         75.8586         87.2554         36.9668     95.2398E-03
            7291         66.6710         75.9435         44.9218         4.87027
            7292         74.1671         84.9746         44.5089         5.20118
            7293         84.8124         96.9555         36.5282     163.992E-03
            7294         75.7257         87.0959         36.8378     169.893E-03
            7295         61.1385         54.3885         64.5292        -6.46638
            7296         63.0742         60.2360         64.4501        -5.11133
            7297         53.6543         45.4678         45.8996         16.2444
            7298         53.8996         47.0517         44.4824        -16.3869
            7299         72.8129         50.7552         83.4002        -1.00521
            7300         72.4530         48.2278         83.3141    -337.590E-03
            7301         55.0956         49.5142         44.1203        -16.5514
            7302         54.4534         45.1551         48.1378         16.1515
            7303         84.4986         96.4266         35.3212    -278.819E-03
            7304         75.2368         86.3854         35.2353    -379.873E-03
            7305         66.5426         50.8407         75.2829         1.00919
            7306         67.9873         54.5749         76.1587    -134.923E-03
            7307         66.5036         53.9296         74.0280        -2.97135
            7308         66.2862         50.0369         74.8872        -3.12002
            7309         84.3210         96.6561         38.3346        -1.05906
            7310         75.0947         86.5099         38.3886    -923.747E-03
            7311         72.8596         83.4939         45.0852        -4.79445
            7312         65.5897         74.6541         45.3770        -4.36951
            7313         84.6076         96.6207         35.7895    -35.5121E-03
            7314         65.8050         55.3612         72.5311        -2.58788
            7315         64.7123         51.0837         72.3481        -3.63761
            7316         58.7202         42.8761         61.7859         12.1291
            7317         73.4902         81.0550         45.7885         12.1887
            7318         66.7947         71.1732         42.9386        -14.2391
            7319         92.5524         106.841         54.1549        -1.18429
            7320         64.5415         48.1074         71.3951        -7.92990
            7321         62.2481         65.0405         43.2075        -13.9990
            7322         64.3177         45.6382         71.4541        -8.35200
            7323         83.8706         96.6230         53.6993        -1.04021
            7324         59.6322         45.8143         62.7141         11.5064
            7325         68.1005         73.8327         46.2114         12.4208
            7326         60.8557         43.9343         65.5855         10.8502
            7327         69.4010         75.2069         43.9323         13.3465
            7328         69.7093         75.3815         44.0974        -13.6206
            7329         63.8899         67.6694         44.0087        -13.4667
            7330         61.7115         44.7188         66.8346        -10.4950
            7331         83.6585         96.4486         52.8736    -353.605E-03
            7332         92.1293         106.375         52.1740    -103.141E-03
            7333         61.8151         47.3661         66.3518        -10.2927
            7334         61.8561         47.3853         66.4255         10.2641
            7335         65.0340         68.9958         44.6630         13.6110
            7336         62.5051         52.5949         68.0266        -5.50449
            7337         63.7398         57.7509         67.4388        -4.97514
            7338         75.7472         86.8449         43.7442         5.19655
            7339         68.5648         78.1936         44.2424         5.44623
            7340         64.5446         57.8467         69.4285        -2.28474
            7341         62.9217         52.6284         69.1319        -4.01987
            7342         67.0504         54.7927         74.7316         1.07244
            7343         65.9240         50.7463         74.3572         2.24705
            7344         75.2028         86.4689         36.3215     64.3174E-03
            7345         84.3774         96.4792         36.4813     196.911E-03
            7346         65.9442         74.7874         45.6730         5.33014
            7347         72.9421         83.3233         45.4369         5.75081
            7348         66.9685         76.1161         45.1012         5.47488
            7349         73.9332         84.4732         44.9730         5.96769
            7350         60.4406         61.1501         55.5510        -8.65576
            7351         64.5948         69.2410         54.3549        -7.90161
            7352         63.0124         52.1882         69.1410        -4.99404
            7353         64.1664         57.4536         68.6689        -3.92694
            7354         76.2685         86.2872         47.4877         8.44395
            7355         54.3442         49.8318         42.8907         15.9978
            7356         76.0462         85.9335         47.4762        -8.64605
            7357         84.1119         95.6906         46.7853        -8.29009
            7358         84.3198         95.9314         47.1676         8.30795
            7359         72.1167         82.2416         45.9941        -5.89662
            7360         65.3948         73.8729         46.2710        -5.66973
            7361         71.2964         78.2251         46.8903         12.0183
            7362         58.5199         51.2051         52.4355         15.6854
            7363         80.3156         92.3821         47.8394        -3.95947
            7364         59.1184         56.3490         44.9564        -16.6528
            7365         64.8967         49.5260         72.3934        -5.86814
            7366         88.6589         101.963         46.5723        -3.81545
            7367         65.2528         53.4224         71.7406        -5.47155
            7368         61.2932         59.9806         44.9283        -16.6880
            7369         77.8742         86.5837         46.3259         12.0086
            7370         56.9568         46.0388         53.4473         15.5835
            7371         59.4039         60.3556         56.9356        -5.18822
            7372         63.5847         68.0757         55.9824        -5.34552
            7373         60.3031         59.1238         57.4605         8.87727
            7374         63.4717         65.7709         57.2246         7.99795
            7375         66.9106         73.4316         51.1376        -8.65804
            7376         61.4976         64.5653         52.5701        -9.01598
            7377         72.5899         83.7085         38.2035     455.966E-03
            7378         74.2422         85.5382         38.0236     775.649E-03
            7379         81.7414         93.8242         38.0828     695.820E-03
            7380         83.2711         95.4537         37.8067     839.423E-03
            7381         73.6220         80.3144         45.6724        -13.5644
            7382         59.6229         47.9604         60.5384        -12.8224
            7383         63.4807         47.2894         69.4871         9.14801
            7384         91.2006         105.219         50.0720         1.60791
            7385         66.6209         69.6005         43.9685         15.5039
            7386         82.4104         95.0591         50.1688         1.56301
            7387         63.8555         50.3420         69.3269         8.69962
            7388         61.5563         61.6522         44.3593         15.8670
            7389         67.4527         71.7040         46.0584        -14.0190
            7390         58.7716         45.5446         59.1069        -13.8824
            7391         70.2237         79.4592         47.5869         6.69114
            7392         64.1585         71.1400         48.1662         7.34780
            7393         61.2390         54.0865         64.5155         7.11884
            7394         63.0924         59.1077         64.6680         6.51553
            7395         73.5278         81.8555         48.9703         10.2699
            7396         53.9412         41.7419         54.0863         12.9048
            7397         82.2623         94.3755         53.1211        -4.15645
            7398         53.5799         53.3278         38.4374        -14.1339
            7399         69.2505         47.3238         79.0616        -3.95184
            7400         90.4630         104.124         52.6890        -4.15728
            7401         69.4296         49.6002         79.0153        -3.46645
            7402         57.8567         58.9651         39.1554        -14.6762
            7403         80.1695         90.1687         48.5625         10.2835
            7404         72.5739         78.7398         45.3905        -13.9135
            7405         60.3212         49.0355         61.3458        -12.6356
            7406         63.0841         50.8579         67.3695         9.67295
            7407         82.7958         95.5325         50.7255     715.705E-03
            7408         62.5821         46.6012         67.7532         10.1936
            7409         67.8180         71.3798         44.3228         15.3129
            7410         62.9218         64.3555         44.4256         15.3071
            7411         59.6756         45.4897         61.5407        -12.9625
            7412         66.5954         70.4697         45.6638        -14.1621
            7413         71.5086         78.8530         47.9183         11.2252
            7414         68.9216         74.6911         46.4947         12.6809
            7415         64.9862         49.2187         71.8856        -7.55646
            7416         91.7645         105.892         52.0661        -1.83269
            7417         91.1877         105.100         52.5451        -3.19589
            7418         67.5072         49.2316         76.1609        -5.24444
            7419         58.7434         45.7181         60.7006         12.2636
            7420         55.5636         42.6942         56.6946         12.5270
            7421         61.2278         63.6464         40.4914        -14.5551
            7422         67.3087         46.8181         76.2115        -5.72771
            7423         82.8257         95.2396         52.8514        -3.15153
            7424         55.5808         56.1437         39.4555        -14.0896
            7425         64.6469         46.4984         71.8416        -8.09182
            7426         83.0857         95.7234         52.1900        -2.02325
            7427         58.4501         59.2676         41.3905        -14.6481
            7428         55.2556         40.1885         57.0048         12.6418
            7429         77.7820         86.8502         47.5394         11.1937
            7430         58.4943         43.5143         60.5555         12.8602
            7431         74.5834         82.1521         46.0457         12.5997
            7432         61.6922         53.4669         65.9885         6.34928
            7433         75.9922         87.5069         38.1491    -321.570E-03
            7434         85.2115         97.6107         38.0914    -332.166E-03
            7435         78.6148         90.4073         41.6214        -3.52747
            7436         69.6079         80.1329         41.9773        -2.92360
            7437         70.8638         81.4203         42.3278        -3.96311
            7438         79.5769         91.5227         40.9000         2.97428
            7439         71.4458         82.2559         41.4630         3.15540
            7440         81.7150         94.2016         49.1881        -2.41756
            7441         63.9300         47.7244         70.3526        -8.51411
            7442         61.4318         61.4097         44.3596        -15.9064
            7443         59.2994         48.7998         58.6441         13.6343
            7444         69.2062         74.6104         46.5767         13.2728
            7445         74.8643         82.1054         45.9963         13.2194
            7446         58.1460         44.9472         58.0920         14.1079
            7447         64.7150         66.3987         43.8861        -15.9921
            7448         90.7025         104.579         49.3844        -2.30343
            7449         64.3664         50.9162         70.2632        -7.98303
            7450         72.3050         83.3495         40.4188         2.31575
            7451         80.5149         92.5712         40.2818         2.55099
            7452         84.5965         96.7773         36.9054     328.844E-03
            7453         75.4962         86.8419         36.8345     232.123E-03
            7454         60.3446         56.2667         61.5983        -7.00264
            7455         62.9050         60.7633         63.0833        -6.28494
            7456         56.5438         52.1715         44.1344        -16.6338
            7457         55.1667         48.7715         45.1552        -16.6133
            7458         54.8761         46.5026         47.3602         16.4142
            7459         55.4703         44.9654         50.9076         15.8384
            7460         65.6157         54.6665         72.3054        -3.72415
            7461         65.1159         50.4295         72.9641        -4.19241
            7462         75.4600         86.9231         38.4145    -820.537E-03
            7463         71.2140         77.6749         44.7180         13.0614
            7464         59.7686         43.7754         63.2986         11.8351
            7465         68.6275         73.2088         43.9796        -14.5566
            7466         92.0844         106.316         52.1328    -631.876E-03
            7467         62.9236         47.9813         68.3304        -9.42878
            7468         63.4524         66.4060         43.9529        -14.1814
            7469         62.7668         45.2865         68.6741        -9.70702
            7470         83.4210         96.1851         52.3614    -847.899E-03
            7471         60.9695         47.2911         64.5098         11.1065
            7472         66.3820         70.9073         45.3351         13.3921
            7473         62.2480         52.5463         67.2047        -6.54689
            7474         63.4165         58.0082         66.2903        -5.99099
            7475         74.1146         84.8939         44.5713        -5.26740
            7476         66.4884         75.7123         45.0175        -4.83616
            7477         60.2776         63.8581         53.3660         6.20375
            7478         64.1821         67.7153         55.3509         8.53159
            7479         63.4164         57.7762         66.3350         6.21275
            7480         62.4356         52.3979         67.6952         6.24773
            7481         78.8125         90.2568         47.3607         5.67787
            7482         80.1905         90.0404         46.5010        -10.7684
            7483         56.7279         49.8295         49.0948        -16.0327
            7484         73.0203         81.0662         47.1360        -10.9478
            7485         57.7022         54.6706         43.8197         16.4940
            7486         87.6904         100.610         47.3405         5.44964
            7487         70.0811         76.1503         46.8382        -12.7204
            7488         56.2283         42.8185         55.7811        -14.2024
            7489         59.2352         57.8946         43.5638         16.1383
            7490         81.2975         93.6434         48.8678         3.07042
            7491         65.4640         51.2198         72.4147         6.51268
            7492         62.7908         63.7635         43.0319         16.0106
            7493         64.7871         48.0655         72.0124         7.36213
            7494         58.3641         48.6363         56.0500        -14.4376
            7495         76.4464         84.4769         46.3995        -12.5761
            7496         72.6299         83.7158         40.3921        -2.35916
            7497         81.6438         93.8005         39.5042        -2.00937
            7498         54.8564         48.5272         44.7620         16.5618
            7499         54.7683         46.2131         47.4893        -16.3636
            7500         75.2221         85.8322         44.6355         6.58361
            7501         68.4751         77.7980         44.7504         6.19711
            7502         64.0281         51.2473         71.0716         4.63224
            7503         64.6036         56.4116         69.9088         3.99073
            7504         77.3738         88.7163         43.1270         5.23610
            7505         69.7194         79.6726         43.7051         5.32383
            7506         70.6956         81.0205         43.0131         4.77377
            7507         78.3730         89.9710         42.4499         4.64818
            7508         63.6004         51.8073         70.3403        -4.37407
            7509         64.8765         56.1177         70.5641        -3.66821
            7510         90.9332         104.720         53.4702         3.78262
            7511         57.8099         59.2438         38.8623         14.4249
            7512         69.1640         47.1714         78.9267         4.17049
            7513         53.7783         42.0052         53.3096        -13.2291
            7514         79.0887         88.6275         47.9997        -10.8059
            7515         53.2288         39.2004         53.6015        -13.2251
            7516         73.0884         81.2397         48.8287        -10.4020
            7517         68.4722         49.5318         77.6153         4.29460
            7518         82.4767         94.6561         53.3300         3.93905
            7519         73.9746         85.2717         39.1631        -1.49910
            7520         83.0619         95.2923         38.5010        -1.31519
            7521         59.9293         59.1349         57.9734        -7.34651
            7522         63.4440         66.4219         57.0489        -7.02359
            7523         81.4835         91.9354         46.5796        -10.0018
            7524         78.1940         89.2197         47.7567         6.69020
            7525         54.9184         48.8394         45.7398        -16.0471
            7526         86.3410         98.7959         46.8904         6.53202
            7527         57.3870         53.7092         44.4913         16.5197
            7528         74.3888         83.3276         47.2413        -9.91583
            7529         65.1320         70.5816         53.3567         7.73472
            7530         61.0247         63.2477         53.6364         8.93031
            7531         64.1751         71.7872         47.5798        -6.24038
            7532         71.0867         80.7671         46.8308        -6.30500
            7533         79.6084         89.1324         46.6251         11.1776
            7534         60.1825         58.6321         44.0743        -16.5915
            7535         87.7508         100.704         47.1577        -5.29364
            7536         79.8805         91.7026         48.0371        -4.79900
            7537         72.7485         80.5836         47.1539         11.1799
            7538         72.8838         84.0254         40.0288         2.07496
            7539         81.4353         93.5771         39.7541         2.21614
            7540         60.2873         58.5076         58.1240        -8.82638
            7541         63.3763         65.5332         57.5246        -7.80279
            7542         75.1612         86.4832         36.9631     300.976E-03
            7543         84.3288         96.5394         37.2872     527.963E-03
            7544         69.6730         79.9755         42.8154        -4.05253
            7545         77.9082         89.5502         42.1981        -4.02573
            7546         70.3661         80.6803         42.9521        -4.56722
            7547         78.7302         90.4114         42.2042        -4.42643
            7548         72.1656         83.0750         41.3917         3.25336
            7549         80.3591         92.3402         41.1330         3.52039
            7550         64.5959         50.6711         72.0476         4.65269
            7551         65.1553         55.5616         71.2515         3.66027
            7552         54.6506         45.2761         48.4590        -16.1505
            7553         55.6020         50.2957         44.2887         16.6129
            7554         63.8437         50.6598         70.5155         6.04069
            7555         64.7377         55.3908         70.3789         4.76024
            7556         55.9863         48.2960         47.6815        -16.6459
            7557         55.8962         49.3197         46.1259         16.7259
            7558         73.2727         84.4783         39.6330        -1.79425
            7559         82.7071         94.9460         39.1120        -1.77896
            7560         64.4614         68.2863         54.7951        -8.78446
            7561         60.6029         60.7615         55.6789        -9.37627
            7562         73.3704         84.5491         40.4379        -2.47865
            7563         82.2244         94.4390         39.8322        -2.39635
            7564         61.8271         67.4177         50.5014         6.62668
            7565         68.3697         76.8409         49.1257         6.61850
            7566         64.6487         68.2112         54.5218         9.54041
            7567         60.6586         60.6677         55.6876         9.59568
            7568         73.1429         84.3358         38.6198     983.304E-03
            7569         81.3489         93.4478         38.7032         1.14530
            7570         55.3675         50.6841         44.0460         16.2179
            7571         53.7252         48.5360         43.3139        -15.8833
            7572         77.3985         87.8904         48.1108         7.73801
            7573         75.5794         85.1779         47.4990        -9.06794
            7574         77.3284         87.9467         47.5205        -7.44172
            7575         84.3872         96.1247         46.5015        -7.93313
            7576         83.1945         94.3283         47.1108        -9.09109
            7577         83.6182         94.9914         46.7646         8.64019
            7578         85.3425         97.3528         47.3812         7.60431
            7579         70.5977         76.9820         46.8596         12.5077
            7580         59.1221         51.5909         53.9178         15.3660
            7581         63.6121         50.1169         69.8631        -7.19415
            7582         79.9375         92.0015         46.9176        -3.69484
            7583         60.0683         57.7300         45.5244        -16.6443
            7584         64.1704         54.1554         69.1874        -6.95219
            7585         88.9804         102.393         46.5522        -3.30457
            7586         63.0403         62.6869         45.3967        -16.6268
            7587         57.5690         46.9212         54.0108         15.5957
            7588         76.1454         83.9988         46.1918         12.7631
            7589         60.3935         58.0521         58.3839         9.27274
            7590         63.2954         64.6208         57.9683         8.48713
            7591         77.2168         89.0232         40.5995        -1.04445
            7592         69.3766         80.0753         40.6501        -1.10909
            7593         66.0231         71.5548         52.3005        -9.05496
            7594         67.8575         75.2039         50.0675        -8.31723
            7595         62.3329         66.4824         51.1610        -9.11655
            7596         61.0139         63.2370         53.6451        -8.91322
            7597         71.4252         77.0264         45.0757        -14.2442
            7598         60.7005         48.3455         62.9988        -11.8901
            7599         62.2856         49.2003         66.2840         10.4315
            7600         82.4885         95.2120         49.9062     142.860E-03
            7601         61.4987         45.8314         65.6991         11.1996
            7602         91.6147         105.752         50.6222     413.118E-03
            7603         70.2219         75.2994         44.6765         14.4826
            7604         64.1927         66.7930         44.6417         14.7000
            7605         60.6644         45.5169         63.9656        -11.9485
            7606         65.6316         69.1520         45.1779        -14.2432
            7607         76.0146         87.5023         37.7736     14.0890E-03
            7608         85.1166         97.4182         37.4354    -32.9841E-03
            7609         63.4314         47.5658         69.3465        -9.14012
            7610         81.1460         93.5838         47.8951        -2.23637
            7611         62.0519         61.8151         45.2409        -16.1159
            7612         60.0639         50.4135         59.0318         13.6308
            7613         68.5320         73.3923         46.4705         13.6781
            7614         73.9155         80.5209         45.8847         13.7738
            7615         58.8141         45.8363         58.9131         13.9968
            7616         65.8501         67.9813         44.3973        -15.9357
            7617         90.2375         104.011         47.9055        -2.01858
            7618         63.5652         51.7051         68.2358        -8.92813
            7619         56.4780         51.1982         45.1247        -16.7588
            7620         55.7429         46.3641         49.6932         16.2502
            7621         65.2028         49.8990         73.0224        -4.93164
            7622         65.5591         53.9534         72.2921        -4.51961
            7623         61.4663         53.6973         65.2011        -6.94381
            7624         63.2161         59.1205         65.3032        -5.69480
            7625         74.7653         85.9006         43.7557        -4.28236
            7626         73.4175         83.7301         45.3940        -6.31493
            7627         67.0676         76.7176         44.1846        -4.07945
            7628         63.8106         56.4982         67.8409         6.06207
            7629         62.9696         51.0370         68.5559         7.28847
            7630         80.3234         92.2349         48.7018         4.64432
            7631         79.5617         89.0670         46.6085        -11.1962
            7632         56.4734         48.7011         50.2413        -15.7062
            7633         72.9821         80.8856         47.3656        -11.1296
            7634         58.6267         57.5058         42.0329         16.1301
            7635         88.2905         101.379         48.1060         5.17242
            7636         70.5132         76.9505         47.0510        -12.3496
            7637         70.2207         76.2720         46.8283        -12.8106
            7638         56.2756         42.3288         56.5434        -13.8018
            7639         57.7476         46.3298         55.3169        -15.1788
            7640         58.7888         57.6969         42.9483         15.9229
            7641         59.5048         57.6307         44.3548         16.4152
            7642         81.8929         94.2775         50.3216         3.16904
            7643         65.8022         50.6176         73.1302         6.36232
            7644         80.6307         92.8425         47.8480         3.38992
            7645         65.1996         52.0565         71.7904         6.43961
            7646         65.1750         47.4645         72.7082         7.29129
            7647         64.5663         48.7256         71.6391         7.14422
            7648         62.2807         63.7460         42.0559         15.5727
            7649         89.3351         102.812         47.7408         3.62993
            7650         63.1705         63.7274         43.9670         16.3109
            7651         57.6692         47.2670         55.9709        -14.1939
            7652         58.7099         50.2239         54.7521        -15.0164
            7653         76.6073         84.6337         46.3067        -12.6573
            7654         77.0084         85.4219         46.7147        -12.1326
            7655         66.7598         73.6341         51.1394         7.85837
            7656         61.1450         65.4762         52.0041         7.12247
            7657         76.4243         87.4599         43.8183         5.88048
            7658         69.3445         78.8898         44.4249         6.22251
            7659         74.3285         85.6587         38.6083         1.13120
            7660         83.6917         95.9419         38.0974         1.03130
            7661         64.2483         50.7321         71.3807        -5.17009
            7662         64.6810         55.4979         70.2380        -4.77131
            7663         66.1589         55.1933         73.1890         2.13063
            7664         65.2886         50.6863         73.3075         3.42502
            7665         74.8102         86.2126         38.9941        -1.31608
            7666         83.6215         95.9187         38.6710        -1.41341
            7667         80.6137         90.7414         46.2994        -10.3635
            7668         78.3528         89.5962         47.2350         6.12670
            7669         56.2144         50.1754         47.0439        -16.2256
            7670         86.4270         98.9676         46.3813         6.16608
            7671         58.7871         55.6269         45.1748         16.6707
            7672         73.7403         82.3225         47.0985        -10.3221
            7673         63.3277         70.0942         48.7096        -6.80260
            7674         69.9574         79.0242         47.8434        -6.85594
            7675         82.9158         95.6600         51.0250    -752.055E-03
            7676         61.3694         48.7492         64.3554         11.3340
            7677         64.1267         66.5424         44.7056        -14.8389
            7678         62.5282         45.9953         67.8755        -10.1500
            7679         65.9538         69.6540         45.3157         14.1554
            7680         69.1886         73.5788         44.5452        -14.9056
            7681         71.8355         77.8843         45.0586         13.8259
            7682         60.2448         45.3127         63.1054         12.2934
            7683         62.8013         49.1541         67.4863        -9.84391
            7684         91.6017         105.735         50.6289    -559.013E-03
            7685         60.6650         55.4091         62.4286        -7.56865
            7686         79.4252         90.9885         48.2026        -5.53295
            7687         80.3415         90.2487         46.5643         10.7091
            7688         56.9891         49.5634         50.3119         15.8490
            7689         58.8416         56.5446         43.8590        -16.5471
            7690         73.1859         81.4115         47.0443         10.7258
            7691         87.0288         99.7710         46.5498        -5.69191
            7692         80.3144         92.2311         41.5933         4.08355
            7693         71.5514         82.1220         42.5567         4.44762
            7694         65.1446         69.6245         53.6178         9.21031
            7695         61.2581         62.3058         54.0170         10.3003
            7696         75.5956         87.0284         42.8316        -3.35500
            7697         68.3504         78.6456         42.5168        -2.75261
            7698         66.1941         72.3792         51.9272         8.26505
            7699         61.3562         64.6471         52.5705         8.56763
            7700         84.7999         97.1989         38.4642    -925.673E-03
            7701         75.8571         87.4146         39.2143        -1.02125
            7702         82.2529         94.8433         50.0843        -2.00063
            7703         61.1862         62.1109         43.3766        -15.2601
            7704         64.2499         47.1116         71.0269        -8.36497
            7705         59.2581         47.0969         60.4971         12.6851
            7706         74.7595         82.1341         46.0029         12.9756
            7707         58.3018         44.2155         59.3108         13.5249
            7708         69.2881         74.9605         46.5818         12.9575
            7709         65.2932         68.3998         42.8056        -15.0582
            7710         64.6642         50.0682         71.0675        -7.79446
            7711         91.2225         105.229         50.5982        -2.05588
            7712         64.2903         55.2623         69.3345         5.87717
            7713         63.2298         50.4963         69.0567         7.44771
            7714         74.5574         85.7935         43.5147        -3.56032
            7715         66.9999         76.9776         43.3193        -2.67659
            7716         57.8790         53.8198         45.1382        -16.7857
            7717         56.8515         46.7490         52.1570         15.9641
            7718         57.7859         52.8171         46.1829        -16.8913
            7719         56.9360         47.7888         50.9376         16.3048
            7720         91.1004         105.119         49.1291    -20.8417E-03
            7721         71.1892         76.6685         45.0126         14.3149
            7722         60.8692         46.2662         63.9545         12.0174
            7723         61.2527         46.2447         64.9016        -11.5825
            7724         65.1812         68.0195         45.2583        -14.7430
            7725         61.3069         49.4495         63.6685        -11.6616
            7726         70.2931         75.3094         44.7771        -14.5690
            7727         60.8509         54.8751         62.3694        -8.64387
            7728         62.8535         60.1961         62.2522        -8.14439
            7729         72.2161         83.1858         41.0187         2.88283
            7730         80.3520         92.3698         40.7321         3.03168
            7731         60.3005         59.6573         56.9708        -8.75979
            7732         60.3325         57.6479         59.0405        -8.84142
            7733         63.0395         63.9026         59.1349        -7.58008
            7734         63.8995         67.3180         55.9179        -7.93519
            7735         79.9516         91.8160         41.7263        -4.16893
            7736         85.1196         97.4413         37.5790     173.239E-03
            7737         72.6975         83.8312         39.7202        -1.76598
            7738         82.1122         94.2885         38.9451        -1.57451
            7739         65.1684         69.4099         53.6233        -9.58675
            7740         60.8907         61.8045         54.6791        -9.61744
            7741         72.9757         84.0199         41.2184        -3.17899
            7742         81.4361         93.5476         40.7732        -3.28962
            7743         60.5141         56.9608         59.3504         9.58472
            7744         63.0451         62.8702         59.3466         8.77757
            7745         66.7616         72.6741         51.4383        -9.45024
            7746         68.0697         75.8766         49.7031        -7.68379
            7747         62.5074         67.4469         50.5437        -8.41508
            7748         61.5637         63.8178         52.9700        -9.86554
            7749         70.6050         75.5171         45.1412        -14.7585
            7750         60.9290         50.1197         62.0445        -12.3894
            7751         62.5480         50.3329         66.2953         10.3380
            7752         81.9579         94.6099         48.8312     706.392E-03
            7753         61.8942         46.7353         66.1724         10.9622
            7754         91.1010         105.117         49.2014     559.318E-03
            7755         68.9637         73.0830         44.6574         15.1028
            7756         63.9758         65.8799         44.9655         15.2005
            7757         66.1135         69.3746         45.7231        -14.6012
            7758         60.3349         46.2351         62.6281        -12.5957
            7759         63.0746         49.0151         68.4716        -9.01322
            7760         80.6664         92.9776         47.3613        -2.74984
            7761         61.3513         60.4311         45.2670        -16.3146
            7762         59.8469         50.8383         57.7393         14.1262
            7763         68.7498         73.7179         46.5999         13.6125
            7764         74.2243         80.9679         46.0416         13.6809
            7765         58.5133         46.6733         57.1154         14.7083
            7766         64.5460         65.6974         44.5400        -16.2521
            7767         89.7820         103.436         47.0548        -2.21840
            7768         63.8948         52.5479         68.8168        -8.19932
            7769         69.4851         75.0097         46.7383        -13.2045
            7770         58.5536         47.2020         56.6166        -14.9161
            7771         60.4026         58.5412         45.3243         16.5372
            7772         64.3949         53.2194         69.8830         7.06843
            7773         80.6180         92.8917         47.4516         2.97708
            7774         64.6062         65.5259         45.0244         16.3645
            7775         88.8273         102.208         46.1573         3.21446
            7776         63.6334         48.9030         69.7315         8.27252
            7777         59.4744         51.0841         56.0528        -14.7095
            7778         75.9412         83.6242         46.1903        -12.9503
            7779         73.9896         85.2890         39.3795         1.64653
            7780         82.8521         95.1163         39.3456         1.97527
            7781         63.4210         46.9478         69.4238        -9.26935
            7782         81.9493         94.5358         49.2357        -1.73803
            7783         62.4839         63.4812         44.3941        -15.5105
            7784         59.1056         45.0981         60.4445         13.3170
            7785         73.7974         80.4590         45.7610         13.6653
            7786         59.8553         48.5972         60.4898         12.9305
            7787         66.3262         69.1373         43.9078        -15.5667
            7788         68.8032         73.9996         46.4418         13.3887
            7789         63.7739         50.7311         69.0266        -8.76725
            7790         90.7102         104.607         48.9058        -1.80885
            7791         68.4016         78.4185         43.3990        -4.04645
            7792         76.2684         87.6053         43.1424        -4.48747
            7793         56.7191         52.1787         44.5014         16.6942
            7794         55.7283         46.3707         49.6551        -16.2513
            7795         78.8184         90.1595         47.8074        -6.00984
            7796         79.6121         91.4661         47.2384        -4.51968
            7797         78.7081         87.8927         46.2757         11.4848
            7798         81.0864         91.2715         46.9825         10.4136
            7799         58.1294         51.3581         50.8377         15.9982
            7800         55.1122         47.7301         47.9941         15.7747
            7801         59.5131         57.0564         44.8187        -16.6819
            7802         55.8811         52.6345         42.4646        -16.1676
            7803         73.9776         82.5994         47.3224         10.3185
            7804         71.9023         79.3488         46.8583         11.4914
            7805         86.9568         99.6301         47.0324        -6.03130
            7806         87.6940         100.679         46.4392        -4.92724
            7807         79.3100         91.0192         42.2358         4.68995
            7808         71.3034         81.5708         43.3442         5.39380
            7809         65.6857         71.0543         52.7262         8.79915
            7810         61.5813         63.7477         52.9881         9.97695
            7811         60.5431         46.7103         64.0068        -11.2031
            7812         92.0945         106.332         52.0995     369.809E-03
            7813         71.1469         77.3795         44.7024        -13.3547
            7814         69.2757         74.4713         44.0249         14.0658
            7815         61.9310         44.8225         67.2233         10.3367
            7816         63.5964         66.6937         43.9957         14.0839
            7817         62.8792         48.6000         67.9272         9.64363
            7818         65.0628         69.0414         44.6746        -13.6019
            7819         60.5000         44.2094         64.5780        -11.4079
            7820         77.5257         88.2447         47.5468         7.26100
            7821         75.1947         84.7133         47.1055        -9.11820
            7822         82.4160         93.3256         46.4553        -9.31136
            7823         85.5692         97.7931         46.3515         6.90389
            7824         72.2287         79.8320         46.9509        -11.3670
            7825         79.7604         91.6486         47.4223         4.45631
            7826         87.8374         100.849         46.7580         4.96799
            7827         59.0971         56.7561         44.1656         16.6060
            7828         58.3512         51.7685         50.8404        -16.0424
            7829         78.7329         87.9097         46.3233        -11.5062
            7830         75.4324         86.9342         39.5247        -1.45381
            7831         83.9998         96.3867         39.3492        -1.82114
            7832         81.6914         93.8451         39.2484         1.77076
            7833         73.2417         84.4504         39.1742         1.43017
            7834         85.2344         97.6985         38.6103    -661.802E-03
            7835         76.2123         87.8329         39.4210    -842.590E-03
            7836         61.7569         53.0758         65.8389        -7.22410
            7837         63.1776         58.2766         65.2475        -6.84126
            7838         67.2251         76.4791         44.9138        -5.41241
            7839         75.1176         86.1652         43.9102        -4.95394
            7840         84.9727         97.4639         39.1932        -1.28597
            7841         75.8896         87.4698         39.9351        -1.47866
            7842         63.8006         65.4756         45.0113        -15.3252
            7843         62.9806         46.4474         68.6497        -9.74708
            7844         60.5552         48.5997         62.3918         12.1722
            7845         72.5787         78.7606         45.3877         13.8943
            7846         59.8015         45.9860         61.4348         13.0692
            7847         68.1537         73.2075         46.1616         13.3425
            7848         68.2219         71.9707         44.4513        -15.2504
            7849         91.1357         105.152         49.5394        -1.12176
            7850         63.4079         49.5975         68.6218        -9.22248
            7851         64.9395         72.7457         47.1402        -6.63964
            7852         71.6044         81.1609         46.7396        -7.04591
            7853         78.0312         89.2628         46.6681         6.02332
            7854         73.6971         82.3831         46.8835        -10.1427
            7855         80.1496         90.2682         45.8695        -10.2008
            7856         57.9150         52.6367         47.8104        -16.4750
            7857         86.2297         98.7853         45.6268         5.84482
            7858         58.6794         54.8819         46.1326         16.6821
            7859         70.8045         77.2840         46.9063        -12.4547
            7860         58.7509         55.6535         44.9460         16.6895
            7861         64.4724         49.3364         71.5387         6.69043
            7862         88.9004         102.271         46.8655         3.67452
            7863         62.3549         61.8795         44.7567         16.5873
            7864         79.8798         91.8669         47.1931         4.06429
            7865         65.7084         52.7016         72.7222         5.29768
            7866         58.5796         51.2590         52.5582        -15.6609
            7867         77.4053         85.8419         46.3739        -12.2888
            7868         55.3673         49.3795         46.0288         16.1393
            7869         54.6669         50.2251         43.0742        -16.0616
            7870         68.4179         75.4994         49.7363        -9.34895
            7871         63.0914         67.4367         50.4443        -9.83186
            7872         62.0884         67.1860         50.7195         7.66336
            7873         67.4376         74.8363         50.3651         7.74269
            7874         64.1244         55.4522         68.8795        -6.11339
            7875         63.6066         50.8791         70.0519        -6.16490
            7876         65.0683         68.5680         53.8165         10.4274
            7877         61.0504         61.0379         54.9374         10.5934
            7878         68.5234         78.1726         44.2077        -5.35436
            7879         76.3395         87.4636         43.6460        -5.48643
            7880         63.1918         57.4963         65.4684        -7.42640
            7881         61.6211         52.9874         65.1335        -8.13169
            7882         62.9619         58.2996         64.0188        -8.14895
            7883         71.8867         77.6432         45.2612         14.1995
            7884         60.3901         46.9161         62.2670         12.7800
            7885         64.8125         67.0280         45.4811        -15.1426
            7886         62.1187         46.3471         66.8473        -10.6504
            7887         91.0897         105.103         49.1835    -571.484E-03
            7888         62.4084         50.0690         66.0818        -10.4841
            7889         66.9062         71.0439         45.7493         13.9810
            7890         68.9217         72.7009         45.1302        -15.3737
            7891         82.3403         95.0399         49.6319    -584.560E-03
            7892         61.4432         50.1260         63.5146         11.7228
            7893         60.2935         59.1030         43.6470         16.5000
            7894         88.9391         102.278         47.7489         4.20885
            7895         72.0825         79.4467         47.0993        -11.6569
            7896         57.4401         49.9139         51.1347        -15.7643
            7897         78.1205         86.9440         46.3810        -11.9010
            7898         80.2731         92.2676         48.1347         4.27347
            7899         87.3636         100.288         45.7494         4.82242
            7900         60.0683         57.3810         45.8907         16.7623
            7901         72.3519         80.2197         46.7818        -11.0135
            7902         59.0668         53.4247         50.2276        -16.2816
            7903         77.8262         86.6548         46.1548        -11.7916
            7904         79.1301         90.8651         46.7389         4.74396
            7905         60.5609         55.9748         61.0636         8.63513
            7906         62.8849         61.5715         60.7435         8.44112
            7907         61.2293         62.8663         53.7338        -9.79086
            7908         65.9697         70.8849         52.4691        -9.89265
            7909         62.0090         64.1387         52.4791        -10.6963
            7910         66.6685         71.9673         51.6299        -10.2538
            7911         53.5176         44.2110         47.2276        -15.9901
            7912         54.5005         49.1718         43.3014         16.3975
            7913         62.7088         68.2966         49.9700        -7.82604
            7914         68.7534         76.8857         49.0960        -7.74558
            7915         57.2095         50.4715         47.8905        -16.8242
            7916         56.3033         48.7392         47.8982         16.6817
            7917         84.9621         97.1873         36.9995     180.628E-03
            7918         75.9168         87.3803         37.6270     200.108E-03
            7919         60.5362         57.4099         58.6745        -9.90846
            7920         63.1795         63.5148         58.5571        -9.08897
            7921         71.9420         82.7468         41.8117        -3.65986
            7922         71.0813         81.4314         43.0599        -4.95814
            7923         79.1637         90.7582         42.6259        -5.21306
            7924         80.4910         92.4794         41.1700        -3.59498
            7925         64.8153         68.0184         54.2517        -10.3503
            7926         60.8574         60.3576         55.6204        -10.3935
            7927         74.0735         85.3170         40.9130        -2.86268
            7928         82.2819         94.4952         40.5160        -3.05448
            7929         76.8815         87.2676         47.4618         7.83987
            7930         75.3776         85.0787         46.9526        -8.82273
            7931         83.2871         94.5997         46.3414        -8.64071
            7932         84.6954         96.5705         46.4224         7.64758
            7933         61.4399         61.3563         54.2078         11.5149
            7934         65.3915         68.6723         53.2607         11.2694
            7935         64.1708         48.4936         70.8398        -7.81566
            7936         80.3952         92.6045         47.2457        -3.20399
            7937         60.2205         58.5732         44.8551        -16.4420
            7938         59.2229         50.6306         55.8749         14.7295
            7939         69.8416         75.6294         46.7624         13.0119
            7940         75.9466         83.6251         46.1921         12.9593
            7941         57.9327         46.7897         55.2616         15.2616
            7942         63.8366         64.1480         45.1893        -16.5013
            7943         64.2334         52.8731         69.5626        -7.51435
            7944         68.8924         73.9768         46.5912        -13.5343
            7945         58.9953         47.0590         58.1162        -14.4141
            7946         61.0338         59.6462         45.4794         16.4494
            7947         63.8406         52.6102         68.6625         8.27846
            7948         81.1796         93.6201         47.9605         2.25544
            7949         65.7247         67.3319         45.1787         16.1967
            7950         90.0221         103.733         47.6525         2.29782
            7951         63.0910         48.4008         68.5190         9.29801
            7952         60.0149         50.8294         58.3309        -13.9115
            7953         75.0625         82.2731         46.0774        -13.3331
            7954         74.8254         86.2359         39.3071         1.51121
            7955         83.7462         96.0676         38.8143         1.49371
            7956         58.1033         53.7654         45.7386         16.8564
            7957         56.7546         47.4961         50.8432        -16.2792
            7958         76.9620         87.6119         46.7937         7.24202
            7959         74.5526         83.9708         46.5541        -9.10847
            7960         82.3742         93.3844         46.0177        -9.02895
            7961         84.7405         96.7140         45.9266         7.29938
            7962         60.6824         47.7440         62.5169        -12.6399
            7963         66.3744         69.4738         46.2317        -14.7589
            7964         61.7377         47.9287         65.3142         11.2378
            7965         90.4811         104.340         47.7053     765.449E-03
            7966         68.9573         72.7449         45.1557         15.3742
            7967         64.4825         66.0992         45.8210         15.4710
            7968         61.2025         51.9482         61.1264        -12.7294
            7969         62.2252         51.2571         64.9151         10.9251
            7970         81.6448         94.2655         48.1201     366.680E-03
            7971         70.7552         75.5818         45.4455        -14.8689
            7972         85.4000         97.8887         38.6563    -471.018E-03
            7973         76.1082         87.6824         38.7993    -542.375E-03
            7974         85.2120         97.7160         39.0118    -971.743E-03
            7975         76.3199         87.9751         40.0071        -1.17805
            7976         82.0529         94.2509         39.7716         2.32258
            7977         73.4728         84.7016         39.6852         1.85987
            7978         64.7289         71.9659         47.7338        -7.47063
            7979         72.1115         81.6195         46.5834        -7.53715
            7980         69.9536         75.8896         46.8084        -12.8519
            7981         58.1073         47.3114         55.1068        -15.3679
            7982         56.5534         46.2655         52.0030        -15.9104
            7983         59.6225         57.1485         45.1673         16.6338
            7984         57.6555         53.9728         44.4725         16.6692
            7985         65.4821         49.1731         73.4040         5.51550
            7986         88.4681         101.737         46.0409         3.67246
            7987         63.4930         63.7086         44.8996         16.5035
            7988         63.7036         49.6467         69.9748         7.54773
            7989         79.9515         92.0232         46.9113         3.66210
            7990         65.0071         52.9772         71.2757         6.19403
            7991         66.0261         53.4369         73.2421         4.21775
            7992         59.2157         51.8175         53.8664        -15.3956
            7993         76.7151         84.8360         46.2368        -12.5533
            7994         56.6977         50.3065         48.1658         16.1966
            7995         56.0379         52.2153         43.4187        -16.2865
            7996         67.6927         77.6988         43.3413        -3.38108
            7997         75.5274         86.8331         43.2516        -4.05663
            7998         68.2249         74.7610         50.0093        -10.0541
            7999         62.8949         66.3832         50.9901        -10.5504
            8000         62.3425         68.1320         50.0335         7.07456
            8001         67.9197         76.0090         49.6478         6.94023
            8002         67.6726         74.7014         50.3269         8.67893
            8003         63.9351         65.6066         56.0367         10.3237
            8004         60.9168         59.8508         55.8068         10.8693
            8005         90.1712         103.941         47.3855        -1.53757
            8006         62.9347         52.5858         66.2490        -9.83750
            8007         67.8548         72.1791         46.3801         14.0357
            8008         66.8391         69.3337         44.9139        -15.8859
            8009         60.6297         51.8973         59.1064         13.6202
            8010         59.2161         47.4846         58.3251         14.3699
            8011         81.4002         93.9339         47.9866        -1.55603
            8012         62.3181         61.7659         46.0243        -16.2585
            8013         62.9476         48.0132         68.2342        -9.61547
            8014         60.3855         57.0151         59.7795        -8.76411
            8015         62.9189         61.9708         60.2994        -8.54762
            8016         73.4466         81.9396         46.9280         10.3816
            8017         78.5660         89.9277         47.1900        -5.84301
            8018         86.3243         98.8607         46.0866        -6.07223
            8019         81.1226         91.4127         46.5472         10.2137
            8020         72.9160         83.8750         41.7093         3.67080
            8021         81.1841         93.2053         41.4579         4.03985
            8022         78.8574         88.3999         45.9059        -10.8732
            8023         78.4199         89.9756         46.0970         5.05747
            8024         58.6125         53.2156         49.0195        -16.4238
            8025         60.2368         57.0032         47.1969         16.7524
            8026         86.7475         99.4804         45.5998         5.34506
            8027         72.5075         80.6928         46.5800        -10.5671
            8028         74.7987         86.2014         40.1094        -2.07187
            8029         83.8848         96.2839         39.8696        -2.25735
            8030         71.8469         82.0463         43.6848         5.94982
            8031         80.0738         91.7614         42.5787         5.34768
            8032         63.6399         56.7251         67.2748        -6.39184
            8033         81.2285         91.8165         45.8463        -9.58050
            8034         77.3689         88.3823         46.3062         6.40069
            8035         84.7099         96.8614         44.8748         6.49427
            8036         73.6115         82.5256         46.4940        -9.71995
            8037         69.1478         76.4769         49.1513        -9.58805
            8038         63.9522         69.3791         49.3137        -9.41488
            8039         85.3264         97.7503         38.1894     142.083E-03
            8040         62.8230         59.0729         62.5576        -8.92795
            8041         61.1401         53.7930         63.0380        -9.33879
            8042         66.4557         71.8005         51.8559         9.92130
            8043         62.0853         64.1290         52.4101         10.8972
            8044         62.3673         51.1250         66.8753         8.61407
            8045         63.8932         55.1716         68.2912         6.89163
            8046         74.7884         86.1711         38.5047         1.03668
            8047         84.0781         96.4030         38.4746         1.20578
            8048         68.6160         53.0265         77.4719    -916.388E-03
            8049         68.1670         49.4529         77.6756        -1.72536
            8050         56.2407         49.3375         46.9352        -16.7490
            8051         55.3335         47.8712         46.6560         16.6016
            8052         66.8199         53.3926         74.6463         3.03441
            8053         66.1774         49.4626         74.6409         4.22539
            8054         70.0348         79.6476         44.3813         6.48817
            8055         77.2162         88.1992         43.8942         6.53116
            8056         69.8434         79.8514         43.6068        -5.23963
            8057         78.2857         89.7928         42.7394        -5.06424
            8058         72.8351         83.8599         41.2148         3.16668
            8059         81.3225         93.4172         40.8576         3.36857
            8060         83.0493         94.1535         46.8621         9.10097
            8061         78.2190         89.2872         47.6478        -6.58367
            8062         85.5614         97.7376         46.6867        -7.10645
            8063         74.9437         84.2732         47.1703         9.39400
            8064         56.8164         50.0419         47.4412         16.8056
            8065         56.9568         49.4049         48.7133        -16.7025
            8066         76.1546         47.6420         87.8154    -800.030E-03
            8067         46.4828         45.7713         33.0702         12.7236
            8068         87.3493         99.9672         52.8487         6.49612
            8069         77.9018         47.4617         89.8289         1.85061
            8070         78.7188         89.2865         52.9520        -7.03698
            8071         43.8372         35.4495         40.5212        -12.3764
            8072         43.6753         42.2219         32.0355        -12.2634
            8073         78.0999         48.8768         89.9553         2.26753
            8074         86.2086         98.4690         52.6542        -7.02644
            8075         43.3944         35.9419         38.9857         12.5511
            8076         79.7870         90.7517         53.5095         6.40084
            8077         76.2965         49.1930         87.8536        -1.25626
            8078         68.9861         77.3972         48.7962         7.40197
            8079         63.2188         69.3937         49.2453         7.60153
            8080         85.2789         97.7142         38.3236     401.399E-03
            8081         76.0278         87.5549         38.2516     317.844E-03
            8082         85.4885         97.9970         38.7387     390.572E-03
            8083         76.2750         87.8828         38.9518     386.000E-03
            8084         74.0551         82.8863         47.0278         10.0059
            8085         78.0834         89.2367         47.0547        -6.29004
            8086         86.2322         98.6930         46.4553        -6.38778
            8087         82.0290         92.7160         46.6525         9.68653
            8088         61.7419         51.7388         64.9058         9.67020
            8089         63.2842         55.9632         66.2037         8.06331
            8090         73.0636         81.4609         46.7221         10.4161
            8091         77.4285         88.4406         46.4032        -6.43161
            8092         85.5270         97.8803         45.3179        -6.22720
            8093         80.5587         90.7136         46.1590         10.2850
            8094         68.0326         72.4287         46.7064         13.9512
            8095         63.3977         53.0058         67.3989        -8.93638
            8096         89.4022         102.956         46.4255        -2.40176
            8097         60.4123         52.2380         57.8047         14.1310
            8098         62.6702         49.7177         67.4961        -9.23286
            8099         80.9506         93.3965         47.2878        -1.86823
            8100         61.6026         60.4006         45.9786        -16.4291
            8101         59.4369         49.1788         57.1514         14.8160
            8102         74.0045         80.6524         46.1452         13.7137
            8103         67.1129         70.8215         46.3145         14.4163
            8104         90.0058         103.740         46.7584        -1.07653
            8105         62.6160         52.2639         65.4782        -10.3923
            8106         60.9019         51.5973         60.4545         13.0550
            8107         67.7031         70.5651         45.3617        -15.7854
            8108         81.5087         94.1001         47.9149    -774.680E-03
            8109         63.0248         63.1084         46.0861        -16.0618
            8110         72.5369         78.3495         45.7549         14.3098
            8111         59.6802         48.3489         58.9271         14.1512
            8112         68.5794         77.7371         44.9852        -6.66909
            8113         75.6585         86.3748         44.4229        -6.51220
            8114         60.8442         54.9052         62.9795         7.72287
            8115         58.5159         52.8276         48.2000        -16.8957
            8116         58.0356         50.4398         50.3592         16.6135
            8117         61.1509         61.4262         54.6050        -10.6258
            8118         62.0531         62.8875         52.8407         11.9252
            8119         66.0236         70.1010         52.4095         11.1381
            8120         72.8930         83.7155         42.3469         4.35608
            8121         81.0659         92.9911         42.0039         4.68999
            8122         65.6094         73.4899         46.8732        -7.10502
            8123         63.9672         70.4626         48.6363        -7.92390
            8124         70.4107         78.9690         47.9307        -8.35165
            8125         72.8215         82.6100         46.1101        -7.33883
            8126         57.8626         52.7752         47.3765         16.5190
            8127         58.4682         54.7118         45.8110        -16.6624
            8128         68.9289         75.7240         49.4130        -10.2823
            8129         64.0991         68.8340         49.5422        -10.4297
            8130         58.7774         54.2560         47.5894        -16.6165
            8131         58.8650         53.7898         48.7743         16.4961
            8132         75.5221         87.0393         40.2731        -1.93041
            8133         84.5260         97.0118         39.9693        -2.10565
            8134         63.5085         56.1455         66.9410        -7.26512
            8135         62.7567         51.5350         68.1772        -7.02192
            8136         79.8882         90.1270         45.5100        -9.82803
            8137         77.4311         88.6152         45.8170         5.88254
            8138         85.3560         97.6956         45.0077         6.12574
            8139         72.7016         81.2448         46.3361        -10.0389
            8140         69.3373         77.1911         48.8556        -8.82332
            8141         63.3057         69.0144         49.5296        -8.36057
            8142         56.2268         52.1440         43.5356         16.5048
            8143         55.5338         45.2445         50.7029        -15.9183
            8144         62.8623         60.8787         60.8438        -9.08426
            8145         60.7716         55.2182         61.1171        -9.72313
            8146         78.7938         90.0615         43.4513         6.39436
            8147         70.5945         80.2666         44.3621         6.67450
            8148         75.2235         86.6556         38.3996     895.244E-03
            8149         84.3703         96.6838         38.0921     907.407E-03
            8150         73.4927         84.6402         40.9854         2.96792
            8151         82.4287         94.6628         40.3355         2.87337
            8152         57.3479         51.3551         47.0371         16.8774
            8153         56.9042         48.5615         49.7514        -16.5395
            8154         60.8372         58.6646         56.6732         11.1429
            8155         63.6050         64.4739         56.9145         10.3109
            8156         57.6501         48.5638         51.9430        -16.2230
            8157         59.1667         54.8195         47.1484         16.9036
            8158         76.5435         88.2301         39.7141    -611.612E-03
            8159         63.0777         67.4604         50.4394         9.77106
            8160         68.4626         75.4151         49.7340         9.60757
            8161         68.2406         72.7956         46.6269        -13.8774
            8162         58.9611         48.4597         56.3650        -15.0830
            8163         61.3649         59.8913         46.0389         16.4967
            8164         80.5549         92.8729         47.0140         2.56504
            8165         63.8352         53.5997         68.4273         7.90351
            8166         89.4398         103.011         46.2157         2.08337
            8167         65.7978         67.1443         45.9305         16.2824
            8168         62.8191         49.6543         67.8766         9.01511
            8169         60.1128         51.9375         57.0921        -14.3962
            8170         74.4196         81.2735         46.0794        -13.5968
            8171         80.9402         92.9417         41.4132        -3.96344
            8172         66.1163         73.6788         47.0037        -8.09569
            8173         72.9835         82.5094         46.2658        -8.07530
            8174         66.6424         74.9000         46.2542        -7.21544
            8175         73.7028         83.8183         45.5396        -7.06633
            8176         76.3863         88.0206         39.1231    -291.290E-03
            8177         63.3037         53.2510         67.0543         9.05763
            8178         81.0417         93.5026         47.4398         1.84570
            8179         62.2140         61.7561         45.7200         16.2269
            8180         67.5995         71.6815         46.4062        -14.1938
            8181         59.4472         48.4401         58.0296        -14.5034
            8182         65.7567         69.6430         52.7740        -11.0158
            8183         73.4769         79.8002         45.9215        -13.9827
            8184         60.6468         52.7878         57.9199        -14.0740
            8185         61.7605         62.2963         53.4102        -11.6638
            8186         62.5139         49.0764         67.0836         9.85740
            8187         66.7742         68.7437         46.0990         16.0934
            8188         90.0053         103.728         47.1553         1.75106
            8189         76.8637         88.6203         40.1353    -380.461E-03
            8190         85.7857         98.3934         39.3112    -409.830E-03
            8191         63.3311         54.3946         66.7832         8.65456
            8192         80.4406         92.7853         46.5298         2.14710
            8193         62.3512         61.4228         46.7232         16.3474
            8194         67.6189         71.6684         46.7646        -14.1489
            8195         59.6682         50.0191         56.9981        -14.8390
            8196         73.7486         80.2698         46.1996        -13.7798
            8197         60.7951         53.7986         56.9068        -14.4324
            8198         62.2557         50.3919         66.3837         9.57138
            8199         88.9825         102.442         45.2216         1.92325
            8200         65.6539         66.6896         46.6108         16.3179
            8201         81.5996         93.6909         41.2418        -3.81240
            8202         72.6286         83.5049         41.9202        -3.87682
            8203         73.3875         84.3349         42.1673        -4.14087
            8204         81.5511         93.5811         41.7025        -4.34416
            8205         85.6282         98.1696         38.8769     122.373E-03
            8206         76.3970         88.0278         39.0307    -4.57583E-03
            8207         74.8241         83.8758         47.6672         9.82250
            8208         79.0537         90.4061         48.3033        -6.05320
            8209         86.7640         99.3341         47.3944        -6.38674
            8210         82.2384         92.9341         47.1644         9.74862
            8211         62.9787         57.1479         64.5354         8.63465
            8212         71.9086         79.7128         46.6013         10.9507
            8213         77.7744         89.1324         45.7399        -5.44817
            8214         85.9840         98.5395         44.9074        -5.52838
            8215         78.8148         88.3026         45.9421         10.9629
            8216         69.2619         78.8815         44.2943        -5.97009
            8217         67.2733         76.0061         45.6244        -6.70618
            8218         77.8241         89.0808         43.3610        -5.87812
            8219         74.6665         85.0972         44.9653        -6.78469
            8220         61.8743         61.7084         53.3486         12.4697
            8221         65.6214         68.5992         52.7924         12.0388
            8222         72.7546         83.2597         43.3266         5.51420
            8223         80.9410         92.7413         42.5316         5.35366
            8224         69.5901         78.0105         48.4480        -7.94556
            8225         63.3846         69.6563         49.0898        -7.64224
            8226         80.7724         92.4087         43.0549         6.04771
            8227         72.8889         83.1979         43.8878         6.22161
            8228         75.5033         86.9151         37.5902     464.532E-03
            8229         84.6171         96.9089         37.7146     633.481E-03
            8230         60.6056         58.3650         57.5287         10.2418
            8231         63.6099         65.2189         56.9490         9.37513
            8232         58.3607         49.3756         53.0633        -16.0452
            8233         59.9899         56.4302         47.1891         16.8375
            8234         84.9069         97.2825         38.1603     689.430E-03
            8235         75.8597         87.3659         38.2712     518.567E-03
            8236         62.7728         58.0020         62.8373        -9.52809
            8237         61.2820         52.8647         63.1700        -10.1623
            8238         62.7510         66.0159         51.2128         10.6097
            8239         67.5293         73.5212         50.6855         10.2027
            8240         83.9544         95.8035         45.1180         7.23125
            8241         81.5733         92.3743         45.6682        -9.20474
            8242         74.1262         83.5813         46.1237        -8.87970
            8243         76.3037         86.9297         45.9290         7.03801
            8244         67.5240         71.4927         46.6846         14.2179
            8245         89.1625         102.662         45.7394        -2.16437
            8246         62.9869         54.2210         65.7160        -9.52231
            8247         60.7814         54.1227         56.2142         14.6918
            8248         65.9190         67.3070         46.0519        -16.2678
            8249         80.6468         93.0734         46.5547        -1.51822
            8250         62.4013         61.5244         46.7368        -16.3278
            8251         62.4114         50.5696         66.8917        -9.05707
            8252         73.1800         79.3654         46.2243         14.0045
            8253         62.8131         59.8314         61.7427         9.08628
            8254         60.8197         54.9488         61.9029         9.11386
            8255         62.6935         65.2008         51.5368        -11.3068
            8256         67.2728         72.4872         50.9695        -11.0751
            8257         64.4066         70.6153         48.6153        -8.77918
            8258         70.0286         78.0633         48.3754        -9.06070
            8259         77.1453         87.9184         44.2425         7.16667
            8260         69.6498         78.8344         44.9633         7.28443
            8261         85.0422         97.3907         37.8345     411.941E-03
            8262         75.8007         87.3526         40.8213        -2.21693
            8263         84.5345         97.0382         40.4600        -2.50451
            8264         81.8220         94.4659         48.4923    -362.776E-03
            8265         63.7215         64.8238         45.5556        -15.6639
            8266         61.9860         48.1754         65.8789        -10.8799
            8267         61.2591         51.4138         61.8519         12.4323
            8268         71.7976         77.2507         45.5379         14.5071
            8269         60.0142         47.6666         60.5965         13.4918
            8270         68.0623         71.3277         45.0178        -15.5912
            8271         66.8146         70.4898         45.9932         14.3998
            8272         62.5474         51.3811         65.7412        -10.4581
            8273         90.4799         104.340         47.6669    -646.013E-03
            8274         63.1097         50.9037         68.8751        -7.16183
            8275         63.7521         55.2068         67.8772        -7.22276
            8276         64.0063         68.7917         49.5800         10.2798
            8277         69.7438         77.7109         48.5607         8.95861
            8278         83.9999         95.6561         46.0955         7.96698
            8279         75.1171         84.9363         46.4105        -8.49329
            8280         82.6174         93.8165         45.7114        -8.62250
            8281         75.5446         85.6793         46.2135         7.95633
            8282         60.7548         55.5032         60.2107        -10.4417
            8283         70.0425         74.4471         45.3471         15.0908
            8284         90.0630         103.819         46.6595     141.766E-03
            8285         60.9978         49.4209         62.5133         12.3809
            8286         61.1452         48.3707         63.4990        -12.0882
            8287         65.2844         67.4602         46.1263        -15.2231
            8288         61.8246         52.3133         62.9342        -11.7924
            8289         65.9060         68.7199         46.0028         14.9021
            8290         69.7823         73.9433         45.5366        -15.2260
            8291         61.8753         52.5644         62.9075         11.7598
            8292         81.4012         93.9912         47.6190    -26.6169E-03
            8293         63.9232         69.9588         48.9703         8.55880
            8294         69.2705         77.3406         48.8056         8.35650
            8295         63.4365         64.0115         57.4780        -10.0375
            8296         60.7172         57.3473         58.0240        -10.9330
            8297         85.5193         98.0641         39.0360     632.237E-03
            8298         76.5025         88.1794         39.6331     595.090E-03
            8299         79.0833         89.1270         45.4188        -9.92821
            8300         76.7245         87.8933         44.8392         5.53564
            8301         85.2244         97.6051         44.4355         5.74639
            8302         72.0229         80.6062         46.0077        -9.69077
            8303         65.0277         67.2353         53.6198         12.0841
            8304         61.5283         60.3545         54.2642         12.5639
            8305         88.1560         101.361         45.3500         3.53762
            8306         63.6663         63.4950         45.9670         16.6081
            8307         64.3132         49.8130         71.3031         6.39095
            8308         60.3002         53.9418         54.2914        -15.3560
            8309         69.1474         74.5633         46.8440        -13.1676
            8310         58.1298         48.3438         53.7854        -15.8037
            8311         76.0426         83.8836         46.1870        -12.7424
            8312         60.7975         58.1124         47.0906         16.7164
            8313         79.3717         91.3896         45.8259         3.45415
            8314         64.8471         54.0334         70.8032         5.72066
            8315         71.7569         79.6048         46.5134        -10.8215
            8316         59.8481         54.9172         50.1663        -16.3731
            8317         86.9419         99.7943         44.9608         4.66733
            8318         61.7555         59.2931         48.1008         16.6976
            8319         85.4264         98.0157         39.6541        -1.27349
            8320         76.4785         88.1665         40.4943        -1.42475
            8321         62.8970         61.1157         60.1987         9.59352
            8322         60.6739         55.7870         60.4917         9.73875
            8323         62.8419         60.3674         59.8479         10.5825
            8324         60.7232         56.0861         59.3579         10.7618
            8325         65.6009         71.9070         48.0111        -9.66317
            8326         70.6827         78.5190         48.0680        -9.90846
            8327         58.8800         49.7135         54.3932        -15.7149
            8328         61.1075         53.8679         62.8714         9.42190
            8329         62.7549         57.5743         63.0401         9.64040
            8330         66.6033         71.2039         51.7084        -11.1668
            8331         62.1010         63.4187         52.6465        -11.5718
            8332         76.8143         88.5674         40.7695        -1.28370
            8333         86.0223         98.7144         39.8634    -658.436E-03
            8334         79.8858         92.1143         45.8061         2.44226
            8335         61.5985         59.8338         46.8913         16.5447
            8336         67.9973         72.4494         46.9103        -13.8174
            8337         59.2948         49.8575         55.7432        -15.2972
            8338         74.6130         81.7032         46.2425        -13.3100
            8339         60.7193         54.4345         55.2932        -15.0137
            8340         88.1649         101.401         44.6793         2.90087
            8341         64.9476         65.5378         46.3810         16.4469
            8342         72.8607         83.5669         42.7697        -4.83493
            8343         80.7908         92.6361         42.2488        -4.98359
            8344         74.9089         85.1284         45.1618        -7.51588
            8345         67.8764         76.4862         45.6925        -7.39617
            8346         62.8607         58.5975         63.1996         8.69766
            8347         72.5805         80.9015         46.4918         10.3705
            8348         71.0329         78.1671         46.6989         11.6206
            8349         78.5024         90.1427         45.8756        -4.75080
            8350         77.0422         88.1178         45.6062        -6.04285
            8351         86.7690         99.5471         45.1815        -5.01814
            8352         85.2078         97.5397         44.7379        -6.01719
            8353         77.6607         86.5057         46.0736         11.7018
            8354         79.9012         89.9458         45.8065         10.2602
            8355         63.3444         66.1850         50.7475        -11.7682
            8356         67.9552         73.3241         50.2839        -11.5475
            8357         73.4203         84.2139         42.8283         4.86609
            8358         81.8570         93.8876         41.9792         4.64653
            8359         60.9756         57.5346         48.9808         16.6008
            8360         60.6493         56.4873         50.0480        -16.4296
            8361         76.4803         85.1089         46.0208        -11.6128
            8362         71.0012         78.5112         46.5144        -11.0375
            8363         77.4412         88.9233         44.6824         4.71064
            8364         84.7166         97.1130         38.5223         1.00262
            8365         75.7527         87.2857         39.0005     969.361E-03
            8366         66.6181         73.8078         47.1334        -9.08542
            8367         73.6462         82.6986         46.3538        -9.47657
            8368         62.7131         58.6440         61.6926        -10.0951
            8369         61.1571         52.8362         62.3472        -10.8863
            8370         67.1557         70.8124         46.8188         14.3625
            8371         89.1501         102.656         45.3660        -1.68142
            8372         62.6699         55.2320         64.0387        -10.2139
            8373         61.4734         55.2774         57.6809         13.9613
            8374         67.5915         70.0116         46.7583        -15.8564
            8375         80.2550         92.6391         45.7238        -1.15528
            8376         63.0091         62.4437         47.4830        -16.1380
            8377         61.9775         50.0671         65.5347        -10.3414
            8378         72.1927         77.8144         46.4236         14.3059
            8379         60.2301         50.2976         59.0130         13.9463
            8380         61.3161         59.0254         46.8879         16.7806
            8381         60.1447         54.9030         51.4636        -16.1251
            8382         76.6409         84.9869         46.1241        -12.1596
            8383         70.5884         77.3010         46.7729        -12.0439
            8384         78.5799         90.2724         45.8037         4.56519
            8385         78.1472         89.1103         43.9701         7.09822
            8386         75.5693         85.9021         44.9269         7.58127
            8387         68.6149         77.3611         45.4797         7.59880
            8388         71.4367         81.2147         44.3718         6.88380
            8389         63.6874         67.5860         50.1458         10.9965
            8390         69.1582         76.0678         49.2300         10.2920
            8391         81.4277         93.9933         47.8550         1.10570
            8392         62.5991         52.7367         65.1779         10.4337
            8393         63.2018         63.4938         46.0133         15.9931
            8394         71.3533         76.4199         45.8269        -14.7566
            8395         60.0637         48.1203         60.3721        -13.5698
            8396         60.6050         51.8018         59.1441        -13.6050
            8397         62.1471         48.4824         66.2211         10.5994
            8398         89.8770         103.575         46.5694         1.26617
            8399         67.8546         70.7424         45.5381         15.7852
            8400         82.9271         94.2525         45.6973         8.41046
            8401         75.9515         86.1115         46.6587        -8.04676
            8402         83.6388         95.2293         45.7435        -7.96823
            8403         74.9194         84.5942         46.4633         8.72592
            8404         69.0084         72.5990         45.7069         15.4994
            8405         90.0922         103.853         46.7688     565.406E-03
            8406         61.6930         49.2494         64.7849         11.1662
            8407         60.4897         48.6690         61.3016        -13.1141
            8408         66.2381         69.0841         46.6123        -14.8586
            8409         61.5090         53.7699         60.2483        -12.9337
            8410         63.9978         64.8797         46.3145         15.7712
            8411         70.5748         75.1758         45.7261        -15.0113
            8412         62.2960         53.7246         63.5355         11.1223
            8413         81.0819         93.6235         47.0074     265.353E-03
            8414         76.4319         88.0920         41.2770        -2.16073
            8415         85.1730         97.7767         40.5815        -2.25243
            8416         85.0958         97.5816         38.9730         1.04546
            8417         76.2808         87.9190         39.5943     893.747E-03
            8418         64.4773         65.8914         54.5217         12.0491
            8419         61.2808         59.1642         55.1045         12.6312
            8420         83.0707         94.7010         44.8056         7.48448
            8421         75.1390         85.5039         45.2989         7.21551
            8422         73.9495         83.5358         45.7944        -8.53713
            8423         61.8454         50.9849         65.1305         10.0679
            8424         62.9058         54.8042         65.1933         9.59745
            8425         60.8010         57.4581         57.5428         11.4084
            8426         63.5381         63.8241         56.9649         10.8674
            8427         62.4393         64.2081         52.0457         11.6760
            8428         66.7904         71.6468         51.5020         11.0330
            8429         60.7588         58.2522         57.1819        -10.9471
            8430         64.0536         65.9604         55.7667        -10.3370
            8431         60.7120         56.4311         58.9651        -10.8330
            8432         63.2042         62.6701         58.2290        -10.4217
            8433         75.7275         87.2097         41.6681        -2.98615
            8434         84.5840         97.1003         40.9546        -2.91043
            8435         76.8187         88.1474         44.3669         4.95159
            8436         77.1451         86.2320         45.8353        -11.0603
            8437         71.1281         79.0414         46.2986        -10.4501
            8438         85.8655         98.4893         43.9333         4.81526
            8439         75.6612         86.4143         44.8618         6.35869
            8440         80.6422         91.2858         45.2656        -9.18713
            8441         72.8972         82.1126         45.6901        -8.86324
            8442         84.0046         96.0896         44.0713         6.22001
            8443         60.9686         53.6920         61.1280        -11.2514
            8444         62.7281         59.4391         60.0078        -11.0707
            8445         71.2887         80.3034         47.2582         8.06433
            8446         65.1655         71.6655         48.0838         9.02765
            8447         61.4057         53.5138         64.5602         8.03682
            8448         62.9634         58.8442         63.9056         7.70938
            8449         65.4225         71.0538         48.4050        -10.4527
            8450         70.3111         77.5154         48.4179        -10.7061
            8451         61.0680         58.9403         55.8507         11.9429
            8452         63.9776         64.5761         55.5251         11.9111
            8453         84.8826         97.3737         39.3237         1.43199
            8454         75.9803         87.5706         39.6413         1.20854
            8455         77.3293         89.1889         40.9730    -482.664E-03
            8456         86.5087         99.3313         40.5704    -579.447E-03
            8457         79.7411         91.9806         45.3391         2.07348
            8458         62.4412         61.2342         47.5767         16.3203
            8459         67.1070         70.8675         47.1936        -14.1232
            8460         59.9071         51.4261         56.1659        -15.0334
            8461         72.9890         79.1843         46.4588        -13.8760
            8462         88.4201         101.731         44.5989         2.37589
            8463         65.1686         65.7173         47.0960         16.3826
            8464         60.8004         56.3323         58.3840         11.5985
            8465         63.1133         61.8798         58.2961         11.0014
            8466         73.9101         84.8363         42.6992        -4.64530
            8467         71.7872         82.2006         43.1418        -5.21284
            8468         80.0903         91.7064         42.8317        -5.70922
            8469         81.8588         93.8449         42.2477        -4.96214
            8470         73.2561         82.0381         46.4053         9.82797
            8471         70.8820         78.2182         46.5790         11.2530
            8472         76.5029         87.1909         46.0278        -6.95442
            8473         77.8223         89.3661         45.0590        -4.70606
            8474         86.3968         99.1323         44.3814        -4.72993
            8475         84.9378         97.0987         45.2548        -6.64488
            8476         76.9808         85.7705         45.9742         11.5336
            8477         81.0123         91.5519         45.7424         9.60343
            8478         63.9482         66.9684         50.1034        -12.2419
            8479         69.1239         75.2958         49.3106        -11.4018
            8480         60.5087         55.8284         50.9861         16.2417
            8481         60.4846         56.7956         48.5785        -16.6516
            8482         67.8852         75.7863         46.3374        -8.74489
            8483         75.3465         85.1181         45.4980        -8.84368
            8484         67.5577         71.7749         47.1423         13.8280
            8485         66.2058         68.9878         46.8730         14.8377
            8486         62.4343         54.3755         63.6027        -10.8700
            8487         89.3380         102.902         45.2001    -429.264E-03
            8488         88.2814         101.565         44.1712        -2.11266
            8489         62.8456         56.1379         64.3323        -9.50339
            8490         61.6315         54.2337         60.2181         12.8684
            8491         61.4572         55.8213         56.3884         14.4797
            8492         68.1268         71.0126         46.1751        -15.7623
            8493         66.2319         67.5793         47.1554        -16.1534
            8494         79.8942         92.1934         45.3226        -1.60924
            8495         62.4013         61.2326         47.3910        -16.3346
            8496         62.1569         51.2124         66.2399        -9.04349
            8497         61.1730         49.8463         62.9302        -12.0293
            8498         80.6404         93.1034         46.2683    -732.922E-03
            8499         63.7469         64.1500         46.8539        -15.9043
            8500         72.8462         79.0222         46.5638         13.8257
            8501         60.1828         51.5530         57.4141         14.4654
            8502         60.5325         50.1740         60.3299         13.3422
            8503         71.6415         76.8494         46.1390         14.6472
            8504         63.1089         65.1018         51.1448         12.3601
            8505         68.0463         73.2735         50.1765         11.8352
            8506         60.8483         57.0755         57.5455        -11.8019
            8507         63.7667         64.5564         56.3597        -10.9640
            8508         76.1504         87.7410         41.4426        -2.52467
            8509         75.2512         86.6080         41.8866        -3.41660
            8510         85.2363         97.8606         41.0598        -2.63124
            8511         83.8953         96.3059         40.9345        -3.17283
            8512         75.9333         86.9427         44.3934         5.64926
            8513         78.2302         88.0690         45.4154        -10.0158
            8514         71.1715         79.5186         45.9864        -9.73324
            8515         84.7920         97.1455         43.7478         5.43038
            8516         60.8491         54.5489         59.6647        -11.8574
            8517         62.9593         60.9316         58.6095        -11.3624
            8518         61.5534         52.6964         61.6314         12.3995
            8519         81.0631         93.6004         46.9800    -374.080E-03
            8520         66.3916         69.4404         46.3797         14.7809
            8521         63.7313         64.4206         46.1947        -15.8494
            8522         61.5234         48.9728         64.3676        -11.4872
            8523         68.5599         71.8758         45.6528        -15.6150
            8524         62.3875         52.7352         64.4994        -10.8384
            8525         60.4864         48.8016         61.1798         13.1620
            8526         89.9417         103.664         46.3991    -302.763E-03
            8527         71.2989         76.3330         45.7889         14.7805
            8528         70.6938         79.1083         47.8523         8.85351
            8529         72.0353         81.5061         46.6406         7.57162
            8530         65.5663         72.9283         47.3333         7.99785
            8531         64.8363         70.4650         48.7097         9.96869
            8532         62.3456         54.7060         62.9944         11.1370
            8533         80.5471         92.9994         46.0710     574.473E-03
            8534         64.1880         64.9575         47.1067         15.7216
            8535         65.2614         67.1649         46.7613        -15.2973
            8536         60.3588         49.6685         60.0739        -13.5540
            8537         70.2999         74.6586         46.0749        -15.1124
            8538         61.8603         54.8888         60.4900        -12.5843
            8539         68.9493         72.3746         46.3100         15.5239
            8540         89.5705         103.196         45.6441     379.891E-03
            8541         61.3259         50.0628         63.3876         11.6898
            8542         76.8727         87.3658         44.6238         7.83018
            8543         69.9005         78.7706         45.3478         8.10204
            8544         87.6052         100.648         45.1839         4.11222
            8545         62.8135         61.6500         46.8600         16.7120
            8546         60.8478         55.4192         53.7371        -15.5087
            8547         69.4785         75.3207         46.8649        -12.7493
            8548         78.6093         90.4089         45.3272         4.04471
            8549         59.2666         51.1237         53.7464        -15.8948
            8550         61.0122         58.0055         48.1313         16.6645
            8551         62.5543         63.9435         51.9714        -12.1995
            8552         66.0104         69.7380         52.3766        -11.5948
            8553         76.1168         86.4154         44.9051        -7.96160
            8554         68.5382         77.0673         45.7131        -7.98796
            8555         74.2183         84.1688         45.3813        -7.83578
            8556         82.2063         93.5388         44.8680         8.00268
            8557         74.2950         84.3675         45.2099         7.57606
            8558         82.3056         93.6146         45.0382        -8.13034
            8559         61.2416         51.9982         62.7070        -11.1833
            8560         62.6197         58.1521         61.2818        -10.7666
            8561         63.1536         65.1925         51.0791        -12.3722
            8562         67.7439         72.2165         50.3082        -12.5986
            8563         69.1798         75.5510         46.8803        -11.8600
            8564         61.9298         59.1122         49.5143         16.4952
            8565         86.7311         99.5995         43.8956         3.97392
            8566         61.3428         57.8148         50.0609        -16.4170
            8567         77.8872         89.5632         44.5427         4.08991
            8568         75.6717         84.1588         46.1161        -11.5165
            8569         64.4906         68.4912         49.4767         11.6729
            8570         69.8389         76.4366         48.7664         11.3180
            8571         84.0597         96.4536         39.3520         1.80651
            8572         75.1703         86.6328         40.0194         1.89432
            8573         74.4733         85.8100         40.4946        -2.44572
            8574         83.1499         95.4609         39.8128        -2.35454
            8575         66.4714         69.8600         51.5734         12.6639
            8576         62.1282         61.5091         52.7712         13.3872
            8577         63.2693         55.1393         66.3552        -8.53273
            8578         62.6001         51.0679         67.5539        -8.10646
            8579         61.8077         52.0434         65.2918        -9.06753
            8580         62.9303         57.2193         64.2529        -8.83636
            8581         59.7438         61.6752         55.4601        -6.06038
            8582         64.2517         69.9482         54.2967        -5.33402
            8583         66.3117         72.8792         47.5933        -9.82000
            8584         72.7963         81.3394         46.8658        -9.98069
            8585         72.1091         77.6723         46.4155        -14.3472
            8586         80.2441         92.5969         45.9257         1.66738
            8587         61.2068         54.5796         57.5389        -14.1076
            8588         63.0172         62.4869         47.4069         16.1395
            8589         66.5482         68.1621         46.9799         16.1010
            8590         88.6674         102.049         44.5813         1.81548
            8591         67.1028         70.7371         46.9496        -14.3279
            8592         60.0182         50.3607         58.0376        -14.3809
            8593         82.4050         94.5452         41.7299        -4.31132
            8594         74.0055         85.0828         42.0781        -3.97020
            8595         57.8787         49.0989         51.8721         16.2828
            8596         59.1352         54.6134         47.3424        -16.9172
            8597         61.6776         60.7570         53.8660        -12.7004
            8598         65.4629         68.0177         52.9120        -12.3592
            8599         62.4042         62.2244         52.2211        -13.4758
            8600         66.3589         69.7197         51.7385        -12.5563
            8601         87.8028         100.933         44.6881         3.43265
            8602         64.4359         64.5504         46.7059         16.5195
            8603         68.3408         73.2281         46.9987        -13.4270
            8604         61.1743         55.7743         54.7445        -15.1427
            8605         75.5057         83.1788         46.2161        -12.7890
            8606         79.3410         91.4131         45.4232         3.03551
            8607         62.7223         59.5357         59.1119         11.7564
            8608         60.9455         54.0605         61.1878         10.8890
            8609         75.3399         85.2664         45.3680         8.48240
            8610         69.0571         77.1993         46.0170         9.01964
            8611         76.5948         86.7446         45.0214         8.57470
            8612         70.2201         78.7615         45.6914         8.91658
            8613         71.8858         77.5850         46.9052         13.9903
            8614         60.3702         52.3684         57.2977         14.3721
            8615         79.1661         91.3281         44.3089        -1.80883
            8616         62.3887         60.7388         48.9524        -16.1258
            8617         66.4663         67.9440         48.1853        -15.8479
            8618         87.6920         100.832         43.3399        -2.19925
            8619         67.2866         71.5822         47.4316         13.5274
            8620         76.2552         87.9014         40.2343         1.42037
            8621         84.5267         96.4663         45.6737        -7.27802
            8622         73.8599         83.0050         46.3754         9.38364
            8623         82.0345         92.9983         45.7247         8.99173
            8624         76.5605         87.0911         46.5373        -7.39152
            8625         87.0685         99.9898         44.5406        -4.19189
            8626         76.5466         84.8892         46.1158         12.1280
            8627         69.9514         76.5512         46.7599         11.9184
            8628         75.6061         87.1384         39.7765         1.53580
            8629         84.6138         97.0979         39.7166         1.86803
            8630         58.6124         49.3424         53.9709         15.8213
            8631         85.9758         98.6564         43.6502        -4.46408
            8632         70.1640         77.2151         46.6327         11.3573
            8633         77.4418         88.9791         44.4314        -4.44492
            8634         70.0789         76.7149         48.6007        -11.4347
            8635         72.4417         80.5025         47.1561        -10.6400
            8636         77.1738         88.9994         40.6157    -123.019E-03
            8637         86.2442         98.9857         40.0529    -327.249E-03
            8638         72.6143         82.9497         43.6887        -5.98463
            8639         81.4496         93.2219         42.9363        -5.85347
            8640         59.2418         53.5880         50.5666         16.2346
            8641         61.5528         57.8634         51.1209         16.1787
            8642         59.5200         55.7635         47.1701        -16.7174
            8643         61.6238         58.6087         49.3096        -16.5433
            8644         68.6889         73.8137         46.9194         13.3113
            8645         65.6271         67.8512         47.2150         15.0275
            8646         62.4879         56.2476         62.3991        -10.9102
            8647         88.7909         102.211         44.1930    -470.518E-03
            8648         88.3904         101.688         44.7959        -2.64104
            8649         61.9621         56.2257         58.9945         13.0974
            8650         68.4451         71.4856         47.0106        -15.5469
            8651         65.2701         65.9597         46.8193        -16.3875
            8652         79.9298         92.1781         45.7893        -2.31508
            8653         61.7917         59.9550         47.4338        -16.5080
            8654         61.1117         51.3674         62.1640        -11.9005
            8655         79.7920         92.1109         44.8501    -817.444E-03
            8656         63.6882         63.8232         47.6083        -15.8614
            8657         73.7696         80.4010         46.3309         13.6154
            8658         59.6839         50.8636         55.9237         15.1886
            8659         60.5825         51.3491         59.6394         13.4050
            8660         71.2422         76.3129         46.7354         14.5385
            8661         63.0212         63.8508         51.2264         13.4344
            8662         67.4391         71.3065         50.4170         13.1225
            8663         84.0226         96.4353         41.4661        -3.62351
            8664         72.3049         81.5241         46.7177         8.32429
            8665         65.9909         73.0746         47.3959         8.79321
            8666         59.9720         52.6544         54.4738        -15.5461
            8667         61.2464         58.0823         49.1648         16.4924
            8668         73.5789         83.2074         45.4882        -8.28982
            8669         74.8338         85.0814         45.2915        -7.38004
            8670         81.3466         92.3713         44.9521         8.49327
            8671         83.1740         95.0132         44.1388         6.73166
            8672         74.4949         84.8619         44.7637         6.90145
            8673         73.8824         83.6606         45.4422         8.08790
            8674         81.0544         92.0272         44.8645        -8.49977
            8675         82.9418         94.4218         45.1835        -7.92916
            8676         60.9680         52.9459         61.0187        -11.8496
            8677         62.6001         58.8089         59.3807        -11.9210
            8678         63.6564         65.9872         50.4577        -12.6676
            8679         68.2737         73.3880         49.9276        -12.2041
            8680         70.4062         77.9919         46.3961        -10.6493
            8681         68.9252         74.7848         46.9862        -12.4374
            8682         85.3116         97.8953         42.8162         4.19710
            8683         63.0236         61.2848         49.2234         16.4302
            8684         86.8964         99.8267         43.5469         3.48422
            8685         61.6937         58.2324         50.8687        -16.2243
            8686         77.7634         89.5030         43.9308         3.57716
            8687         76.8907         88.3263         44.0067         4.50926
            8688         76.3679         85.3201         45.8918        -10.9844
            8689         74.9207         82.8690         46.3334        -12.0922
            8690         67.2842         74.5572         46.8967        -9.40879
            8691         74.7203         84.0286         45.9341        -9.52460
            8692         83.2846         95.5743         41.5405        -3.93573
            8693         74.7754         85.9990         42.1201        -3.81761
            8694         60.4272         55.9577         49.8208         16.5924
            8695         85.9817         98.7008         40.3124        -1.26277
            8696         64.2443         67.5149         49.7930         12.2678
            8697         69.2351         75.1270         49.1850         11.9078
            8698         65.9371         68.2437         51.8184         13.4367
            8699         62.0553         60.3401         52.3675         14.4620
            8700         61.1213         57.9662         55.8060         12.8619
            8701         63.6317         63.0626         55.8160         12.6040
            8702         65.1349         69.8026         48.8697         11.4474
            8703         70.8435         78.0552         48.0900         11.0636
            8704         83.2789         95.6068         39.8876         2.39614
            8705         74.6856         86.0617         40.3789         2.30581
            8706         61.5382         50.8499         64.0028         10.9455
            8707         70.3365         74.6976         46.3908         15.0628
            8708         89.0475         102.535         44.6127     68.9003E-03
            8709         60.7581         51.2052         60.5742         12.9364
            8710         60.6732         50.1995         60.8860        -13.0459
            8711         64.3921         65.3272         47.3593        -15.5954
            8712         62.1856         56.4371         60.2086        -12.3130
            8713         65.1758         66.9602         46.9520         15.3149
            8714         69.0434         72.5266         46.4429        -15.4735
            8715         80.1327         92.5217         45.3100    -215.072E-03
            8716         62.1829         55.0951         61.8906         11.6999
            8717         77.1617         87.7499         44.5010        -7.71355
            8718         69.7664         78.7796         45.1802        -7.72774
            8719         60.8204         54.8050         58.2259        -12.8626
            8720         63.2562         61.7751         56.6882        -12.5638
            8721         71.3071         79.3989         47.6684         9.88373
            8722         65.2614         70.7199         48.5522         10.5519
            8723         75.1723         86.0539         43.9933         5.65622
            8724         77.8575         87.7914         45.2678        -9.65080
            8725         83.9210         96.1309         43.2397         5.43419
            8726         69.2568         77.7651         45.7012        -8.45481
            8727         77.3548         87.7404         44.7563        -8.35053
            8728         86.7289         99.6182         41.0430    -861.095E-03
            8729         77.5464         89.4487         41.4584    -812.076E-03
            8730         84.2357         96.6548         41.9950        -4.03905
            8731         75.6683         87.0329         42.5000        -3.81265
            8732         62.4044         56.1164         62.0510         11.2103
            8733         61.1911         51.3258         62.5478         11.6633
            8734         60.9974         56.7652         56.3519         13.1870
            8735         63.6713         62.8519         55.1292         13.2843
            8736         61.2876         58.3196         54.9498         13.4184
            8737         64.1075         64.0466         54.3334         13.3612
            8738         75.5429         87.0551         40.6161         2.18358
            8739         83.8584         96.2587         39.9879         2.35606
            8740         66.5309         74.4353         46.6086         7.80398
            8741         73.0862         82.8463         46.0476         7.58434
            8742         66.3473         73.1597         47.4429         9.48155
            8743         72.8238         81.8108         46.6564         9.13744
            8744         80.3043         91.8249         43.2058        -6.26101
            8745         71.5181         81.6594         43.7011        -5.92731
            8746         81.8435         93.5676         43.3738        -6.33901
            8747         73.4639         83.8338         44.0572        -6.35831
            8748         86.1134         98.8142         39.8080     251.916E-03
            8749         76.9513         88.7268         40.2468     264.910E-03
            8750         78.6168         89.1331         44.7107        -8.60331
            8751         70.0936         78.7309         45.5956        -8.66753
            8752         77.9435         88.3370         44.7774         8.60707
            8753         71.2064         80.2480         45.3264         8.43566
            8754         70.7984         75.9470         47.4320         14.1067
            8755         60.5198         52.6160         57.9811         13.9419
            8756         78.9847         91.1496         43.7070        -1.14112
            8757         63.3042         62.8851         48.8196        -15.7009
            8758         67.0733         69.1256         48.4096        -15.5277
            8759         62.4596         58.7984         56.2916         13.9650
            8760         87.9709         101.181         43.2553        -1.51458
            8761         65.8525         68.6917         47.9647         14.2848
            8762         84.5511         96.4155         46.1362        -7.58576
            8763         82.5113         93.5221         46.2086         9.09251
            8764         76.5725         86.9454         46.9893        -7.77491
            8765         58.6516         50.2739         52.7178         16.1628
            8766         60.2385         56.7645         47.4625        -16.8123
            8767         85.2164         97.7011         43.6003        -5.00469
            8768         77.8189         87.5206         45.4612         10.1326
            8769         70.5603         78.2190         46.3637         10.6062
            8770         76.3049         87.4721         44.2926        -5.27906
            8771         59.1908         50.2052         54.8482         15.5812
            8772         61.0911         58.4945         47.4869        -16.6657
            8773         65.1441         69.9454         48.8317        -11.2904
            8774         70.1256         76.3521         48.5354        -12.0839
            8775         64.4176         68.2523         49.5657        -11.7964
            8776         61.0752         58.3053         47.5599        -16.7504
            8777         63.5935         65.4306         50.5188         13.1186
            8778         68.3880         73.1042         49.6745         12.8654
            8779         60.4066         53.8195         54.9603        -15.1626
            8780         62.1714         60.1421         49.5152         16.0665
            8781         73.8566         83.8752         45.0134        -7.50661
            8782         81.0862         92.1917         44.6041         8.12936
            8783         73.2689         83.0176         45.1265         7.88038
            8784         82.0989         93.4350         44.7638        -7.93387
            8785         68.6547         74.0189         47.0239        -12.9625
            8786         63.9738         63.5513         47.2928         16.5609
            8787         87.3902         100.431         44.0686         3.39225
            8788         61.4323         56.8921         53.3132        -15.5780
            8789         78.6760         90.6172         44.6628         3.20856
            8790         74.8445         82.3449         46.3264        -12.7753
            8791         83.1493         95.4517         40.9877        -3.42213
            8792         74.7088         86.0206         41.3400        -3.10710
            8793         59.4216         52.7113         51.6549        -16.4014
            8794         59.5324         54.0423         49.6990         16.7272
            8795         64.1934         67.0186         49.8632         12.7112
            8796         68.8698         74.2785         49.4086         12.3092
            8797         66.8681         69.7173         50.5406         13.9050
            8798         65.2532         66.7644         52.6205         13.4755
            8799         61.7142         59.3491         53.2219         14.2878
            8800         62.4407         61.7019         51.8882         14.1531
            8801         64.7647         68.5376         49.2891         12.1902
            8802         70.0320         76.3410         48.6087         11.8962
            8803         82.6599         94.9185         39.8232         2.39416
            8804         73.7834         85.0350         40.1707         2.25580
            8805         86.3367         99.1522         40.9970        -1.53442
            8806         77.3486         89.1995         41.6252        -1.47705
            8807         76.5533         88.2535         40.7973         1.61451
            8808         85.6755         98.3436         40.2676         1.57121
            8809         78.0168         89.0643         43.8064        -6.75178
            8810         70.0959         79.6988         44.4012        -6.55216
            8811         78.2513         89.1190         44.1429        -7.44854
            8812         70.2514         79.6166         44.7786        -7.22143
            8813         70.2021         74.4950         46.6090        -15.0396
            8814         61.9641         56.3212         58.8204        -13.1716
            8815         69.5895         73.4984         46.9790         15.1276
            8816         89.0199         102.500         44.6199     559.094E-03
            8817         80.0367         92.4064         45.1783     452.460E-03
            8818         64.6294         65.8098         47.3967         15.4784
            8819         65.6722         67.9512         47.2890        -14.9729
            8820         60.5687         51.1885         59.6961        -13.4218
            8821         61.3531         59.3291         54.8752        -12.7629
            8822         64.9106         66.9540         53.8005        -12.0860
            8823         86.8650         99.7975         41.4451        -1.21227
            8824         77.8050         89.7508         42.0250        -1.16846
            8825         76.0205         83.9932         46.1754         12.5234
            8826         87.6003         100.673         44.6289        -3.64818
            8827         79.0754         90.9887         45.7291        -3.81457
            8828         69.6002         75.7256         46.8515         12.4180
            8829         60.7912         53.1713         59.4755        -12.8250
            8830         62.7317         59.6477         57.3954        -12.9960
            8831         84.3194         96.2811         45.1824        -7.03506
            8832         81.6247         92.5864         45.3186         8.80275
            8833         73.9339         83.3381         46.0499         8.90890
            8834         75.6386         85.8221         46.2162        -7.87813
            8835         59.3035         51.3643         53.5047         15.9593
            8836         60.5799         56.8748         48.5859        -16.7123
            8837         72.5717         81.9377         45.3490         8.40882
            8838         74.5262         84.8483         44.8832        -7.03986
            8839         83.3290         95.1685         44.3071        -6.83616
            8840         72.0639         81.5213         45.0400         7.97058
            8841         73.5891         83.6981         44.6767        -7.14914
            8842         82.2994         93.9735         43.8922        -6.83998
            8843         80.0994         91.0833         44.3737         8.00882
            8844         71.1663         80.9671         44.2629        -6.67356
            8845         79.1512         90.4341         43.4794        -6.53581
            8846         58.9207         52.6434         51.2147         16.0571
            8847         60.1658         57.1884         46.5766        -16.7697
            8848         60.5981         55.2116         52.9155         15.7618
            8849         63.0615         62.1172         46.7905        -16.6867
            8850         70.5887         76.7492         48.1832        -12.4997
            8851         84.8658         97.4072         41.9579        -3.67735
            8852         76.3830         87.9298         42.4631        -3.33489
            8853         60.8833         56.2822         57.5379         12.4746
            8854         63.0397         61.2088         58.0388         11.7115
            8855         65.8840         71.9292         48.0084         10.2517
            8856         72.5855         81.1432         46.9372         9.83157
            8857         82.9612         94.9693         43.1567        -5.75780
            8858         74.2957         85.0494         43.6124        -5.58626
            8859         85.7947         98.4065         39.3391     430.884E-03
            8860         76.6537         88.3598         39.7253     342.822E-03
            8861         76.5756         86.1497         45.5159        -9.85804
            8862         69.8016         77.8921         46.0430        -9.51334
            8863         77.2905         87.2291         45.2187         9.39076
            8864         79.1833         90.1595         44.1113         7.58276
            8865         70.9596         79.3925         45.8729         9.48212
            8866         71.7022         81.3103         44.7147         7.44333
            8867         60.7086         52.7170         59.1748         13.2201
            8868         69.6998         73.8843         47.5170         14.7430
            8869         71.6254         77.5784         47.3301         13.4591
            8870         60.3716         52.9131         56.5117         14.6238
            8871         78.7064         90.7972         43.5613        -1.65636
            8872         62.3220         60.4815         49.9241        -15.8438
            8873         79.2664         91.4980         43.9677    -597.898E-03
            8874         63.9596         64.3669         48.1147        -15.5960
            8875         68.3605         71.4780         47.8793        -15.2090
            8876         65.9015         66.9028         49.0065        -15.7486
            8877         62.2975         57.7021         58.5391         12.9416
            8878         62.6762         59.6084         55.0333         14.4560
            8879         88.4228         101.747         43.6600    -847.308E-03
            8880         87.4464         100.529         42.6755        -1.80499
            8881         66.6002         70.4388         47.7881         13.6186
            8882         65.4227         67.5906         47.8623         14.7860
            8883         84.8079         97.1066         44.1537        -5.79532
            8884         76.1398         85.2028         45.8499         10.6782
            8885         79.1584         89.1623         45.4830         10.0466
            8886         69.4156         76.5378         46.6128         10.8839
            8887         72.0808         80.3818         46.2794         10.2086
            8888         76.6620         87.7816         44.9296        -5.67966
            8889         76.6405         88.0469         43.7575        -4.45374
            8890         74.4509         81.5971         46.3387         13.1489
            8891         79.2351         91.2829         45.3214        -3.09204
            8892         88.0358         101.233         44.7118        -3.12934
            8893         69.1651         74.7937         46.9049         12.8820
            8894         60.1678         52.7357         55.4864        -15.1271
            8895         62.6091         61.3605         48.3358         16.1695
            8896         58.0042         50.1035         50.7706        -16.5354
            8897         58.3258         52.4044         48.2629         16.8875
            8898         79.6065         90.5979         44.1903        -7.74552
            8899         71.4864         80.9897         44.8112        -7.57596
            8900         61.4923         58.9785         54.2087        -13.6796
            8901         64.7298         65.7034         53.4686        -13.2563
            8902         87.2423         100.263         41.7845    -830.577E-03
            8903         78.1490         90.1701         42.3166    -733.712E-03
            8904         68.0889         75.8197         46.4291         9.16596
            8905         73.9443         83.2031         46.1533         9.21910
            8906         67.4451         76.1247         45.6603         6.94945
            8907         74.0723         84.3888         45.2278         6.74323
            8908         67.8512         72.7492         47.2868        -13.1069
            8909         87.1038         100.097         43.2652         2.97415
            8910         61.6454         57.0708         54.3106        -15.1985
            8911         78.0807         89.9419         43.8126         3.05978
            8912         74.1021         81.4466         46.5292        -12.6787
            8913         60.7545         53.9186         58.3334        -13.2459
            8914         63.0936         60.9840         56.1898        -13.3059
            8915         79.4870         91.7606         44.2922     468.668E-03
            8916         64.0569         64.5800         47.9168         15.6116
            8917         69.7605         73.9822         47.4871        -14.7347
            8918         65.3065         67.2865         47.7406        -14.9510
            8919         60.6929         52.5704         59.2154        -13.2475
            8920         62.2347         57.6933         57.8221        -13.3815
            8921         68.1168         70.9722         47.6957         15.4167
            8922         88.3605         101.667         43.4455     517.876E-03
            8923         74.1385         85.4083         40.7225         2.68738
            8924         83.0707         95.3779         40.4105         2.89013
            8925         65.2795         66.4014         52.0489         14.1339
            8926         61.8811         59.6889         52.5583         14.6205
            8927         62.3405         56.8332         60.7574         11.8025
            8928         61.0388         52.4069         61.5510         11.7816
            8929         75.4340         86.5319         43.5084         4.97985
            8930         84.4968         96.9364         42.3963         4.29516
            8931         78.6836         89.0210         44.9557        -9.08023
            8932         74.4020         85.1625         43.6824         5.62587
            8933         82.4546         94.3735         43.0935         5.83793
            8934         71.1020         80.0235         45.4367        -8.62643
            8935         63.6755         63.0104         55.4235        -12.9711
            8936         71.9955         81.4423         45.0328        -7.96082
            8937         80.7286         91.9959         44.0456         7.43548
            8938         73.4586         83.5610         44.6188         7.10135
            8939         79.7605         90.5918         44.5249        -8.28619
            8940         67.7465         74.8985         46.8538        -9.89611
            8941         75.2282         84.3078         45.9553        -10.2302
            8942         77.8241         89.7850         41.7484    -481.501E-03
            8943         87.0266         99.9862         41.3407    -526.261E-03
            8944         76.2461         87.8832         40.8720         1.95443
            8945         85.4392         98.0816         40.4819         1.96724
            8946         87.1692         100.161         43.7967        -3.40968
            8947         75.1718         82.8482         46.2733         12.6414
            8948         68.7339         74.4278         47.0333         12.5605
            8949         78.8126         90.7415         45.0532        -3.45454
            8950         63.3311         61.6637         55.1979         13.7273
            8951         60.9093         55.7703         55.6992         14.1842
            8952         60.2583         54.1825         53.0473        -15.8696
            8953         60.9593         56.8796         50.7356         16.2528
            8954         76.8315         88.5878         40.7632         1.26011
            8955         85.9231         98.6213         40.1402         1.16271
            8956         62.3716         61.5304         52.0320        -14.1238
            8957         66.0495         68.4709         51.7019        -13.4320
            8958         86.5276         99.4002         41.6984        -2.05664
            8959         77.4561         89.3061         42.1483        -1.95727
            8960         69.9236         75.3748         48.4723        -13.0636
            8961         63.9647         65.9929         50.0477        -13.3472
            8962         86.4438         99.2385         40.3288     22.0285E-03
            8963         77.3165         89.1733         40.9590     505.682E-03
            8964         86.2146         98.9609         40.1772     696.824E-03
            8965         77.1027         88.9147         40.8554     909.424E-03
            8966         86.7963         99.6993         41.0704     720.822E-03
            8967         77.7694         89.7201         41.6394     380.559E-03
            8968         64.6079         64.9109         52.9194         14.0871
            8969         61.4939         58.3507         53.3895         14.6238
            8970         65.1761         65.8497         51.4960         14.7298
            8971         61.4744         58.1065         52.7524         15.1126
            8972         74.5749         85.8531         41.4147         3.21746
            8973         83.4954         95.8450         41.0328         3.38246
            8974         59.9023         53.4597         52.5297         16.1163
            8975         60.2803         55.5945         49.9291        -16.5915
            8976         68.1007         73.5465         47.2453        -12.5329
            8977         63.3358         61.6753         50.3353         16.1078
            8978         86.4281         99.2764         42.5949         3.07376
            8979         62.0534         58.3994         53.0128        -15.5530
            8980         74.1435         82.0072         46.5466        -11.8694
            8981         72.4650         82.3874         44.4680         7.06393
            8982         72.8251         82.7462         44.6247        -7.25070
            8983         80.8519         92.1623         43.9947        -7.35412
            8984         80.1175         91.2818         44.0213         7.45912
            8985         61.2617         56.5088         53.3099         15.6022
            8986         63.1528         61.8380         48.1086        -16.5816
            8987         67.0667         71.5116         47.6439        -13.1806
            8988         64.9482         65.0667         48.5846         16.1798
            8989         87.3883         100.455         43.0994         2.41360
            8990         61.9371         57.5151         55.2996        -14.7279
            8991         79.0590         91.1744         44.3951         2.18454
            8992         73.2139         79.8895         46.6954        -13.2660
            8993         85.8330         98.5690         41.7385        -2.79814
            8994         84.5030         96.9337         42.5013        -4.39912
            8995         76.7292         88.4053         42.0574        -2.65492
            8996         76.4519         87.9168         43.1526        -3.96739
            8997         64.3180         64.2219         47.0877        -16.5243
            8998         60.7685         54.9941         54.3155         15.3332
            8999         82.5728         94.6117         42.5958        -5.24572
            9000         74.5282         85.5150         43.0124        -4.82294
            9001         76.1987         85.9478         45.4068         9.31042
            9002         60.7477         54.1911         57.7698         13.5014
            9003         69.6260         73.9496         47.8719         14.4641
            9004         60.4122         53.9880         54.6564         15.2578
            9005         72.5733         78.9415         46.9169         13.3868
            9006         78.8851         90.9676         44.1808        -2.22394
            9007         61.5798         58.7900         49.3238        -16.3576
            9008         78.7850         90.9311         43.1940    -433.399E-03
            9009         63.9094         64.3891         48.9075        -15.2274
            9010         67.6102         70.2427         48.6131        -15.1502
            9011         65.3737         65.8674         48.7836        -16.0064
            9012         62.5918         59.1122         57.3891         13.1955
            9013         62.1107         58.1149         54.7390         14.8906
            9014         87.2804         100.320         43.1673        -2.63751
            9015         87.8129         100.979         42.6311    -753.553E-03
            9016         67.5983         72.3737         47.3923         13.1085
            9017         65.0546         67.1935         48.5560         14.4001
            9018         59.2272         53.5333         49.4362        -16.7788
            9019         58.7380         52.3171         49.7384         16.7465
            9020         61.1029         57.8813         55.9356        -12.8081
            9021         61.5721         58.7498         53.4686        -14.3986
            9022         63.8810         64.0200         55.5089        -12.3108
            9023         67.5601         74.1908         47.1550         10.5666
            9024         74.7291         83.7969         46.0632         10.0109
            9025         75.9395         86.8067         44.8431        -6.14233
            9026         79.3298         89.6759         45.1158         9.34179
            9027         72.3579         81.2155         45.8594         9.32949
            9028         83.9941         96.0570         44.1663        -6.32139
            9029         78.9307         91.1068         43.3844     77.1336E-03
            9030         64.7427         66.2677         48.4224         14.8808
            9031         68.8224         72.4539         48.0667        -14.8230
            9032         64.3813         65.3443         48.2663        -15.2684
            9033         68.7259         72.3127         48.1775         14.7976
            9034         87.9562         101.157         42.7242    -8.48252E-03
            9035         76.4318         87.8105         43.5746         4.42334
            9036         85.1607         97.7394         42.3852         3.89697
            9037         74.6059         85.5792         43.1358         4.93528
            9038         83.3156         95.4522         42.8741         5.31048
            9039         60.8946         55.7544         56.7779        -13.4349
            9040         63.5066         62.2174         55.0579        -13.6171
            9041         78.5557         90.4852         44.4680        -3.14804
            9042         74.2689         81.6641         46.4785         12.6782
            9043         67.8938         73.1604         47.3176         12.6483
            9044         86.8043         99.7289         43.0694        -3.13230
            9045         73.6665         82.4872         46.4540         9.94152
            9046         67.4178         74.3954         47.0303         9.95773
            9047         75.9603         87.5306         41.1146         2.36192
            9048         76.8982         88.6533         41.4371         1.86429
            9049         84.2367         96.7000         40.6994         2.83532
            9050         85.9931         98.7380         40.7481         1.69294
            9051         86.2256         99.0122         43.0011        -3.65084
            9052         75.1703         83.2129         46.2745         12.0484
            9053         68.1535         73.9073         47.2106         12.1516
            9054         77.8880         89.5678         44.5192        -4.06939
            9055         63.4196         61.7663         54.1754         14.3551
            9056         61.1154         56.8307         54.4832         14.5288
            9057         60.6728         55.8066         51.7978        -16.0671
            9058         60.5623         55.5475         51.6889         16.1422
            9059         62.9626         63.2127         51.1458        -13.9715
            9060         67.2093         70.9076         50.6472        -13.1064
            9061         87.0615         100.049         41.9576        -1.55697
            9062         78.1296         90.1185         42.7467        -1.62008
            9063         70.8876         76.6260         47.7879         13.3118
            9064         60.7839         55.2871         54.8923         14.8289
            9065         65.3246         65.8097         49.8565        -15.6180
            9066         62.1826         60.1538         50.8297        -15.5150
            9067         63.0518         60.7198         53.8096         14.8377
            9068         64.6021         67.1864         49.3859        -13.3979
            9069         72.4930         79.6396         47.1957        -12.1652
            9070         66.4553         71.5045         48.0192        -11.9882
            9071         73.6801         84.7874         41.5356         3.48023
            9072         62.8222         61.7432         49.0350         15.8908
            9073         60.3655         53.0013         56.3013        -14.7090
            9074         75.2970         86.3190         43.6435        -5.20187
            9075         83.9661         96.2136         43.0585        -5.22909
            9076         75.5802         86.5153         44.2385        -5.70758
            9077         71.5013         79.8176         46.0822         9.93635
            9078         78.2444         88.3237         45.1711         9.49313
            9079         84.3666         96.6317         43.5881        -5.54072
            9080         64.0226         65.0868         49.4918        -14.5421
            9081         68.9751         73.6023         48.9789        -13.4943
            9082         78.0882         90.1026         42.1154     311.316E-03
            9083         87.1781         100.178         41.5702     518.454E-03
            9084         60.8471         53.4487         59.7891         12.4703
            9085         62.5312         58.4726         59.3651         12.0848
            9086         67.5256         73.7938         47.2982        -11.0662
            9087         74.2839         82.7486         46.4032        -10.9134
            9088         62.5567         57.1782         61.9399         10.7867
            9089         60.8942         57.1265         49.5951        -16.5145
            9090         60.2794         53.9328         53.7887         15.6270
            9091         66.1365         72.0102         47.9692         10.6739
            9092         72.5175         80.7524         47.0737         10.3796
            9093         75.6982         84.6277         45.9562        -10.7324
            9094         68.6784         75.4176         46.8531        -11.0640
            9095         75.4644         84.4607         45.9572         10.5005
            9096         68.4535         75.1204         46.9248         11.0436
            9097         60.6114         53.2402         57.8272        -13.8319
            9098         62.5489         59.0393         56.7019        -13.6536
            9099         67.2912         72.6164         47.5813         12.1952
            9100         77.9606         89.8111         43.6130        -2.98166
            9101         86.5146         99.3856         42.4483        -2.83864
            9102         74.2470         82.1152         46.5136         11.9117
            9103         83.6763         95.9319         42.5485        -4.83673
            9104         63.5542         62.0101         52.7662         15.0737
            9105         60.9871         56.2699         54.0776         14.9631
            9106         68.4103         75.4605         46.7750         10.4475
            9107         75.7821         85.1188         45.7340         9.98234
            9108         64.6319         65.3443         53.4798         13.4401
            9109         61.5068         58.8943         54.0536         13.8588
            9110         66.1400         67.7820         50.4640         14.7652
            9111         62.6513         61.6098         50.8279         15.0270
            9112         75.6816         87.1694         41.4983         2.85597
            9113         84.1037         96.5406         41.1843         3.32457
            9114         59.5454         53.3929         50.9592         16.5214
            9115         59.7583         54.1222         50.5021        -16.5797
            9116         61.8675         58.0538         52.6938         15.7034
            9117         62.7814         60.8935         48.9886        -16.4995
            9118         72.4441         80.1652         47.2075         11.2180
            9119         66.7309         72.5545         47.7253         11.1629
            9120         66.7767         70.6587         47.6531        -13.6964
            9121         88.1671         101.424         43.7409         1.79446
            9122         65.6757         66.5288         47.5718         16.2176
            9123         61.2664         55.1338         56.7704        -14.3866
            9124         79.4261         91.6623         44.4532         1.30811
            9125         72.2345         78.1654         46.8353        -13.8485
            9126         63.4452         63.2118         48.4768         15.7466
            9127         85.5794         98.2103         43.0077        -4.19133
            9128         76.1268         84.7726         46.0230         11.4350
            9129         69.2723         75.9299         46.7949         11.4988
            9130         77.1767         88.7366         43.8552        -4.09660
            9131         60.5661         55.8760         50.8377        -16.3530
            9132         60.7519         55.6987         52.8252        -15.7081
            9133         61.2530         57.4778         51.4628         15.8932
            9134         60.3302         54.5245         52.7398         15.9263
            9135         70.1798         75.7202         48.2860         13.1192
            9136         66.1583         67.7656         50.3191        -14.8619
            9137         62.6644         61.5561         50.6107        -15.1836
            9138         64.7488         67.5346         49.2686         13.3095
            9139         72.8610         80.8125         46.9981        -11.0645
            9140         70.7764         76.6588         47.9434        -13.0312
            9141         65.4078         68.8739         48.7386        -13.1141
            9142         64.7084         66.8342         49.0764        -14.0458
            9143         63.4627         64.0725         50.3008        -14.3173
            9144         67.9394         71.5892         49.5554        -13.9362
            9145         69.4399         74.0184         48.4081        -13.9393
            9146         78.5340         90.6288         42.8792     699.475E-03
            9147         87.7620         100.915         42.5561     777.682E-03
            9148         64.6045         66.7770         49.2500         13.8778
            9149         62.8908         60.3486         57.6912         12.4714
            9150         63.5058         63.6268         49.6419        -15.0427
            9151         67.3736         70.1995         49.5614        -14.5383
            9152         60.8745         55.5690         56.8157         13.5026
            9153         69.2953         73.6573         48.3786         14.1349
            9154         85.2232         97.8386         40.6785         2.29412
            9155         76.3937         88.0329         41.5182         2.40922
            9156         61.0037         53.4010         61.3546         11.2811
            9157         61.7735         57.5057         53.8961         15.3144
            9158         63.9698         63.3793         47.9179        -16.4933
            9159         65.8267         71.1963         48.2804         11.1149
            9160         71.7513         79.5482         47.5232         10.6812
            9161         61.5431         55.9817         56.6218        -14.3452
            9162         77.4189         89.2688         42.0084         1.83517
            9163         86.3202         99.1419         41.2263         1.79808
            9164         64.8638         66.4754         48.2479        -14.9194
            9165         63.7321         63.9391         48.8797         15.3804
            9166         67.9543         70.8657         48.4262         15.0831
            9167         69.8086         74.3310         47.8911        -14.3105
            9168         74.3923         82.9234         46.3536         10.8484
            9169         67.5636         73.7994         47.2989         11.1345
            9170         75.7756         87.0891         42.9568         4.21158
            9171         84.5425         97.0287         41.8391         3.73923
            9172         64.5942         65.1333         53.3374        -13.6532
            9173         61.2535         57.4211         54.1105        -14.5366
            9174         67.4191         73.0293         47.4982        -11.8988
            9175         73.4461         81.3034         46.7865        -11.5328
            9176         78.0859         90.0944         42.2369     767.180E-03
            9177         86.8912         99.8273         41.3937         1.06009
            9178         77.4114         89.2113         42.6321        -2.55883
            9179         86.2955         99.1239         41.9602        -2.57926
            9180         63.7742         62.5167         51.2194         15.6786
            9181         86.0283         98.8020         41.9070         2.78871
            9182         62.6639         60.0532         51.5950        -15.8827
            9183         77.5484         89.3323         43.1426         2.95776
            9184         77.2813         88.9856         43.1482        -3.25438
            9185         85.8505         98.5788         42.3144        -3.33330
            9186         66.8954         69.8835         50.6254        -13.7385
            9187         62.7029         62.1611         51.2834        -14.4396
            9188         66.2775         70.6476         48.1533         12.7122
            9189         64.7757         64.7244         50.6948        -15.4690
            9190         61.6677         58.6796         51.1319        -15.7643
            9191         60.9473         58.1975         56.5596        -11.8359
            9192         64.1917         65.3147         55.1665        -11.7530
            9193         68.6320         71.8126         46.9303         15.5030
            9194         89.0254         102.504         44.8458         1.18667
            9195         61.4983         54.6088         59.0243        -13.4077
            9196         66.3024         69.2465         47.2753        -14.6016
            9197         60.3205         50.7582         58.9346        -13.9079
            9198         63.4630         63.4399         47.2940         15.9848
            9199         80.3877         92.7969         45.9294         1.08208
            9200         61.4078         57.8611         52.1295         15.5112
            9201         64.8791         65.0009         51.0430         15.2384
            9202         82.6825         94.8904         41.4544         3.97352
            9203         74.1275         85.1299         42.5655         4.45539
            9204         63.7699         63.5311         46.3183        -16.6098
            9205         59.8169         53.2935         53.4670         15.5841
            9206         61.1932         57.1528         52.4233        -15.5574
            9207         61.0996         56.8132         52.7921         15.4673
            9208         60.8085         55.5885         54.0032        -15.2008
            9209         65.9583         66.9882         48.2934         15.9782
            9210         87.6335         100.760         42.9677         1.84243
            9211         66.0603         69.5053         48.1190        -13.6879
            9212         71.6291         77.4770         47.2578        -13.6154
            9213         79.1045         91.2731         44.0674         1.52507
            9214         64.3102         63.8729         48.5505        -16.3296
            9215         62.6811         59.6387         54.9293        -14.5009
            9216         85.0262         97.5976         41.9871         3.60944
            9217         76.4399         87.9461         42.8692         3.69448
            9218         65.0932         66.1395         52.5058        -13.8869
            9219         61.5705         58.4882         52.8122        -14.9424
            9220         63.8712         62.9612         53.5106        -14.3889
            9221         61.0109         56.3144         54.5574        -14.6842
            9222         84.8002         97.3515         40.9251         2.76970
            9223         76.2552         87.8374         41.8513         2.82989
            9224         85.4014         98.0554         41.1443         2.58817
            9225         76.9585         88.6466         42.5367         2.92949
            9226         65.5922         66.4550         50.2725         15.2710
            9227         67.1398         69.8631         49.8825         14.4175
            9228         62.9748         62.7120         50.7526         14.6059
            9229         61.7809         59.0188         51.5596         15.4731
            9230         75.4264         86.7978         42.0653         3.51026
            9231         83.9685         96.3618         41.6699         3.83513
            9232         67.1663         69.2790         48.2256         15.5675
            9233         70.7285         76.9130         48.0854         12.5578
            9234         65.0839         65.4809         51.0246        -15.1195
            9235         62.0226         59.8293         51.6591        -15.1583
            9236         65.5139         69.3907         48.6890         12.7142
            9237         67.5483         70.3391         49.1284         14.8013
            9238         63.4837         63.6944         49.8624         14.8649
            9239         86.0926         98.8752         41.3518         2.18420
            9240         63.4898         61.8490         52.1809        -15.3855
            9241         77.2720         89.0637         42.3121         2.36486
            9242         86.8482         99.7831         41.5963         1.44803
            9243         78.0254         90.0093         42.3971         1.27889
            9244         66.4527         71.3407         48.0363         12.1919
            9245         63.3269         61.6906         50.1702        -16.1508
            9246         72.3705         79.4422         47.2429         12.2150
            9247         62.6699         58.2587         61.6748         10.3724
            9248         61.2114         52.9945         62.7744         10.4002
            9249         64.1678         63.4456         51.8711         15.1938
            9250         68.9544         73.4537         48.9153         13.6573
            9251         64.0037         65.6541         49.8913         13.8134
            9252         72.5293         79.0927         47.0339        -13.0728
            9253         66.2727         70.2539         48.1042        -13.1903
            9254         77.9564         89.9018         42.6857         1.85461
            9255         86.7030         99.6125         41.7450         1.86588
            9256         63.0903         60.9135         52.1290         15.5762
            9257         60.6435         54.5446         55.4224        -14.7633
            9258         62.2912         60.4115         50.2899         15.7019
            9259         70.7090         75.8639         47.5279        -14.0379
            9260         65.7520         68.6295         48.1353        -14.1399
            9261         63.1359         60.9431         53.8650        -14.7574
            9262         76.9006         88.5294         42.9057         3.35474
            9263         85.3977         98.0486         41.7521         3.14834
            9264         63.2512         63.7293         50.6627         14.1572
            9265         69.3518         74.5239         48.8802         13.0297
            9266         64.1325         66.4100         49.8844         13.2547
            9267         63.8763         62.9183         53.2699         14.5538
            9268         61.2741         57.4604         53.7300         14.7564
            9269         63.3506         61.5987         51.2052        -15.8229
            9270         68.0299         71.6397         49.3812         14.0827
            9271         79.0164         91.1897         43.7298         1.07243
            9272         87.7667         100.925         42.8070         1.29315
            9273         60.8545         55.4016         56.1565        -14.0420
            9274         63.3448         61.5890         54.5252        -14.1953
            9275         67.4688         73.2692         47.4419         11.6756
            9276         73.3504         81.1405         46.8245         11.5949
            9277         82.6137         94.6690         42.5512         5.17949
            9278         87.1357         100.145         42.3122         1.88108
            9279         78.5969         90.6555         43.5397         1.86715
            9280         63.0984         62.8794         50.4428        -14.7752
            9281         66.5509         68.8287         50.5005        -14.3436
            9282         65.8732         66.8813         49.2671         15.6415
            9283         92.9669         41.6295         106.401         2.45789
            9284         83.7266         52.6105         91.1391         15.6079
            9285         83.0876         47.8308         91.2918         14.6984
            9286         92.3342         42.9127         105.079        -7.11048
            9287         91.1972         42.1542         104.116        -5.43977
            9288         80.3688         91.0533         45.0350         8.96074
            9289         75.7107         86.1144         45.8008        -7.36681
            9290         83.9606         95.8985         44.7225        -6.86957
            9291         73.2115         82.5671         45.6611         8.71323
            9292         74.7086         85.9961         37.1220     342.152E-03
            9293         83.6595         95.8196         37.3326     574.747E-03
            9294         77.0757         51.2848         87.5409         6.74864
            9295         77.7405         47.9896         88.7158         6.51990
            9296         79.5686         91.6253         46.0665        -3.40103
            9297         75.3318         82.8390         46.2089         12.9772
            9298         69.9264         75.9631         46.8176         12.6994
            9299         88.0948         101.269         45.5637        -3.80263
            9300         60.6160         65.1382         52.2468         5.91175
            9301         66.3365         73.5036         51.3606         6.70900
            9302         67.4525         52.4400         75.8026         3.10587
            9303         66.8380         49.0397         75.6601         4.01339
            9304         68.6853         77.2548         48.8703        -6.74609
            9305         62.6498         68.9861         49.4150        -6.65866
            9306         94.4275         41.3076         107.636         4.86247
            9307         93.5673         40.9952         106.727         4.43002
            9308         65.7045         56.1886         72.1374         1.77207
            9309         64.5084         51.6849         72.0731         2.61838
            9310         82.6064         93.7584         33.4326        -4.08354
            9311         74.0672         84.2117         32.1216        -4.74519
            9312         69.6595         78.5612         52.5597         3.96670
            9313         86.2511         47.4815         99.5352        -1.09276
            9314         9.60364         10.8626         6.59011     892.161E-03
            9315         54.2813         37.8100         61.5315         4.36820
            9316         9.60575         6.59023         10.8646    -893.877E-03
            9317         68.5933         48.1345         78.3799        -2.41357
            9318         88.2453         99.0717         70.1308    -749.102E-03
            9319         54.5387         61.6975         38.1513        -4.69775
            9320         68.6401         48.5897         78.3761        -2.30643
            9321         95.8485         109.024         70.9666    -702.820E-03
            9322         59.3582         67.7175         38.3090        -4.63105
            9323         75.7730         86.4300         53.0517         3.74963
            9324         86.2355         47.5594         99.5156        -1.18683
            9325         54.1807         37.0513         61.5755         4.18984
            9326         79.2318         91.1869         39.2796    -712.439E-03
            9327         71.0893         82.0501         39.2771    -700.227E-03
            9328         86.1957         45.7703         98.7877         5.69514
            9329         60.0792         57.1154         46.4089        -16.7752
            9330         58.6460         48.7299         54.9596         15.5174
            9331         46.8856         39.3920         39.8374         14.4774
            9332         48.1336         42.4127         38.8201        -14.8040
            9333         63.4860         72.5864         45.1053    -639.705E-03
            9334         66.1325         54.4841         73.2889         2.98877
            9335         65.3745         50.0339         73.3572         4.45343
            9336         73.1847         83.3863         44.2687         6.69350
            9337         80.5841         92.0133         43.5761         6.78390
            9338         77.2745         85.6657         46.5359        -12.2973
            9339         65.4236         48.0773         73.1729         6.64597
            9340         89.6265         103.172         48.4572         3.64105
            9341         61.4505         61.6701         42.7896         16.1333
            9342         81.2861         93.5659         49.2292         3.44053
            9343         66.2689         51.1607         73.9086         5.56435
            9344         58.2804         56.2799         43.3171         16.2346
            9345         70.8725         77.3995         47.0412        -12.3870
            9346         63.0151         65.6085         51.1587         11.6284
            9347         67.7070         73.2698         50.5444         11.0214
            9348         84.2014         95.6584         48.6580         8.68503
            9349         50.9380         47.7292         38.6176        -14.9273
            9350         74.5330         50.2435         85.5370         1.98787
            9351         86.4242         98.7267         49.8385        -7.27310
            9352         78.6017         89.3461         50.2321        -7.30940
            9353         74.1421         47.8635         85.3838     916.180E-03
            9354         49.5566         42.7101         42.3157         14.7014
            9355         77.3294         87.4597         49.8179         8.28383
            9356         85.5969         98.2495         40.2105        -1.59572
            9357         76.8572         88.6113         41.1981        -1.67422
            9358         61.2020         54.8173         66.0251     498.799E-03
            9359         63.3983         62.1157         64.5407         1.22244
            9360         75.7802         87.3477         40.0145         1.53105
            9361         81.4390         48.0570         93.4059        -5.38478
            9362         75.2107         84.2805         49.2143         9.64720
            9363         70.8955         50.4357         81.0091        -1.37735
            9364         88.6879         101.798         50.7231        -5.57747
            9365         55.0450         54.0395         39.1107        -15.2049
            9366         80.6181         92.2192         51.3302        -5.58971
            9367         70.7887         47.9321         81.2127        -1.89234
            9368         82.1286         92.7813         48.6919         9.72163
            9369         81.4318         46.2898         93.4751        -5.09027
            9370         51.4479         48.4570         38.7452        -15.0010
            9371         50.2799         37.9980         48.5238         13.8259
            9372         68.2468         78.4309         38.0815         3.77657
            9373         76.2846         87.6703         38.7945         3.12883
            9374         74.0682         85.3560         38.2769    -912.269E-03
            9375         82.9132         95.0545         37.7029    -720.777E-03
            9376         74.0228         84.5168         44.1221         6.28696
            9377         81.6520         93.3098         43.4797         6.50475
            9378         3.62036         3.71809         3.42517     290.101E-03
            9379         32.8359         19.9216         36.8929        -4.28967
            9380         32.7035         36.7883         19.0533         4.24444
            9381         32.6768         19.0195         36.7618        -4.23469
            9382         58.4793         41.2974         66.4842         3.64363
            9383         58.4258         40.6768         66.5166         3.66038
            9384         58.8877         66.6554         42.3800        -4.22736
            9385         86.7918         46.9176         100.148    -480.169E-03
            9386         86.7833         46.9703         100.138    -596.342E-03
            9387         88.9337         99.6786         71.2178    -315.919E-03
            9388         65.1021         45.9427         74.2662        -2.83274
            9389         65.1532         46.4436         74.2571        -2.74337
            9390         65.8832         74.4004         49.1356         3.94040
            9391         70.8419         49.4692         70.2484         19.2497
            9392         67.0312         60.8634         45.8002         22.2015
            9393         85.9934         53.2090         80.4403        -28.1257
            9394         32.9388         37.1879         17.0356         3.88727
            9395         73.9104         62.2263         57.3781        -24.9588
            9396         63.7354         72.7505         42.2197        -4.41862
            9397         96.4308         109.631         71.6771    -342.282E-03
            9398         72.0637         82.2406         49.7872         3.89144
            9399         72.1876         59.1074         67.5688         19.5417
            9400         11.0222         12.0074         8.72087         1.41029
            9401         14.1575         12.0766         14.5236         2.51982
            9402         19.5106         15.1705         20.0592         4.18142
            9403         11.0255         8.71984         12.0114        -1.41232
            9404         14.1619         14.5286         12.0812        -2.51958
            9405         19.5384         20.1012         15.1733        -4.18179
            9406         25.2463         16.0237         27.4551         4.71760
            9407         25.4069         27.5958         16.1944        -4.78254
            9408         44.1688         29.8483         49.1108         6.16333
            9409         56.2301         39.5350         63.1376         6.01599
            9410         60.4803         42.7533         68.5609         4.49566
            9411         61.9012         43.7983         70.2486         4.29652
            9412         64.5336         45.4765         73.2617         4.50480
            9413         69.2569         48.3836         79.1150         2.84220
            9414         45.0226         29.5675         50.2754         6.10176
            9415         55.9719         38.3865         63.0325         5.93900
            9416         60.4302         41.9737         68.6051         4.58153
            9417         61.8763         43.0581         70.3200         4.38275
            9418         64.5511         44.6180         73.3778         4.68132
            9419         69.3381         47.7849         79.2901         2.96289
            9420         45.2287         50.3154         29.9393        -6.43030
            9421         56.7675         63.3736         39.7577        -6.95803
            9422         61.1082         68.8137         44.0133        -5.49045
            9423         62.6053         70.4899         45.3491        -5.49880
            9424         65.5923         73.6259         47.4422        -6.42370
            9425         70.5570         79.4835         52.2946        -5.24396
            9426         83.3148         49.4797         96.1260        -1.74953
            9427         86.8784         46.5592         100.203        -1.26885
            9428         87.1673         46.4074         100.552    -238.556E-03
            9429         87.2147         46.3545         100.604     74.1737E-03
            9430         87.3579         46.0517         100.735     831.404E-03
            9431         86.1295         47.2616         99.3572         1.68927
            9432         83.2777         49.4094         96.0855        -1.73077
            9433         86.8510         46.5344         100.165        -1.37635
            9434         87.1602         46.4165         100.543    -375.616E-03
            9435         87.2126         46.3572         100.601    -67.0654E-03
            9436         87.3737         46.0741         100.759     687.965E-03
            9437         86.1674         47.2658         99.4054         1.61305
            9438         85.0568         95.9437         65.7720        -2.15423
            9439         87.5459         99.0549         66.9383    -863.164E-03
            9440         88.4081         99.6460         69.0298    -182.656E-03
            9441         88.4038         99.6673         68.9403     1.48555E-03
            9442         87.7273         99.3568         66.7544     464.988E-03
            9443         87.2948         98.6006         67.3171         1.18425
            9444         75.2758         50.4306         86.5062    -902.307E-03
            9445         67.0210         46.2977         76.4432        -3.82584
            9446         63.2168         44.0582         71.9308        -4.09608
            9447         61.8138         43.0101         70.2481        -4.38384
            9448         59.0354         40.7168         66.6242        -5.80964
            9449         53.3124         36.2880         59.9724        -5.91556
            9450         75.3100         50.8147         86.5076    -766.466E-03
            9451         67.0853         47.0885         76.4310        -3.67120
            9452         63.2788         44.7945         71.9122        -3.98167
            9453         61.8775         43.7823         70.2268        -4.27496
            9454         59.1023         41.7111         66.5801        -5.70052
            9455         53.3830         37.2584         59.9075        -5.90794
            9456         76.9991         86.8254         58.4805         3.99310
            9457         68.3146         76.8395         50.0024         5.90138
            9458         64.0832         72.1687         46.6999         5.40777
            9459         62.6048         70.4732         45.3153         5.56543
            9460         59.8548         66.9175         42.4074         6.92944
            9461         53.7884         60.1063         37.2330         6.63510
            9462         66.6286         53.2067         59.8479         20.0910
            9463         83.9047         53.4933         90.0336        -17.2106
            9464         107.991         37.1352         120.217         9.92034
            9465         66.1006         45.6313         75.2902        -4.24380
            9466         67.4008         75.7223         48.9892         6.28774
            9467         87.1426         46.2798         100.495        -1.11128
            9468         87.5341         99.1523         66.5224    -742.874E-03
            9469         57.3237         40.4297         64.3467         6.12237
            9470         58.3596         64.9892         41.0187        -7.42707
            9471         66.1675         46.4970         75.2735        -4.08483
            9472         12.8887         14.1199         9.51173         1.87770
            9473         87.1161         46.2490         100.458        -1.22609
            9474         12.8931         9.50715         14.1254        -1.88064
            9475         57.1138         39.2791         64.2660         6.14567
            9476         80.1468         55.5315         77.4707        -23.3818
            9477         98.7040         42.9937         105.070         21.3832
            9478         100.643         42.2663         109.403        -18.2342
            9479         28.6316         19.1256         30.4810         5.99598
            9480         39.9824         27.4644         42.0172         8.80965
            9481         46.2633         30.9775         50.9196         7.42170
            9482         47.8011         32.1569         52.7194         7.45733
            9483         29.0352         30.8048         19.5236        -6.17399
            9484         40.5533         42.4830         27.8398        -9.08157
            9485         46.6855         51.0743         31.4631        -7.91577
            9486         48.2758         52.9344         32.6934        -7.96337
            9487         59.2636         40.8542         66.1434        -7.53650
            9488         62.9783         43.5500         71.4313        -5.10119
            9489         64.8462         44.6721         73.6510        -5.00381
            9490         69.3839         46.8950         79.2946        -3.91012
            9491         71.7416         47.9683         82.2876        -2.69885
            9492         75.6476         49.7511         87.0386    -801.637E-03
            9493         75.9196         49.3715         87.4101    -652.539E-03
            9494         86.3345         46.4868         99.4936        -2.50292
            9495         85.0054         47.4196         97.9963        -2.64362
            9496         82.7145         49.2117         95.4121        -1.98534
            9497         82.2336         49.0773         94.8443        -2.08539
            9498         53.2464         37.9580         58.1579         8.55528
            9499         50.0277         35.6085         54.1633         8.75248
            9500         43.6127         30.0761         47.6055         7.37115
            9501         43.3819         30.4112         46.6807         8.11745
            9502         59.3907         42.2413         66.1357        -7.36312
            9503         63.0487         44.4989         71.4057        -4.95625
            9504         64.9184         45.6809         73.6269        -4.83305
            9505         69.4575         48.0028         79.2793        -3.67417
            9506         71.8087         48.9167         82.2814        -2.47278
            9507         75.6956         50.2980         87.0457    -632.592E-03
            9508         75.9784         50.0214         87.4245    -461.184E-03
            9509         86.2673         46.2411         99.4055        -2.51437
            9510         84.9338         47.1242         97.9106        -2.61691
            9511         82.6561         48.9701         95.3536        -1.92529
            9512         82.1607         48.7155         94.7748        -1.99329
            9513         60.5379         66.7188         42.3450         9.04689
            9514         64.0794         71.8106         46.0351         6.73247
            9515         66.2179         74.1580         47.5753         7.07285
            9516         71.4354         80.1572         51.0671         7.37998
            9517         73.7787         83.0822         53.2781         6.54619
            9518         77.5035         87.5142         57.7841         4.68966
            9519         77.8627         87.9974         57.3595         5.04727
            9520         85.8412         97.7880         62.5229        -1.92287
            9521         85.2405         96.9498         62.5691        -2.44000
            9522         84.1273         95.2324         63.4901        -2.79982
            9523         83.5125         94.6994         62.0843        -3.22704
            9524         88.1001         45.0806         101.497         1.04712
            9525         87.4931         45.9663         100.894    -268.865E-03
            9526         87.5286         45.8534         100.914    -886.090E-03
            9527         88.1208         45.1715         101.531     918.376E-03
            9528         87.4827         45.9623         100.881    -407.090E-03
            9529         87.5027         45.8145         100.878        -1.00587
            9530         86.7225         98.8914         63.0507     597.232E-03
            9531         87.8040         99.4472         66.8148    -203.580E-03
            9532         87.3423         99.1704         65.4462    -586.365E-03
            9533         64.2837         45.3570         72.5357         5.87974
            9534         60.6610         42.8557         68.4623         5.47893
            9535         58.7182         41.5256         65.8101         6.46207
            9536         64.2330         44.0982         72.5998         6.11034
            9537         60.6441         41.8993         68.5572         5.61443
            9538         58.5283         40.3014         65.7387         6.56104
            9539         65.7794         73.1780         46.5082        -8.41184
            9540         61.4674         68.8017         43.8343        -6.80670
            9541         59.6390         66.6073         42.2160        -7.07063
            9542         18.6914         20.4964         12.2788        -3.17110
            9543         20.9040         23.0222         12.8913        -3.53815
            9544         48.0660         53.9739         29.1589        -6.34386
            9545         62.1612         70.3825         40.3571        -6.37865
            9546         67.2177         76.2711         44.4979        -6.18542
            9547         71.8282         81.6202         48.2003        -6.00771
            9548         76.7780         87.4478         52.4928        -5.24807
            9549         92.4620         105.576         66.0423        -2.14923
            9550         95.5666         109.204         68.2864    -711.600E-03
            9551         95.8654         109.584         68.3456    -104.461E-03
            9552         95.7835         109.456         68.4543     447.569E-03
            9553         94.9625         108.569         67.4560         1.15646
            9554         83.7569         95.5512         58.7220         3.99493
            9555         73.7486         83.9369         50.0443         5.46444
            9556         69.1299         78.5092         46.1016         6.03535
            9557         64.5978         73.2455         42.3760         6.22066
            9558         58.8110         66.3794         37.6056         6.69755
            9559         65.0926         53.1489         61.8835         17.0461
            9560         63.5941         53.9391         61.3634         15.0464
            9561         78.2337         56.3145         78.9647        -19.6691
            9562         102.600         39.0288         114.536         10.8789
            9563         77.6594         49.1682         89.5275     260.636E-03
            9564         80.4283         49.4102         92.7456        -1.65026
            9565         77.7325         49.8304         89.5636     455.849E-03
            9566         80.3497         48.8803         92.6852        -1.49658
            9567         79.5746         90.0983         58.1906         4.86990
            9568         81.9255         92.9275         60.1000        -4.04948
            9569         29.6576         21.4916         30.8159         6.59160
            9570         102.174         38.4246         114.775         8.16339
            9571         113.956         34.6031         127.247     119.882E-03
            9572         69.5598         77.6074         33.8573         9.94846
            9573         78.7610         54.5395         85.7158        -13.6192
            9574         92.3202         47.4332         101.817        -15.6629
            9575         93.2943         45.8470         103.754        -14.0683
            9576         16.9006         17.0998         14.3537         3.29856
            9577         64.4635         72.6695         41.9276         7.38508
            9578         68.2631         77.3920         45.1983         6.46534
            9579         95.3442         109.237         66.4470     581.169E-03
            9580         95.7363         109.536         67.6822     7.67923E-03
            9581         72.5278         82.1725         48.0536        -7.01192
            9582         67.9337         76.7303         44.5493        -7.32788
            9583         75.6437         85.6350         30.5321         4.86584
            9584         92.4503         52.1991         94.6316         24.5415
            9585         84.0943         95.0831         32.1330         4.23614
            9586         88.6520         46.0278         95.0897         18.9327
            9587         62.9865         53.6186         64.5633         11.3390
            9588         96.9383         43.4557         105.610         17.7435
            9589         114.409         36.2949         126.755        -10.0955
            9590         70.9325         48.7538         81.1793        -2.72048
            9591         85.5176         47.1495         98.6077        -2.30983
            9592         72.6550         81.8030         53.0187         6.14070
            9593         86.0329         97.6445         64.3080        -1.91660
            9594         70.8691         47.9135         81.1852        -2.91863
            9595         85.5705         47.3227         98.6751        -2.28532
            9596         51.1738         35.9948         56.3429         7.67387
            9597         109.442         37.1370         122.059        -8.81217
            9598         97.0679         42.9389         108.597        -12.2218
            9599         29.4671         20.4913         30.7206         6.68743
            9600         31.1465         21.9804         32.1039         7.34750
            9601         42.7668         30.4271         43.6001         10.4697
            9602         30.6937         31.5870         21.7218        -7.27218
            9603         31.9239         33.0632         22.2845        -7.44190
            9604         43.7133         44.4544         30.8883        -10.8581
            9605         65.1519         44.6413         73.7768        -5.84238
            9606         88.0293         45.2159         101.415        -1.32874
            9607         58.3511         41.6495         64.5789         7.94595
            9608         67.2524         75.9308         44.0631         7.33902
            9609         77.5726         87.9784         50.9584         7.38899
            9610         80.3231         91.4034         53.3193         6.52783
            9611         84.3835         96.3261         57.9306         4.69521
            9612         84.8250         96.8671         57.4455         5.05448
            9613         95.4351         109.381         66.2902     179.536E-03
            9614         93.7790         107.749         62.6332        -1.86372
            9615         93.0299         106.773         62.6998        -2.41362
            9616         91.5950         104.814         63.6651        -2.79539
            9617         91.0095         104.244         62.1979        -3.22298
            9618         69.7515         78.7345         45.7209        -7.65006
            9619         58.5234         64.5981         37.3286        -9.48701
            9620         54.5182         59.9621         34.5644        -9.21291
            9621         47.2674         52.2965         29.0868        -7.62394
            9622         46.6864         51.1017         29.0917        -8.33757
            9623         65.2339         45.9297         73.7430        -5.62380
            9624         87.9787         45.1146         101.347        -1.40390
            9625         66.9963         74.5822         47.3418         8.47762
            9626         86.5032         98.7105         62.5017    -846.122E-03
            9627         75.6009         57.1529         77.1972        -17.3366
            9628         57.8960         39.9617         64.1414         8.24799
            9629         14.8851         15.3279         12.6446         2.61697
            9630         107.151         39.5586         118.662         13.2895
            9631         111.112         36.0436         124.066         6.48323
            9632         66.9670         74.5424         36.7266         10.2771
            9633         64.6007         72.3263         39.9586         8.86050
            9634         69.5764         78.6676         34.7389         7.70961
            9635         60.4012         60.4816         51.5642         12.2489
            9636         59.2670         64.8281         41.2370        -9.70774
            9637         81.9440         93.1751         58.5968        -4.44967
            9638         85.7104         46.5748         98.7760         2.63470
            9639         85.0563         46.9140         98.0345         2.71223
            9640         76.4773         48.5155         88.1594    -118.129E-03
            9641         80.7217         48.8237         93.0714        -2.16417
            9642         70.4742         47.3606         80.6871         3.39476
            9643         71.5395         47.7739         82.0381         2.86280
            9644         80.6137         48.1142         92.9824        -1.96938
            9645         85.5381         97.4133         62.3217         2.19000
            9646         85.1520         96.9413         62.0378         2.48881
            9647         78.6190         89.0271         56.0873         5.84873
            9648         74.1523         83.4596         52.9051         7.06043
            9649         22.2874         23.7212         15.5333        -4.51722
            9650         43.0398         46.3431         27.2172        -8.66590
            9651         85.7665         46.8641         98.8488         2.64766
            9652         85.1126         47.2588         98.1049         2.73937
            9653         76.5688         49.4437         88.1980     136.581E-03
            9654         84.6776         46.8836         97.5849        -2.86025
            9655         84.6884         96.5019         61.0579        -2.80762
            9656         71.8770         47.7704         82.4720        -2.73090
            9657         84.7655         47.2893         97.6867        -2.93006
            9658         50.0461         36.1920         53.2294         9.79553
            9659         86.7467         99.1915         58.2083         4.88574
            9660         89.3311         102.305         60.1604        -4.04700
            9661         71.9507         48.8580         82.4653        -2.47448
            9662         28.3389         22.5227         27.1844         7.50766
            9663         28.4180         27.2576         22.5642        -7.53889
            9664         98.3588         39.8810         110.772         8.77833
            9665         110.295         35.9670         123.432        -5.01406
            9666         95.3651         43.4583         104.996        -15.7547
            9667         82.2101         47.6298         88.2030        -17.4281
            9668         71.9530         82.1992         34.2191         4.55905
            9669         80.6445         91.8948         34.9683         4.06213
            9670         65.5781         52.5070         71.4820         7.89780
            9671         44.1984         34.1307         43.1338         11.5507
            9672         43.4280         31.7592         44.8754         9.81060
            9673         44.8979         33.2715         45.8854         10.4886
            9674         55.5684         38.3919         60.9635         8.90450
            9675         68.3737         77.2608         44.9100         7.27109
            9676         95.4416         109.394         66.2650     14.7438E-03
            9677         70.0888         79.4119         34.4695         7.19569
            9678         79.4228         90.4985         35.4513         4.81312
            9679         69.4566         59.8787         68.0813        -15.0589
            9680         84.3744         54.5031         87.1992         20.7957
            9681         70.9908         80.9263         34.4950         5.54626
            9682         85.4482         47.1618         92.9803         16.5019
            9683         54.6090         37.5389         60.2532        -8.25356
            9684         29.9450         25.4343         26.8382         8.40879
            9685         61.6093         42.4837         69.5384         6.04154
            9686         62.1020         43.8853         70.0231        -5.78745
            9687         29.8986         26.7436         25.4484        -8.39976
            9688         45.9810         31.8942         48.4942         9.86594
            9689         46.8885         49.2011         32.4117        -10.3594
            9690         56.9635         61.8756         39.4849         10.0056
            9691         62.5758         69.7432         44.3921        -7.68098
            9692         62.0623         54.1707         66.3581         6.01487
            9693         87.1453         99.1464         64.4532    -354.626E-03
            9694         60.7686         67.4732         42.8142        -8.08188
            9695         62.0232         42.7731         70.0550        -5.94704
            9696         63.4776         43.6867         71.7847        -5.88427
            9697         87.8952         45.4596         101.310    -521.338E-03
            9698         60.1826         42.6488         67.4230         6.65013
            9699         63.5566         44.8537         71.7524        -5.70230
            9700         87.8739         45.4328         101.281    -642.562E-03
            9701         60.0431         41.3784         67.3965         6.81825
            9702         63.2460         70.5236         44.9407         7.66348
            9703         64.9336         72.3707         46.1192         7.94871
            9704         32.6055         32.4310         24.0583        -8.42176
            9705         47.7274         51.4865         32.5226        -9.01448
            9706         29.5383         31.2555         19.9405         6.35696
            9707         32.6342         24.3191         32.2567         8.51476
            9708         47.8381         32.8865         51.2965         9.35585
            9709         29.5273         20.0705         31.1413        -6.43625
            9710         30.6040         21.9506         31.9512        -6.71437
            9711         28.0315         21.6643         27.4890         7.21819
            9712         29.3512         22.4295         28.8347         7.60965
            9713         30.5464         23.0740         30.1091         7.93407
            9714         28.1733         27.5960         21.7789        -7.27744
            9715         57.1678         39.7323         62.5044         9.41892
            9716         56.0167         62.3393         35.4672        -8.26139
            9717         25.2723         23.1524         21.7856         6.64416
            9718         66.3932         74.5805         37.7492         8.87240
            9719         31.7501         24.3395         30.8014         8.49748
            9720         28.0542         25.1092         24.2082         7.71093
            9721         25.1871         21.6154         23.1822        -6.60410
            9722         27.9599         24.0031         25.1633        -7.66844
            9723         79.0180         89.9315         53.1088         6.10412
            9724         93.8059         107.532         64.5654        -1.87962
            9725         71.3739         58.2689         74.8301        -12.3787
            9726         62.0714         42.7429         69.7236        -6.94526
            9727         90.1394         45.3993         99.3394        -15.3367
            9728         32.1992         31.1197         24.6920        -8.69992
            9729         29.5049         28.9109         22.5922        -7.69097
            9730         30.6702         30.1369         23.2226        -8.02066
            9731         89.6209         47.2653         100.044        -13.1360
            9732         88.4191         44.8699         101.857     68.8553E-03
            9733         61.9016         44.0033         69.2535         6.99647
            9734         23.9945         16.2109         25.6233        -4.89097
            9735         59.6269         66.2701         41.9526        -7.82769
            9736         61.4903         42.3742         68.9662         7.10710
            9737         63.6500         70.4073         44.6871         9.00922
            9738         86.6714         98.9232         62.5987     11.3519E-03
            9739         62.6225         69.1382         43.9014        -9.11810
            9740         62.1678         44.1121         69.6885        -6.74743
            9741         88.4148         44.8751         101.853    -49.3133E-03
            9742         76.3681         49.2423         87.9707    -326.901E-03
            9743         64.9074         66.2087         56.0776        -11.5110
            9744         64.2910         72.8230         40.8787         6.73269
            9745         70.1039         79.2165         42.6115        -8.14659
            9746         88.7746         44.5125         102.224    -156.935E-03
            9747         81.1067         92.0453         33.9401        -5.10062
            9748         59.9467         62.4723         49.8722         10.3153
            9749         98.4234         41.3957         110.618         10.2694
            9750         24.7604         26.2243         17.0148         5.23012
            9751         25.8655         19.2280         26.7430        -5.72523
            9752         59.0187         41.2523         64.5124        -9.67628
            9753         64.3871         46.0971         72.0528         7.08456
            9754         28.8118         22.3313         28.7364         7.00891
            9755         59.2026         43.1124         64.5374        -9.37279
            9756         66.6477         73.2475         46.1230        -10.4528
            9757         50.0062         36.7933         52.1910         10.6966
            9758         40.6716         30.9775         40.2325        -10.3638
            9759         78.5682         89.0079         54.9796        -6.36182
            9760         17.4479         16.9773         15.5705        -3.56394
            9761         19.4591         18.9541         16.8905        -4.25268
            9762         64.5576         70.9969         44.9736         9.95795
            9763         62.7038         44.7465         70.0276        -7.28318
            9764         96.1341         42.2279         108.351        -9.90138
            9765         68.4076         77.0280         44.6189         8.00719
            9766         88.7650         44.4962         102.211    -250.924E-03
            9767         89.7167         43.6564         103.185     520.979E-03
            9768         60.8900         42.0955         67.7555         8.10239
            9769         59.8991         41.3656         66.6719         7.94923
            9770         58.4294         40.7937         63.8116         9.67925
            9771         86.3196         98.7067         61.3439    -101.537E-03
            9772         62.7625         68.6879         43.6464        -10.2318
            9773         62.5985         43.1694         70.0763        -7.51506
            9774         61.4184         43.9544         68.2926         7.70519
            9775         92.5275         106.301         61.1020        -2.78356
            9776         95.1668         109.239         64.9544     32.9436E-03
            9777         61.5095         67.8836         39.3696         9.96364
            9778         20.1750         20.9894         15.4121        -4.18052
            9779         45.5695         48.1932         29.6012        -10.0720
            9780         72.8418         49.0903         83.5934        -1.98731
            9781         73.3308         49.1718         84.2119        -1.70833
            9782         73.8781         49.2220         84.9044        -1.36321
            9783         84.0104         47.1779         96.8324        -2.81826
            9784         83.5716         47.2832         96.3315        -2.80572
            9785         82.9581         47.3314         95.6263        -2.80018
            9786         75.0493         84.5764         53.6225         6.80832
            9787         75.5657         85.2147         53.9039         6.74287
            9788         76.1828         85.9717         54.0614         6.77749
            9789         84.2876         96.0081         60.7601        -3.08285
            9790         83.9632         95.6404         60.3445        -3.29875
            9791         83.4570         95.0915         59.5158        -3.65061
            9792         72.7699         48.0438         83.5972        -2.24273
            9793         73.2566         48.1228         84.2116        -1.96867
            9794         73.7974         48.1348         84.8974        -1.63767
            9795         84.1020         47.6306         96.9331        -2.91125
            9796         83.6691         47.7844         96.4349        -2.91845
            9797         83.0618         47.9266         95.7304        -2.94566
            9798         94.0023         108.142         61.7356         1.49084
            9799         85.7927         98.0366         56.0103         5.86259
            9800         76.1280         86.0711         49.5192        -8.10890
            9801         89.4936         102.614         58.5568        -4.44650
            9802         88.7076         44.3743         102.105        -1.32899
            9803         88.7645         44.4945         102.180        -1.30148
            9804         59.1445         42.6685         64.9379         8.78145
            9805         85.9624         98.4095         60.3635    -752.918E-03
            9806         64.2748         44.1561         72.3749        -6.81051
            9807         63.5487         43.6882         71.5523        -6.73375
            9808         84.5612         96.5376         59.9481         2.86170
            9809         84.0421         95.9364         59.2889         3.26967
            9810         81.3883         92.6240         57.0296         4.99289
            9811         71.1469         47.3401         81.5513         3.20590
            9812         72.1508         47.6258         82.8408         2.60007
            9813         76.3405         48.1531         88.0204    -41.2137E-03
            9814         85.1612         46.8728         98.0972         3.18297
            9815         84.3868         47.2004         97.2083         3.26995
            9816         80.1705         48.6858         92.4158         2.28450
            9817         64.3697         45.6871         72.3276        -6.56507
            9818         63.6394         45.1089         71.5093        -6.51355
            9819         85.1093         46.3466         98.0293         3.11796
            9820         84.3026         46.5970         97.1112         3.17014
            9821         80.0439         47.7901         92.3176         2.03710
            9822         66.4093         73.3942         46.3528         9.60772
            9823         65.4031         72.3928         45.8697         9.19151
            9824         85.4761         98.0526         58.6917     819.402E-03
            9825         85.8486         98.1292         60.9586         1.47393
            9826         85.3897         97.7859         59.4586         1.65311
            9827         90.0883         43.2396         103.544     845.054E-03
            9828         87.6451         45.0753         100.910         2.28099
            9829         87.8374         44.6895         101.061         2.66066
            9830         64.0141         44.2378         71.6879         7.59333
            9831         66.8175         45.5355         75.8386         5.56641
            9832         66.7358         45.5586         75.6056         5.95423
            9833         80.7693         91.8406         52.8806         7.05245
            9834         59.3748         64.0904         41.1519         10.9809
            9835         58.1636         63.0085         40.3335         10.4483
            9836         54.2448         59.0031         34.5874        -10.0931
            9837         106.373         36.9855         119.579        -4.85493
            9838         105.044         36.7762         118.485     392.344E-03
            9839         80.1725         48.6561         88.1215         13.9340
            9840         42.4630         33.4502         40.5004         11.5275
            9841         46.1250         35.2663         45.6404         11.6951
            9842         87.7846         45.2529         101.079         2.26691
            9843         88.0768         44.9032         101.343         2.67613
            9844         91.8609         42.8449         103.595        -10.1546
            9845         81.9326         48.1442         90.4071        -13.8350
            9846         68.6130         51.1826         73.7861        -11.8359
            9847         66.5279         51.9166         71.4186        -10.6116
            9848         69.6197         79.2151         35.3419         6.38823
            9849         78.1717         89.3428         36.6307         4.45551
            9850         63.0786         53.6437         69.0831         3.39899
            9851         44.4427         31.6318         45.3821         10.8099
            9852         45.2480         46.1430         31.9031        -11.1431
            9853         59.1184         58.4816         56.5415         7.84414
            9854         67.2601         59.9437         69.9336         8.79480
            9855         65.4263         63.9241         59.7246         12.1808
            9856         47.5701         35.0588         49.2215         10.5938
            9857         48.6117         36.0523         50.0792         10.9678
            9858         87.1220         46.2542         96.5189        -14.1338
            9859         33.9261         25.8387         32.7866         9.22837
            9860         65.3714         52.2544         68.9648        -11.4086
            9861         61.5513         67.5428         44.6709         9.09659
            9862         67.5389         75.8645         43.8542         8.36412
            9863         34.8208         33.6053         26.4022        -9.54543
            9864         45.0885         46.7524         31.3752        -10.4824
            9865         26.4406         27.0617         19.3048         6.23205
            9866         82.4642         54.7207         86.9234         18.3196
            9867         95.0647         109.175         64.4780     194.375E-03
            9868         85.6166         53.6231         90.4688         19.3336
            9869         64.3689         64.3298         59.8653        -9.52715
            9870         55.7929         60.0950         38.6232         10.5000
            9871         49.8811         37.3210         51.0743         11.4430
            9872         26.1456         24.7702         21.4933         6.84253
            9873         47.2291         32.6131         50.2805         9.63743
            9874         52.5643         40.1950         53.0421         12.4624
            9875         25.9770         21.1479         24.8232        -6.74136
            9876         88.2117         45.0689         101.638    -401.621E-03
            9877         87.8808         45.4758         101.299    -204.951E-03
            9878         60.9860         43.3273         68.1882         6.99585
            9879         61.4663         43.4849         69.1301         6.17288
            9880         47.6473         33.2784         50.0845         10.3455
            9881         45.7759         32.5931         46.8245         11.0567
            9882         86.8381         99.0093         63.2378    -201.678E-03
            9883         87.2722         99.2326         64.8178    -84.5199E-03
            9884         30.3029         30.7891         21.9084         7.41288
            9885         88.2282         45.0862         101.659    -286.254E-03
            9886         87.8889         45.4776         101.309    -71.9903E-03
            9887         18.6794         19.9902         13.5205         3.50143
            9888         65.1132         72.1843         41.7574         9.99509
            9889         94.3869         108.630         61.8424     789.678E-03
            9890         30.8261         22.1872         31.3872        -7.51024
            9891         73.3055         81.7802         49.6741         9.67026
            9892         103.091         37.5671         116.518        -2.39961
            9893         46.7999         33.7536         47.2676         11.7211
            9894         73.9517         83.3155         47.8841        -8.64071
            9895         69.8209         48.9020         79.6058        -3.62135
            9896         85.6845         45.1245         98.4647        -4.22186
            9897         83.2145         95.4033         55.4108        -3.60031
            9898         69.6853         46.9887         79.6303        -4.03463
            9899         85.8100         45.9781         98.5989        -4.50981
            9900         25.2548         26.7997         17.1710         5.32018
            9901         33.9908         27.3066         32.2994         9.10051
            9902         74.1713         48.0147         85.3839        -1.32108
            9903         82.3338         48.0095         94.8752        -3.03006
            9904         76.7021         86.6076         53.8413         6.98833
            9905         82.7906         94.3867         58.2004        -4.14268
            9906         33.1829         25.8795         31.5411         9.17940
            9907         74.2652         49.2056         85.4001        -1.01832
            9908         82.2256         47.2535         94.7757        -2.84064
            9909         80.3441         91.4430         34.8195        -4.65348
            9910         61.5287         56.8464         56.3329        -13.9427
            9911         61.4031         58.4520         53.5020        -14.3589
            9912         65.5942         45.2590         73.8241         6.96250
            9913         84.9638         97.5126         57.6874         1.58606
            9914         103.332         38.3468         116.338        -6.67484
            9915         62.0217         54.2309         67.4839         1.94423
            9916         31.6966         28.6818         26.3095         9.02669
            9917         73.1681         82.5225         47.6746         8.26570
            9918         94.5644         108.719         63.0282    -901.119E-03
            9919         63.6039         70.7523         40.8431        -9.33021
            9920         66.0470         73.7685         42.5738        -9.10113
            9921         66.9554         74.3586         42.9341        -10.0500
            9922         77.8618         47.6745         89.8057        -1.41172
            9923         63.3888         68.6102         43.7817        -11.5153
            9924         68.4618         59.1103         72.2399        -9.02795
            9925         76.5647         86.9753         30.8431         3.09532
            9926         85.1933         96.4896         32.3207         2.68587
            9927         67.6946         77.1798         37.3650         6.15127
            9928         73.9142         84.5311         39.5308        -5.67751
            9929         71.5177         81.0058         41.0551        -8.02114
            9930         70.6541         80.2733         42.1954        -7.18586
            9931         63.2822         70.6372         41.8177        -8.56707
            9932         89.5103         43.5316         102.884        -1.88854
            9933         91.1019         42.6065         104.592     595.640E-03
            9934         85.1150         97.7464         57.5771        -1.00624
            9935         89.5386         43.7983         102.930        -2.03720
            9936         58.7334         43.2782         63.3187         10.1270
            9937         52.6011         39.2232         54.5864        -11.3987
            9938         40.1547         31.9749         37.9096        -11.0307
            9939         73.1161         81.7130         50.1868        -9.14963
            9940         79.8481         90.7502         54.6173        -6.15368
            9941         69.8363         48.5302         79.6561         3.76682
            9942         78.0306         48.9160         89.9137        -1.80216
            9943         89.4499         43.5129         101.394        -8.92903
            9944         84.9403         45.7038         96.1629        -9.55195
            9945         84.1358         96.9104         54.2797     628.254E-03
            9946         59.7118         63.0868         41.4101        -12.6911
            9947         69.8903         51.1235         76.3740        -10.6858
            9948         66.2296         52.2246         72.0070        -8.84071
            9949         58.7981         62.7462         40.7441         11.7839
            9950         56.6549         60.8168         39.2450         10.9192
            9951         79.4170         90.1775         54.3370         6.39128
            9952         77.2688         47.7512         89.1220         1.04082
            9953         81.7881         93.0993         53.6008         6.80590
            9954         82.3775         93.8166         53.8701         6.74341
            9955         83.0872         94.6652         53.9963         6.78146
            9956         35.7530         35.2665         26.2458         9.50978
            9957         92.0733         105.746         60.7909        -3.06531
            9958         91.7259         105.339         60.3523        -3.28529
            9959         91.2033         104.739         59.4798        -3.64133
            9960         88.9555         102.006         56.7568         5.03389
            9961         85.8609         98.0983         54.9153        -6.33047
            9962         52.6411         57.0402         33.5786        -10.0882
            9963         51.7385         55.8274         33.0870        -10.2075
            9964         50.7218         54.2757         32.6429        -10.5357
            9965         77.4214         49.0267         89.2087         1.39808
            9966         78.3663         55.5566         83.7869         15.1593
            9967         94.5984         40.7929         107.442        -6.42592
            9968         64.5354         73.6761         41.2191         4.98301
            9969         70.8040         55.2023         79.0738        -5.10887
            9970         58.7428         60.3699         54.1915         6.85575
            9971         42.9950         34.7825         39.7487         12.1292
            9972         83.4523         47.5105         96.1285        -3.34007
            9973         83.9478         47.4243         96.7140        -3.22332
            9974         47.8866         36.4421         47.8175         11.8484
            9975         47.7613         37.5035         45.9385         12.7428
            9976         68.9459         78.8354         36.5681         5.29598
            9977         68.6381         78.6771         37.2316         4.62554
            9978         64.9305         60.6530         67.8167         4.13806
            9979         69.1529         55.7464         76.9977        -3.56640
            9980         75.5599         85.1268         52.8748         7.48449
            9981         75.1152         84.5931         52.9279         7.35466
            9982         83.3625         95.1431         58.4083        -3.77334
            9983         83.8160         95.6216         59.3113        -3.42773
            9984         72.8981         47.7513         83.7985        -2.10090
            9985         72.5808         47.7651         83.3842        -2.33789
            9986         72.9887         49.0343         83.8001        -1.79004
            9987         72.6647         48.9787         83.3826        -2.04637
            9988         83.3483         46.8225         96.0257        -3.15303
            9989         83.8414         46.8419         96.6008        -3.08012
            9990         83.7453         95.6539         58.5416        -3.47417
            9991         38.6937         39.0538         27.1072        -9.93047
            9992         74.6889         83.9874         52.1701         7.84138
            9993         71.9616         47.5225         82.6080        -2.69139
            9994         84.2849         47.1099         97.0629        -3.46475
            9995         72.0530         48.8706         82.6027        -2.37610
            9996         84.1791         46.4736         96.9501        -3.29751
            9997         59.0404         41.8258         63.7542         10.6198
            9998         62.4004         45.2899         68.9587        -8.37573
            9999         61.0985         42.6328         67.3799         9.09237
           10000         62.8516         44.8804         69.0397         9.45377
           10001         64.7280         70.3320         44.6374         11.4028
           10002         62.2851         43.3719         69.0637        -8.63975
           10003         53.4525         37.4676         57.0318        -10.6076
           10004         64.9433         52.6969         70.3581        -8.12518
           10005         95.2834         40.2177         108.554         3.79635
           10006         34.4760         25.8085         33.7589        -9.20362
           10007         34.6077         33.9265         25.7877         9.24778
           10008         71.8935         79.6497         48.5182         10.5681
           10009         83.3918         95.7762         54.6567        -3.08599
           10010         68.0629         46.6699         77.3390        -5.24607
           10011         87.3315         45.1143         100.246        -4.64611
           10012         68.2221         48.7953         77.3034        -4.81339
           10013         87.2986         44.2595         100.202        -4.34199
           10014         62.5181         65.4549         43.3366         13.9367
           10015         59.7459         43.3345         63.6679        -11.5052
           10016         59.7504         45.5974         63.1955        -11.2378
           10017         59.9616         63.2995         41.5769         12.8027
           10018         42.2148         40.0616         31.8618         12.0887
           10019         42.0037         32.0498         39.7970        -11.9554
           10020         74.0667         53.1928         83.5813        -6.23138
           10021         73.9339         84.7747         39.8716        -4.82472
           10022         49.5837         37.6846         49.8239         12.0220
           10023         50.8679         39.1331         50.6091         12.5878
           10024         29.4766         23.1520         28.3450        -7.86674
           10025         73.0347         82.0073         47.0058         9.20405
           10026         28.4552         28.3472         21.4126         7.17910
           10027         94.2061         108.465         61.2093    -940.321E-03
           10028         73.3302         47.6595         84.3818        -1.54860
           10029         74.2938         47.7416         85.5803    -828.073E-03
           10030         65.3606         45.4568         73.3360         7.32898
           10031         73.4498         49.1747         84.3966        -1.17180
           10032         74.4271         49.2273         85.6162    -441.548E-03
           10033         64.2135         70.8126         41.1104        -10.4882
           10034         65.6276         72.5770         42.0227        -10.3848
           10035         72.3064         49.0469         82.9363        -1.99623
           10036         72.1938         47.4810         82.9375        -2.36791
           10037         82.1947         93.8680         56.0261        -4.65113
           10038         81.5629         93.0486         55.4951        -5.11497
           10039         82.8225         94.6866         56.4794        -4.16098
           10040         84.4360         97.0061         56.2903         1.92826
           10041         82.0660         47.7664         94.4807        -3.63332
           10042         80.9032         48.1822         93.1793        -3.21454
           10043         83.4791         47.1954         96.0639        -3.95199
           10044         82.0267         46.6951         94.4715        -3.38830
           10045         80.7493         47.0465         93.0526        -2.94868
           10046         76.3388         86.0600         52.3074         7.89080
           10047         77.1849         87.1937         52.7454         7.56657
           10048         75.3021         84.6705         51.6701         8.29557
           10049         83.4318         46.2984         96.0417        -3.64668
           10050         66.2089         72.5830         42.2318        -11.5051
           10051         59.8367         42.4668         64.7846         10.5065
           10052         48.6657         37.7646         47.5982         12.5714
           10053         55.4372         39.7856         58.0521        -11.9719
           10054         73.4752         82.4596         47.1576        -9.37680
           10055         71.9903         79.8884         45.5438        -11.0247
           10056         79.9039         90.0759         49.3793         9.67010
           10057         91.3347         105.177         55.1013        -3.60673
           10058         57.5496         59.9993         37.9785        -13.5199
           10059         60.7866         67.3880         46.1142         6.70551
           10060         60.0835         65.7737         47.6400         7.01754
           10061         66.8252         46.2489         75.5068         6.25789
           10062         67.6636         46.5763         76.7521         5.56636
           10063         48.9655         51.3463         32.1624         11.2276
           10064         99.9963         39.0553         113.232        -4.99165
           10065         63.9845         67.2855         55.5195        -8.56181
           10066         83.7038         95.3812         53.7166         6.99578
           10067         90.5423         103.983         58.0981        -4.13575
           10068         49.9854         52.7543         32.6095        -11.1420
           10069         67.3959         51.9793         74.2207        -7.94948
           10070         70.6580         47.0970         80.9254         3.50440
           10071         52.6154         37.8584         54.2342        -12.2064
           10072         67.2464         77.2334         38.8856         4.01047
           10073         34.7476         27.1707         32.7075         9.79867
           10074         35.6297         29.4880         31.6839         10.4938
           10075         31.4297         25.5084         29.8980         8.28469
           10076         34.9122         29.2172         31.7345         9.75243
           10077         101.606         37.8176         115.089     394.921E-03
           10078         59.9975         59.0019         54.1937        -11.2406
           10079         60.2928         62.1100         49.7891        -11.4166
           10080         52.1263         36.7124         55.0244        -10.9809
           10081         31.9042         24.0534         31.3254        -8.39667
           10082         66.0613         75.4161         39.2725         5.65556
           10083         60.6664         55.2953         64.8056         1.47453
           10084         61.7660         54.3119         67.1842    -380.992E-03
           10085         25.6912         26.2988         18.9914         5.97745
           10086         23.3182         23.7058         17.9375         5.33053
           10087         72.2200         81.9793         40.4321         7.63678
           10088         71.1339         80.4845         41.4291         8.17096
           10089         81.6186         92.9301         34.4667        -3.68055
           10090         84.9437         46.3788         97.5652        -4.84543
           10091         85.4644         46.1279         98.0399        -5.38328
           10092         84.7263         45.3918         97.3527        -4.45658
           10093         85.2880         44.9777         97.8597        -5.03418
           10094         71.1285         47.2793         81.5667         3.01223
           10095         57.7862         41.3694         61.4195         11.4942
           10096         59.6577         62.2270         41.5387        -13.4933
           10097         60.9800         63.6647         42.3974        -13.7482
           10098         22.3271         19.9728         20.6928        -5.31314
           10099         27.8018         25.8250         23.5055        -7.31507
           10100         30.4326         28.3682         25.0824        -8.24229
           10101         89.0181         43.3348         101.405        -7.25153
           10102         85.8685         44.9050         97.6845        -8.18949
           10103         81.5381         46.7774         92.7560        -8.07359
           10104         75.2830         56.0314         81.4932         12.2889
           10105         72.3113         82.5068         40.7322        -6.40617
           10106         69.5247         54.9852         77.8846        -2.98881
           10107         71.9103         53.9764         81.0119        -4.74122
           10108         63.4443         71.5149         41.8502        -7.12432
           10109         73.3325         83.5803         32.9780        -4.49972
           10110         78.9189         89.0636         49.7582        -9.15866
           10111         80.0886         90.5774         50.4194        -8.84425
           10112         87.3934         100.034         54.3899        -6.14781
           10113         62.1390         67.1989         39.8815         12.0419
           10114         37.3248         35.7126         28.4129         10.4108
           10115         26.1318         24.2603         22.4371         6.71357
           10116         88.0296         44.0392         101.087         3.78190
           10117         66.6314         48.1797         74.9436        -6.12872
           10118         55.3375         41.7063         57.5035        -11.7534
           10119         44.4102         44.3964         31.0914        -11.7601
           10120         92.9172         107.151         56.9695         1.92284
           10121         86.8547         99.3357         53.9494         6.44781
           10122         68.4501         55.2005         76.5017        -1.70729
           10123         94.2421         40.7460         107.340        -4.93731
           10124         67.0465         73.3090         47.1793         10.8597
           10125         66.4135         74.4267         47.7634        -6.95090
           10126         58.4188         60.1849         55.5156         4.07205
           10127         49.2126         38.7077         47.4125         13.0496
           10128         66.4481         46.0141         74.9563        -6.54833
           10129         45.3861         42.8612         34.2190        -13.1471
           10130         66.8523         48.9832         75.1506        -5.87041
           10131         68.4352         49.9463         77.5327        -4.07799
           10132         67.5895         48.1696         76.4432         5.37600
           10133         56.5548         41.2679         58.6205        -12.6252
           10134         66.6381         46.5548         75.1812        -6.35396
           10135         68.1769         47.4544         77.5379        -4.60316
           10136         70.0757         77.1076         47.5654         11.1087
           10137         70.7214         77.6962         47.5308         11.5269
           10138         72.8683         80.7595         48.2668         10.8935
           10139         37.0228         34.0002         29.3812         10.8072
           10140         88.9017         43.3838         101.924        -4.27312
           10141         87.3115         44.0325         100.024        -5.29011
           10142         88.9636         43.5485         102.128        -3.44035
           10143         56.5871         42.4008         59.5440         11.3063
           10144         56.1753         42.6941         58.1756        -12.0032
           10145         82.4239         93.7440         52.7448         7.48921
           10146         81.9005         93.1384         52.8360         7.35644
           10147         91.2070         104.827         58.3053        -3.76162
           10148         91.6591         105.345         59.2569        -3.41242
           10149         52.2830         55.4495         33.9716        -11.3798
           10150         52.9020         56.6269         34.1085        -10.9558
           10151         66.8340         48.2016         75.2628         5.96332
           10152         83.3279         95.8584         53.5618        -2.59430
           10153         82.1181         94.3124         52.1611        -3.96711
           10154         84.0873         96.6599         55.3853        -2.12506
           10155         47.3613         35.4362         45.9206         12.9861
           10156         71.2252         78.7685         48.2691        -10.6572
           10157         88.7919         44.2556         101.818        -4.63631
           10158         87.2277         45.2430         99.8948        -5.84011
           10159         88.9634         44.1497         102.146        -3.70529
           10160         83.7029         96.4223         53.4370         1.40566
           10161         92.9353         41.4631         106.444     576.812E-03
           10162         95.9075         40.6460         109.137        -4.87419
           10163         53.9471         57.4393         34.9499        -11.5038
           10164         89.8914         43.0514         103.170        -2.86591
           10165         84.3056         97.0156         55.1285        -1.23395
           10166         89.8113         43.5865         103.101        -3.17745
           10167         81.4377         92.4762         52.0336         7.84461
           10168         91.6542         105.399         58.4384        -3.45823
           10169         58.2315         59.4389         41.0424         14.2941
           10170         53.5803         38.6404         55.3343         12.3021
           10171         54.3204         39.7516         55.3786         12.9757
           10172         63.3475         66.4276         57.3990         6.28523
           10173         80.1733         47.9418         90.3797         9.89648
           10174         78.2795         87.7567         48.2191         10.5342
           10175         91.6232         105.598         54.3345        -3.12346
           10176         60.1651         63.0113         39.4974        -13.8824
           10177         88.1804         44.6290         101.249         4.13744
           10178         86.9157         45.4607         99.9238         3.89469
           10179         24.5217         23.7868         20.1626         6.01598
           10180         71.5050         81.4637         41.4319        -6.71391
           10181         68.2623         74.1090         46.3113        -12.3147
           10182         72.9530         53.2437         82.4972        -4.96350
           10183         30.0733         29.2760         23.1379         7.94428
           10184         30.2876         29.5473         23.4153         7.91363
           10185         61.1065         68.8153         46.1241         3.87573
           10186         56.1019         58.0592         39.2587        -13.0976
           10187         72.4360         79.9511         45.4635        -11.8705
           10188         70.4326         77.5138         47.6510        -11.1855
           10189         67.8112         78.0858         38.9966         2.90512
           10190         29.9232         22.7021         29.4793        -7.75079
           10191         60.3371         67.4988         47.7183         3.07542
           10192         72.1641         49.3140         82.7522        -1.70277
           10193         90.0596         103.470         55.7975        -4.64162
           10194         89.3596         102.575         55.2578        -5.10570
           10195         83.3625         94.7986         52.0591         7.90578
           10196         84.3340         96.0542         52.4773         7.58519
           10197         90.7630         104.369         56.2617        -4.15088
           10198         82.1801         93.2641         51.4424         8.30248
           10199         41.9779         34.6402         37.9474         12.0651
           10200         72.0266         47.4896         82.7588        -2.13924
           10201         75.5401         84.8877         50.9242         8.75494
           10202         51.3931         53.0445         34.3426        -12.5141
           10203         49.6819         50.7594         33.6218        -12.4896
           10204         53.3843         55.6279         35.2898        -12.5585
           10205         51.7046         41.2721         49.3436         13.8046
           10206         82.0060         93.7956         54.5746        -4.75516
           10207         59.1316         59.6083         54.5291        -8.57055
           10208         36.4385         32.5006         29.9114         10.7846
           10209         39.9810         35.8300         32.1736         12.0046
           10210         53.4544         43.0203         51.0155         14.1274
           10211         59.4590         62.2229         50.8139        -9.00760
           10212         76.8416         87.3662         30.9788         2.48981
           10213         86.1030         97.5547         32.3506         1.43746
           10214         81.5589         47.8468         93.7719        -4.32252
           10215         82.2682         46.2416         94.6293        -4.11771
           10216         54.3877         39.5977         55.7860        -12.7406
           10217         65.7610         70.4249         44.9973         13.0258
           10218         97.2191         40.0418         110.498         4.58311
           10219         77.3237         87.9525         30.9881         1.68737
           10220         82.1171         52.5521         90.1919         13.9844
           10221         85.5079         96.8927         32.4252         2.14296
           10222         62.5719         47.1051         68.0914        -9.44036
           10223         62.4617         44.6280         68.4208        -9.69339
           10224         39.8499         31.9374         36.0268         11.8419
           10225         55.1554         53.7033         40.3391        -15.2443
           10226         88.0329         43.8664         100.994         4.31802
           10227         35.5424         30.6318         31.1810         10.1296
           10228         29.9399         27.6762         25.0286         8.09715
           10229         72.2037         82.5720         34.2828        -4.11210
           10230         70.9581         81.1475         42.3388        -5.57526
           10231         61.8155         65.8478         39.9748         13.1592
           10232         73.8749         81.8209         46.1346        -11.6792
           10233         67.5333         75.1657         45.9967         9.17499
           10234         28.1285         23.8247         26.2136        -7.32519
           10235         37.6205         31.8467         33.3976        -10.7903
           10236         58.1793         43.6085         61.7136         11.0424
           10237         57.5584         43.4740         60.4643         11.4843
           10238         57.1425         42.5813         60.5798         10.9811
           10239         83.9442         96.6222         54.3543        -1.65529
           10240         74.6066         85.9190         40.2787         2.73262
           10241         31.4559         28.4017         26.7778        -8.68526
           10242         33.6383         30.5911         27.9813        -9.46480
           10243         61.1926         54.7535         65.9418        -1.71394
           10244         60.9582         67.5640         45.7572        -7.04315
           10245         40.9896         33.4474         36.2515        -12.3796
           10246         90.3546         43.2193         103.712         2.72643
           10247         63.7066         47.9517         69.8958        -8.66722
           10248         67.2012         72.3595         45.7284         12.8829
           10249         63.5227         45.4014         70.0824        -9.02128
           10250         83.5346         96.2423         53.0398        -1.51712
           10251         66.4513         46.6163         74.8795         6.48984
           10252         75.1977         86.5618         39.8078        -2.76407
           10253         77.9417         89.6595         38.5574        -1.46616
           10254         69.9507         77.1569         44.3404         11.4746
           10255         93.6973         108.091         58.1023    -123.010E-03
           10256         69.3847         78.8621         43.7549         6.61074
           10257         68.0755         77.2469         45.4419         6.12299
           10258         74.8066         49.4813         86.0464    -667.188E-03
           10259         78.7069         48.7590         90.5891         3.05476
           10260         74.7073         47.6678         86.0988    -181.013E-03
           10261         63.2816         63.4471         62.4920         3.59228
           10262         63.5110         61.3589         65.4636     80.2401E-03
           10263         82.9649         45.9585         94.6737        -7.27867
           10264         79.2886         47.3134         90.6003        -6.48880
           10265         79.9959         91.1215         52.7499         6.33268
           10266         48.5948         38.6080         44.0546         14.5020
           10267         63.2145         68.8599         55.2135         1.61734
           10268         63.1700         65.1777         59.5090         5.15279
           10269         77.7839         88.0146         51.7257        -7.76372
           10270         78.4901         47.2326         90.4559         2.58118
           10271         79.9709         90.1977         49.5254        -9.55755
           10272         81.1052         91.6778         49.9702        -9.26225
           10273         64.3960         72.9982         40.7786        -6.63275
           10274         75.7593         86.3499         31.9690         2.68778
           10275         75.0601         85.9291         33.6020         1.68424
           10276         66.7439         47.0160         75.3318        -6.08741
           10277         44.2905         35.2069         40.0547        -13.2658
           10278         48.3763         36.0937         47.1516         13.1163
           10279         48.9991         37.1992         46.8645         13.7134
           10280         56.6330         41.0743         59.0751         12.3396
           10281         46.6387         43.1993         35.7711        -13.8408
           10282         71.2472         78.2818         47.5396         11.6848
           10283         83.5283         45.9507         96.0697        -4.10621
           10284         66.9854         49.7767         75.2675        -5.49826
           10285         76.1567         84.9398         47.2952         11.0376
           10286         68.9825         54.3979         77.5334        -1.37670
           10287         79.0483         48.0159         89.5953         8.52028
           10288         84.6223         45.5367         96.1802         8.49414
           10289         73.3764         81.4841         48.2722         10.7650
           10290         72.8014         80.5455         47.7785         11.2253
           10291         71.7229         78.9472         47.6379         11.5904
           10292         76.9039         85.6954         47.2643         11.3568
           10293         79.3852         88.9452         47.8066         10.9157
           10294         84.1168         46.7662         96.5885        -5.04290
           10295         85.3151         46.3324         97.6610        -6.30299
           10296         58.6634         62.8348         52.2155         3.98620
           10297         58.3724         59.9717         40.9900        -14.0093
           10298         60.6404         62.4885         42.4686        -14.4068
           10299         61.8056         63.6972         43.2728        -14.6791
           10300         92.3386         106.510         55.0286        -2.23054
           10301         44.1277         40.0488         34.6654         13.2912
           10302         90.5206         42.5571         103.729        -3.53718
           10303         68.6041         50.4424         77.7586        -3.55994
           10304         67.5854         50.9000         76.1456        -4.26755
           10305         67.5118         49.8552         76.1086        -4.97320
           10306         91.6750         105.718         53.2879        -2.70215
           10307         90.4290         104.117         51.7252        -3.95958
           10308         36.3174         33.3490         29.3759         10.3844
           10309         90.3214         43.3170         103.518        -4.07231
           10310         91.9882         42.2175         105.380        -2.79728
           10311         66.4286         56.9138         72.9754    -702.989E-03
           10312         65.7913         57.7281         71.6178    -634.057E-03
           10313         84.4044         95.8407         33.1701         2.41158
           10314         83.9033         95.5522         34.2087         1.63480
           10315         68.4413         47.7984         77.9560        -4.02285
           10316         67.4452         48.0659         76.4940        -4.61656
           10317         66.8960         47.3214         75.5822        -5.76612
           10318         72.1578         79.9569         48.5257        -10.6281
           10319         81.4788         93.5239         51.1819        -4.44302
           10320         56.6723         56.6530         40.5477         14.7785
           10321         48.6512         39.3822         45.1245        -13.6242
           10322         41.1682         35.1284         35.7943        -12.0690
           10323         62.3987         65.4272         40.8804        -14.3337
           10324         59.3259         60.2612         40.3492        -15.1832
           10325         55.4581         41.0244         56.3012        -13.3229
           10326         65.2799         70.5622         41.7533        -12.7187
           10327         92.1420         42.6233         105.147        -5.74982
           10328         68.0056         77.7728         46.1368        -3.45150
           10329         71.9194         50.5898         81.0130        -7.03337
           10330         57.1765         58.5886         40.2126        -13.8501
           10331         87.7637         44.8893         100.601         5.25293
           10332         83.3623         95.8119         54.1673         2.89352
           10333         82.9031         95.3285         53.0066         3.09464
           10334         62.8598         71.7432         44.0924         2.79654
           10335         55.1047         40.9464         55.5453         13.5280
           10336         90.4474         42.6551         103.714         3.09108
           10337         69.9122         80.0766         43.6876        -4.66173
           10338         41.7776         37.9310         33.4985         12.3164
           10339         68.0534         78.4826         39.3789         1.96652
           10340         73.6492         52.5179         83.6088        -4.71147
           10341         94.0929         41.1347         107.498        -3.02580
           10342         95.6665         40.0936         109.186    -461.091E-03
           10343         93.7851         41.1381         107.264        -1.86263
           10344         66.5018         76.6191         40.6034         2.18793
           10345         40.2883         34.2175         34.2453         12.2659
           10346         33.2385         30.7777         27.0833         9.26625
           10347         99.1562         38.6694         112.664     131.569E-03
           10348         87.3339         44.4212         99.1094         8.82883
           10349         68.3908         47.4184         77.8474         4.47142
           10350         69.0284         47.6203         78.7789         3.76760
           10351         58.9992         63.9148         50.7309         4.64139
           10352         55.8450         40.3544         58.1992         12.2696
           10353         62.3059         48.3306         66.8271        -10.1671
           10354         61.7939         48.8854         65.2993        -10.9071
           10355         83.3824         47.1033         95.8228        -4.67117
           10356         53.4993         54.5569         36.2065        -13.5416
           10357         77.1923         87.9977         31.7790     739.352E-03
           10358         70.2797         76.9627         47.2420        -11.8328
           10359         62.1470         45.4083         67.3485        -10.3713
           10360         61.6441         45.7331         66.0900        -11.0013
           10361         65.6494         69.5576         45.0448         13.8535
           10362         65.0750         68.4901         44.8569         14.1888
           10363         53.5060         40.8178         51.8656        -14.4198
           10364         51.5639         53.7704         34.0753         12.0925
           10365         86.1900         97.7584         32.7549     631.176E-03
           10366         82.4941         93.5221         50.5972         8.77074
           10367         89.9918         103.438         54.2474        -4.74556
           10368         83.0019         94.9083         35.9431    -609.399E-03
           10369         84.5256         46.8573         96.6613        -6.70424
           10370         62.9905         71.4083         42.8953        -5.52971
           10371         58.9884         62.5014         51.4238        -6.90051
           10372         59.6606         64.7738         48.7696        -6.93444
           10373         60.3375         66.9484         47.1231        -5.56068
           10374         61.3757         69.2837         45.7201        -3.83296
           10375         59.3434         60.5192         41.8671        -14.6056
           10376         60.0691         61.0502         42.4950        -14.9408
           10377         67.4519         72.3349         45.8453         13.3146
           10378         66.6903         71.0051         45.5411         13.7300
           10379         63.6643         48.8065         69.4629        -8.87331
           10380         63.1410         48.6387         68.4656        -9.37376
           10381         64.8305         69.1043         41.7824        -13.7739
           10382         57.9999         45.5544         59.0437         12.8106
           10383         63.3739         45.9951         69.5808        -9.30228
           10384         62.9071         45.7605         68.7465        -9.71368
           10385         74.1827         85.2698         35.6744    -687.704E-03
           10386         64.6897         73.7478         40.8406        -5.47625
           10387         51.8664         41.1484         47.5958         15.1665
           10388         67.1571         77.4761         40.6042         1.24917
           10389         95.5886         40.6379         108.909         4.09785
           10390         57.4573         42.5597         59.1354         13.0359
           10391         71.0254         80.9820         42.0153         6.42162
           10392         34.5364         32.1893         27.6754        -9.68733
           10393         34.8119         32.9382         27.2931        -9.67841
           10394         68.0067         72.8542         46.1262        -13.5405
           10395         91.1079         42.9595         104.241        -4.72654
           10396         69.8464         80.3380         37.0949        -3.07769
           10397         66.3440         74.0709         47.8831         7.50500
           10398         80.0506         91.9195         37.6370    -803.828E-03
           10399         54.7303         45.3575         50.7143         14.9045
           10400         34.7777         30.8902         29.5804        -9.89993
           10401         61.3319         47.1597         64.6052         11.6976
           10402         71.7393         82.3379         41.9544         4.51859
           10403         84.2296         95.9815         34.4998         1.04499
           10404         92.3442         106.595         53.5777         1.36275
           10405         48.0150         43.8442         37.3056        -14.4574
           10406         75.5965         86.5167         33.4565         1.27759
           10407         72.1860         53.2739         81.7094        -4.05219
           10408         72.3683         52.8214         82.1384        -3.60650
           10409         67.2825         49.3274         75.7948         5.40540
           10410         85.2212         97.1247         51.3930        -7.74021
           10411         69.4128         75.7313         43.8943         12.6540
           10412         72.2916         79.6074         45.3121         12.1480
           10413         71.7317         79.1519         47.9693        -11.1985
           10414         62.7488         71.6390         44.7106         1.75601
           10415         82.1344         46.1653         93.9208        -6.57227
           10416         80.8629         46.6110         92.5347        -6.23674
           10417         77.7728         47.5647         89.1720        -5.03346
           10418         61.3379         54.4419         65.9469        -3.63764
           10419         70.6813         81.0899         43.0040        -4.40134
           10420         70.1492         80.6342         43.9021        -3.24841
           10421         62.8540         65.5414         59.2472         3.04733
           10422         64.6697         58.3762         69.4679         1.13619
           10423         66.2700         56.1983         73.0641     624.947E-03
           10424         66.7395         76.0217         47.9088        -2.69042
           10425         68.4614         78.5803         46.1409        -1.72041
           10426         65.8398         47.4935         73.8653        -6.61516
           10427         66.7527         47.1107         75.3461         6.03004
           10428         49.3850         40.2112         43.5890         14.9968
           10429         60.1364         47.1360         61.3969        -13.1531
           10430         68.7179         74.0900         46.3736         13.1420
           10431         75.9675         48.2523         87.0070        -4.85942
           10432         63.5771         64.6587         45.4041         15.6582
           10433         46.8104         37.4140         42.0685        -14.0902
           10434         52.6311         40.9143         49.6695        -14.8457
           10435         49.1085         38.4846         45.2864        -14.4055
           10436         62.1095         47.4422         66.4115         10.7555
           10437         66.0126         50.3971         73.5355        -6.22637
           10438         64.0328         49.8529         69.8513        -8.52394
           10439         93.1635         107.544         55.9445     353.298E-03
           10440         92.9998         107.349         55.6380    -879.146E-03
           10441         52.0781         53.1862         35.1930         13.1224
           10442         74.4190         82.3381         46.2330        -11.9424
           10443         53.0833         48.0525         42.5492         15.7369
           10444         56.4315         42.2743         56.9898         13.6475
           10445         52.8011         41.2478         49.5994         14.9704
           10446         47.0183         42.3235         37.0988         14.2977
           10447         82.3484         94.7176         51.7437         3.34042
           10448         81.4928         93.4422         51.8281         4.70518
           10449         80.9991         92.7470         51.5883         5.23278
           10450         58.7066         58.8156         40.6920        -15.5422
           10451         62.0100         63.9997         41.3765        -15.1145
           10452         64.1461         67.5052         41.8340        -14.5109
           10453         89.5156         43.9064         102.491         5.19078
           10454         63.3715         49.8877         68.4278         9.28279
           10455         71.2500         77.0974         44.8415        -13.8919
           10456         90.8141         42.9749         104.100         3.52548
           10457         90.7281         43.1565         103.852         4.68196
           10458         76.6223         85.1256         46.9135         11.7936
           10459         91.4560         105.470         52.3127        -2.64782
           10460         89.7962         103.307         50.6347        -4.40165
           10461         80.0283         89.7965         47.7989         10.7789
           10462         79.3971         88.8271         47.2833         11.2246
           10463         77.9038         86.7745         47.1146         11.6583
           10464         58.4314         60.9141         54.4779        -4.25581
           10465         83.2301         95.9565         52.0542        -1.27699
           10466         80.7316         92.6948         49.5064        -4.59613
           10467         55.2584         55.2220         39.5422         14.4226
           10468         51.8053         51.8065         35.9334         13.7870
           10469         50.2908         48.8174         36.3107         14.1439
           10470         46.9749         43.2283         36.5894         13.9148
           10471         60.0717         55.9415         63.4548    -895.470E-03
           10472         67.0524         76.3265         47.2118         3.86654
           10473         82.8668         48.7824         93.9784         8.93939
           10474         60.6961         50.9107         60.5250        -13.0411
           10475         62.8387         67.1501         57.2844         1.25422
           10476         77.3374         89.0841         39.3473    -838.603E-03
           10477         78.1834         90.0128         39.0622    -437.782E-03
           10478         63.8488         70.2645         53.0926        -4.13368
           10479         84.3120         96.1797         35.0612    -535.119E-03
           10480         60.9204         50.0498         62.0830         12.3727
           10481         63.5783         60.0867         66.3748         2.19204
           10482         84.3639         45.3933         96.2237         7.43010
           10483         75.3973         86.4462         34.3744    -761.980E-03
           10484         55.0968         54.2743         39.8839         14.8761
           10485         68.4771         47.9296         78.0217         3.83109
           10486         53.3187         43.8749         49.3641        -14.6846
           10487         93.1593         107.526         56.1533     730.751E-03
           10488         83.8129         47.0705         95.9864         6.15659
           10489         82.1670         47.7622         94.2075         5.61808
           10490         32.8720         27.0620         30.6664        -8.90093
           10491         34.0290         29.0426         30.4082        -9.53895
           10492         65.0970         68.1508         45.0484         14.5352
           10493         66.2131         69.7246         45.6049         14.4064
           10494         63.1640         50.4698         67.7210        -9.56081
           10495         57.4548         43.6432         57.8413        -13.8454
           10496         69.0873         47.9459         78.8969         3.28165
           10497         76.7583         87.7016         32.7678     329.816E-03
           10498         47.4601         41.4113         39.7674         14.1768
           10499         76.8987         88.6572         40.0536    -142.558E-03
           10500         85.5232         97.1679         33.3902     850.924E-03
           10501         85.8492         97.5250         33.3873     340.356E-03
           10502         64.9657         46.8237         72.3697         7.73164
           10503         66.4537         76.6145         41.1220         1.39450
           10504         61.8150         46.8840         65.9196        -11.0780
           10505         61.4815         47.5774         64.7893        -11.5646
           10506         65.3377         69.1116         42.3546        -14.4440
           10507         91.3474         105.261         53.7232         3.32665
           10508         61.4291         51.2150         62.5785        -12.1030
           10509         87.4533         43.9367         99.9179        -6.43250
           10510         87.8417         100.624         52.1257         6.29842
           10511         71.6668         50.3449         82.0359     758.577E-03
           10512         72.7839         50.2705         83.4619    -223.368E-03
           10513         71.4103         53.7019         80.6609        -3.69715
           10514         74.6215         85.7858         35.9152     302.782E-03
           10515         59.4244         56.8087         61.6406        -1.43617
           10516         42.6616         40.1049         32.5843        -12.3377
           10517         54.6809         41.7924         53.3268        -14.4718
           10518         56.6239         53.2357         43.1664        -16.4000
           10519         59.6063         56.7965         61.9940         1.27148
           10520         75.8274         85.2034         49.4741        -9.27091
           10521         76.6356         86.4032         49.8683        -8.74542
           10522         37.9726         33.4458         32.1169        -11.0450
           10523         82.2192         94.8822         49.5217         1.11093
           10524         73.8631         48.9037         84.5643        -4.02359
           10525         70.2797         50.4592         79.8982        -3.69573
           10526         59.1055         57.6421         60.4658     195.254E-03
           10527         60.3829         60.3587         43.4194        -15.6888
           10528         45.2679         37.7256         38.8364         13.9382
           10529         56.4965         43.2513         55.8820         14.3219
           10530         73.5744         80.3364         45.6353         13.4518
           10531         91.2297         105.256         50.1385        -1.58904
           10532         66.2523         75.2051         48.4887         3.10870
           10533         65.4746         73.8987         49.6816         3.11152
           10534         54.4758         53.3942         38.7891         15.0908
           10535         62.9049         63.8181         61.8591        -1.34877
           10536         84.3133         96.2526         35.4740     279.337E-03
           10537         59.3933         64.6438         49.4401        -5.78540
           10538         59.8357         66.2727         48.4434        -4.16110
           10539         60.2813         67.3792         47.8001        -3.14929
           10540         61.7059         70.0134         46.0734        -1.70639
           10541         74.7318         49.2508         85.0057         6.31988
           10542         75.2548         86.3768         35.0110     484.937E-03
           10543         57.3876         44.2491         56.9088        -14.3167
           10544         78.6255         47.0988         90.4746         3.61768
           10545         42.0225         35.7979         35.4314         12.8761
           10546         61.3178         48.5990         63.8968         11.8395
           10547         55.4064         45.7043         51.9993        -14.7609
           10548         79.5001         46.9257         91.2372        -5.01284
           10549         64.6426         73.9587         41.3582        -4.36161
           10550         68.2075         72.8580         46.3638        -13.8124
           10551         58.3764         60.6170         55.5984        -2.03386
           10552         48.9448         39.4260         43.7161        -14.7608
           10553         65.2089         73.5471         50.3775         1.84771
           10554         63.6453         69.8598         54.4883        -1.62208
           10555         74.3279         85.5229         36.5164    -72.1400E-03
           10556         68.3720         73.3360         46.2923         13.5212
           10557         67.5575         72.2049         45.9408         13.6267
           10558         68.0650         72.8872         46.1707         13.5869
           10559         67.6357         72.1186         46.0573         13.8301
           10560         67.1409         71.2603         45.9106         14.0676
           10561         64.9919         67.3587         43.2858        -15.5859
           10562         62.0396         49.6631         65.4102         10.8392
           10563         41.7455         37.4119         34.0593        -12.3453
           10564         91.0970         104.993         52.2296         3.21248
           10565         81.2967         93.3351         50.6842         4.45140
           10566         75.9354         85.3851         49.1533         9.24633
           10567         56.7289         54.6087         42.0869         15.9485
           10568         71.7971         50.8650         82.1279     82.1581E-03
           10569         70.2723         47.6553         80.4962         2.80522
           10570         71.9329         47.8457         82.6874         1.17714
           10571         72.7797         47.8783         83.7491     370.566E-03
           10572         79.5747         90.8069         50.3374        -6.41293
           10573         80.1429         91.8307         49.4088        -5.35482
           10574         51.9333         41.2029         47.6714        -15.1771
           10575         62.5401         46.7191         67.6332        -10.2323
           10576         71.7975         48.1691         82.5139    -477.742E-03
           10577         65.7127         51.2305         72.8843        -6.20161
           10578         48.5390         42.6354         40.3048        -14.5165
           10579         47.8467         42.9525         38.5323        -14.3144
           10580         69.7017         80.1909         45.8523     865.529E-03
           10581         67.2397         76.8674         47.7384        -1.02678
           10582         61.1016         52.7875         59.7819        -13.2759
           10583         61.4284         54.0787         65.6762        -5.39295
           10584         76.0603         87.0943         33.7915    -557.826E-03
           10585         69.2793         79.8149         38.0034        -2.46236
           10586         67.4864         77.7072         39.2859        -2.91095
           10587         72.7324         49.3083         83.1811         3.70233
           10588         89.1906         102.566         48.7836        -4.42920
           10589         62.8916         67.3977         57.0843    -738.459E-03
           10590         61.6877         51.3505         63.2687         11.7538
           10591         47.5550         42.1467         39.0112         14.2297
           10592         48.1965         42.6257         38.7188         14.8012
           10593         59.6702         47.7096         59.5129        -13.9270
           10594         73.4848         80.3344         45.6008        -13.2950
           10595         68.4995         79.0085         41.4854        -1.47263
           10596         66.6062         48.6918         75.2463         4.73848
           10597         57.2084         44.9306         55.6013        -14.8407
           10598         67.8262         71.8973         43.8171         14.8500
           10599         71.3612         52.5600         81.1321        -1.97909
           10600         66.2253         49.4584         74.7185        -4.17379
           10601         53.6280         48.7766         42.0583        -16.1180
           10602         54.1629         43.0639         50.2923        -15.4444
           10603         55.2848         44.0381         51.7218        -15.4881
           10604         63.3149         69.2163         54.8427        -1.43360
           10605         65.9949         51.9091         73.3391         5.44995
           10606         66.4840         53.1713         74.0956        -3.76574
           10607         81.7971         94.3500         49.0036         1.91317
           10608         64.8538         52.0959         72.6255     594.235E-03
           10609         64.7311         53.1312         70.6610        -6.54512
           10610         64.3149         49.3238         71.2182        -6.93526
           10611         62.0884         53.9498         67.7968         1.36572
           10612         63.8904         70.8293         53.2210    -880.608E-03
           10613         54.2374         44.7812         50.3403        -14.7929
           10614         69.1968         48.1205         79.0680         2.92502
           10615         80.7146         46.6651         92.3687         6.20823
           10616         48.1525         40.7040         40.6645         14.8711
           10617         76.6548         86.4561         49.5394         8.75852
           10618         76.6516         88.4065         40.6479     590.390E-03
           10619         77.5976         89.4371         40.2016     762.640E-03
           10620         79.1542         90.1674         50.3554        -6.83055
           10621         65.1393         47.9560         72.6546        -7.04468
           10622         73.0790         48.0067         84.1012     319.624E-03
           10623         65.6953         74.3587         49.4648         2.45101
           10624         78.4752         90.3667         39.3987     307.394E-03
           10625         39.7844         35.4932         32.8741        -11.6781
           10626         73.1713         50.5754         83.8716         1.09081
           10627         62.7611         63.9673         61.4801     135.144E-03
           10628         52.6851         43.8610         47.8273        -14.8575
           10629         70.6103         81.2855         45.3686         1.63029
           10630         45.1544         40.4418         36.5805        -13.4738
           10631         76.4491         86.2020         48.9934         8.88152
           10632         70.2221         48.8005         80.4691    -659.745E-03
           10633         56.4169         46.9838         52.8189        -14.9128
           10634         90.0923         103.786         48.7338        -3.05453
           10635         80.0306         48.8157         91.6864         5.51541
           10636         78.4849         49.4107         89.9458         4.91586
           10637         81.2427         93.1659         37.1189    -541.794E-03
           10638         70.1620         51.8587         79.8291    -417.375E-03
           10639         59.1714         63.2274         53.6268        -2.47664
           10640         52.3646         49.1534         39.6271         15.3133
           10641         70.5398         49.9658         80.5108        -2.58663
           10642         74.5012         81.6668         45.9141        -13.1973
           10643         68.3706         73.1837         46.3783         13.6854
           10644         75.5766         47.7813         86.9873        -2.47269
           10645         63.7761         59.2021         67.2127        -2.83360
           10646         74.3480         81.7731         45.9399        -12.7406
           10647         75.2300         82.9254         46.2037        -12.6438
           10648         79.4115         88.8894         47.4907        -11.1193
           10649         57.3925         47.9724         54.1131        -14.8353
           10650         91.1399         105.158         49.5422         1.10024
           10651         56.0456         52.2385         43.3894         16.2912
           10652         59.3911         65.4039         49.8243        -2.93706
           10653         65.1953         67.2263         46.2406         15.2910
           10654         64.6485         66.0053         46.6360         15.5567
           10655         56.7046         53.3285         43.2363         16.4096
           10656         85.5762         97.3567         34.0307     21.5099E-03
           10657         89.4758         102.843         51.4335         4.94876
           10658         66.1737         55.6219         73.1017         1.56664
           10659         76.3343         85.9992         49.1665        -8.98130
           10660         58.5629         62.2846         53.9022    -831.151E-03
           10661         59.0308         64.4230         51.1863        -1.98744
           10662         82.8005         94.9205         37.5917     609.471E-03
           10663         71.4900         48.0382         82.1268         1.08850
           10664         53.2815         42.3246         49.2212         15.3632
           10665         62.7900         62.7378         61.7999        -4.63750
           10666         62.8504         61.7792         62.5115        -5.40774
           10667         62.1289         51.7178         64.3433        -11.1490
           10668         64.0956         51.7764         69.4699        -8.12973
           10669         61.6219         53.0383         61.5474        -12.3894
           10670         62.7700         51.7524         66.1630         10.1376
           10671         65.3706         75.0499         43.9092        -1.65168
           10672         68.8197         48.5168         78.5693         2.65014
           10673         75.6563         86.8139         34.9723    -279.396E-03
           10674         76.3904         87.4539         33.7602    -30.6469E-03
           10675         75.9263         87.0710         34.6684    -229.883E-03
           10676         85.4456         97.2048         33.9757     378.187E-03
           10677         85.4669         97.1848         33.7586     544.644E-03
           10678         69.7039         74.0681         45.0366        -15.0559
           10679         71.5898         77.0404         45.3356        -14.4595
           10680         73.9714         80.6521         45.8437        -13.6962
           10681         87.5324         100.255         49.7047        -6.41346
           10682         88.4030         101.505         48.5784        -5.25849
           10683         88.4328         101.627         47.1597        -4.50874
           10684         82.7899         93.6792         48.4761         9.48034
           10685         84.8613         96.7760         35.0806    -223.316E-03
           10686         75.6201         87.2517         41.6779         1.28697
           10687         53.8903         51.6306         39.6439        -15.4234
           10688         57.9644         56.5707         41.8137        -16.0901
           10689         59.2600         58.1293         42.5889        -16.2745
           10690         48.1157         44.0895         37.6607        -14.2986
           10691         52.4193         49.7225         39.0746        -15.1824
           10692         74.5245         85.8090         37.3396    -427.763E-03
           10693         63.6474         49.2174         69.7918        -8.01478
           10694         64.5100         50.2647         71.7939        -5.45708
           10695         64.5514         66.2265         45.8409        -15.4427
           10696         65.6990         74.4314         49.7937         1.02143
           10697         64.4278         71.7329         52.7070        -1.64685
           10698         57.7201         58.1116         39.6946         15.1184
           10699         59.1070         55.0172         47.2428         16.6737
           10700         59.7347         55.5562         48.3541         16.6332
           10701         64.9156         54.6092         70.8845        -5.10572
           10702         83.2380         94.3346         49.1659        -9.13445
           10703         84.1692         95.6269         49.5592        -8.62210
           10704         79.2036         90.8033         47.5206        -5.31632
           10705         78.8921         90.5120         46.7534        -5.07974
           10706         78.5840         89.4497         49.4274        -7.12747
           10707         80.8102         93.1831         47.3678        -2.40551
           10708         81.5605         94.0780         48.5535        -1.98479
           10709         62.7592         52.9775         68.9109         3.37205
           10710         63.6743         64.0112         46.8495         15.9268
           10711         91.5374         105.649         50.6030    -964.452E-03
           10712         76.3602         84.2889         46.3146         12.7151
           10713         54.2065         49.6393         42.2619         16.1871
           10714         63.6974         72.9851         43.4019        -2.19905
           10715         66.5174         52.5655         74.2205         4.25003
           10716         62.2405         52.5598         64.1360         11.0891
           10717         60.9426         53.7385         57.6882         14.1224
           10718         61.2937         52.9697         60.3265         13.0041
           10719         62.9841         67.2829         57.1603        -2.49136
           10720         74.1629         85.4503         43.3544        -2.79451
           10721         83.8523         95.9549         36.7762    -282.980E-03
           10722         60.2601         53.6093         54.7744         15.2042
           10723         59.7664         54.8605         49.9551         16.4053
           10724         53.3146         43.2206         48.0743        -15.7172
           10725         52.2299         42.2674         46.9077        -15.5324
           10726         74.4553         48.7514         85.2360         4.36212
           10727         59.5380         58.3075         59.4744        -5.02024
           10728         72.3430         83.3954         37.5456    -245.725E-03
           10729         55.1839         52.3352         41.3414         15.9247
           10730         56.1932         43.7770         54.4080        -14.8642
           10731         56.7126         43.4915         56.1321        -14.3207
           10732         53.7131         44.9771         48.6819        -15.0754
           10733         80.0315         92.0561         39.3929        -1.32579
           10734         57.1256         44.3580         56.0947         14.5755
           10735         90.6292         104.502         48.8069         1.94578
           10736         64.7684         56.9548         70.1517        -2.90477
           10737         76.9031         85.0901         46.2855         12.5148
           10738         69.9688         75.8859         46.8042         12.8854
           10739         59.7433         51.2660         56.7511         14.4889
           10740         87.5679         100.292         50.0831         6.43771
           10741         81.1159         93.6536         47.1423     693.446E-03
           10742         71.4552         51.3523         81.6011    -391.735E-03
           10743         72.5180         51.2005         82.9345        -1.35781
           10744         71.5312         82.3612         44.9051         2.25969
           10745         77.4296         47.4517         89.0178         3.81019
           10746         69.3691         74.9003         46.8143         13.1256
           10747         59.4710         64.0249         52.9048        -2.93890
           10748         59.6986         64.1025         52.9727        -3.84526
           10749         76.2821         87.3620         33.9457     172.624E-03
           10750         65.5106         67.0789         44.9673        -16.1901
           10751         66.4030         68.3575         45.4331        -16.1052
           10752         57.9135         54.9953         43.8875         16.5024
           10753         61.7951         49.5474         65.0379        -10.8968
           10754         61.4025         50.4168         63.5763        -11.4278
           10755         78.0240         88.8181         48.3127         7.21139
           10756         74.3899         81.6694         45.9023        -12.9841
           10757         87.0337         99.5659         49.8303        -6.82720
           10758         60.1716         52.4334         56.5286         14.6043
           10759         60.9251         50.7664         61.5819        -12.4981
           10760         62.7247         63.8917         61.3975         1.33906
           10761         63.5210         69.8385         54.3206    -384.284E-03
           10762         63.6559         70.0743         54.2083     760.543E-03
           10763         65.5181         53.3742         72.2810         5.07310
           10764         86.1675         98.4469         48.0948         7.18120
           10765         81.2731         91.5117         47.4496         10.3546
           10766         91.6234         105.756         50.8203     883.594E-03
           10767         62.6960         65.1932         59.5773        -2.25217
           10768         62.8749         52.8954         65.9429         9.91528
           10769         81.2478         93.4530         49.5662         3.78822
           10770         67.5176         50.3226         76.7131     767.199E-03
           10771         75.7600         86.9366         35.0441     198.509E-03
           10772         80.8985         93.3683         46.9762         1.44264
           10773         65.8186         68.3486         46.4081        -15.0419
           10774         75.6088         86.8418         35.6396     75.2848E-03
           10775         63.4150         72.5346         44.9489     216.050E-03
           10776         69.3706         79.8113         45.8122     60.7419E-03
           10777         65.9444         74.8254         49.2371         1.79971
           10778         70.7738         48.3836         81.2028     991.590E-03
           10779         59.7839         56.7455         46.1084         16.7782
           10780         60.0699         57.0860         60.6762        -6.62672
           10781         77.3250         87.4302         50.0238        -8.29304
           10782         62.7387         66.1533         58.5293        -1.42660
           10783         70.9835         76.1247         45.1948         14.6237
           10784         82.0208         92.5857         47.5673         9.94473
           10785         76.5493         88.2829         41.1791         1.36911
           10786         57.1526         45.7889         54.3196        -15.3450
           10787         58.0091         57.7203         40.5735         15.5898
           10788         58.2038         57.5024         41.1903         15.8436
           10789         78.2576         49.9003         89.4534         5.65812
           10790         60.7626         55.1405         63.6042        -6.14533
           10791         73.4494         48.2922         84.4595         1.63245
           10792         80.7556         92.7175         49.5875         4.60606
           10793         58.0109         55.8390         42.8674         16.3638
           10794         66.9232         76.3666         48.4204    -93.2489E-03
           10795         69.6834         48.5272         79.7628         1.77460
           10796         62.3830         70.4970         47.3432        -2.44883
           10797         67.0854         77.3220         40.0752        -2.19295
           10798         65.7740         75.3417         44.3279        -2.86511
           10799         68.0192         72.4093         46.5456         13.9922
           10800         60.9738         54.6215         63.5819        -7.40675
           10801         71.5765         76.8627         45.5842        -14.6189
           10802         72.5086         78.3040         45.7530        -14.3212
           10803         60.7071         57.4019         48.1388         16.6962
           10804         52.9740         45.9668         43.8535         16.1861
           10805         63.7350         63.9326         47.5783         15.8417
           10806         52.3217         46.2876         42.2358         15.9807
           10807         61.7953         53.8626         61.4025         12.3087
           10808         80.2767         92.5518         46.5436        -2.57572
           10809         84.8998         96.8384         35.2034    -150.702E-03
           10810         84.9872         96.9176         35.1172    -145.090E-03
           10811         81.9262         92.4485         47.9357        -9.98216
           10812         89.6106         103.063         50.4510         4.55846
           10813         62.8017         63.0515         61.0242        -5.54594
           10814         62.8961         64.8045         59.2353        -5.36007
           10815         56.7688         54.4390         42.0008        -16.1401
           10816         59.0995         57.3475         43.3019        -16.4542
           10817         64.4868         65.2918         45.0964        -16.3937
           10818         75.1436         82.6695         46.1117        -12.8847
           10819         76.3459         86.1089         48.5970         8.88670
           10820         66.7731         70.0876         46.6468         14.6037
           10821         60.1339         56.4145         62.0992         5.17903
           10822         59.9293         57.1771         60.8241         5.78724
           10823         64.4112         65.6853         46.3128        -15.6145
           10824         84.3590         96.5061         36.8052    -321.654E-03
           10825         73.9619         48.3733         84.9836         2.52358
           10826         76.1995         47.8512         87.5444         3.72846
           10827         77.2694         47.6406         88.6814         4.52310
           10828         60.0318         49.2230         59.2668         13.9719
           10829         61.0502         50.8712         62.0665         12.1710
           10830         57.5203         51.6508         47.0759        -16.8932
           10831         70.8450         81.6919         40.7607        -2.14689
           10832         74.5541         83.4528         47.5976        -10.0094
           10833         62.1506         53.4044         63.2232        -11.4002
           10834         61.7723         55.2624         59.4646        -13.0639
           10835         79.0330         90.9790         40.3354        -1.97943
           10836         61.1170         57.3060         50.2660         16.3828
           10837         67.8592         71.0403         44.9174         15.6153
           10838         61.8637         61.6468         43.7882         16.4193
           10839         87.4756         100.257         48.1616        -6.04014
           10840         61.5387         54.7669         58.9634         13.4184
           10841         65.4359         73.7038         50.9763        -1.65047
           10842         64.2276         71.2711         53.1424         1.73352
           10843         69.9603         80.1318         46.6258         3.44411
           10844         64.3427         56.7393         69.2426        -4.27657
           10845         63.3804         68.9706         55.3947         2.01381
           10846         88.2750         101.458         46.4607        -4.24337
           10847         60.9527         58.7033         46.6234        -16.6569
           10848         60.8259         59.3673         45.3240        -16.4500
           10849         73.5003         84.6074         43.9657        -3.20068
           10850         73.6458         84.6670         44.1707        -3.82720
           10851         65.1192         51.2598         73.0800         2.47139
           10852         59.9680         54.4471         51.7001         16.0592
           10853         75.2857         82.6347         46.1471         13.2067
           10854         89.7112         103.330         47.3935        -2.71301
           10855         60.9836         55.1003         55.2529         14.9946
           10856         75.1592         86.5376         37.6712     579.617E-03
           10857         65.9631         68.5147         46.8990        -14.9513
           10858         61.3038         54.3545         65.5867         4.72783
           10859         71.0699         48.8738         81.5232     445.025E-03
           10860         62.3584         49.5200         66.6603        -9.89543
           10861         84.8143         96.5500         48.0395         8.20530
           10862         71.8779         77.4910         45.3856         14.3609
           10863         72.3808         51.6780         82.6277         1.92014
           10864         58.9647         57.4570         42.8280         16.3509
           10865         50.6686         43.4799         42.2028        -15.6066
           10866         59.6340         63.0823         54.0407        -4.67093
           10867         62.9072         53.6994         65.6831         9.77348
           10868         75.7495         87.0128         35.7885     10.5125E-03
           10869         76.0418         87.2324         34.9423    -1.41764E-03
           10870         75.9390         87.1708         35.3591     29.8526E-03
           10871         63.3110         69.0433         55.2785     856.357E-03
           10872         57.0445         48.8347         49.7605         16.5648
           10873         75.1922         51.7506         85.5410         5.33121
           10874         77.7057         88.1612         49.0317        -7.83921
           10875         80.8115         92.9329         48.8507         3.97581
           10876         78.7566         89.8813         48.6256        -6.58383
           10877         61.5935         50.8776         64.2241        -10.7712
           10878         53.8342         49.8287         41.7729        -15.8296
           10879         53.4506         46.6062         45.5219        -15.6438
           10880         78.8487         87.9873         46.6453        -11.6012
           10881         84.7856         96.7866         35.6313    -49.2776E-03
           10882         75.2706         84.4853         48.1020         9.62662
           10883         75.6213         85.0997         47.9339         9.27606
           10884         75.7992         85.4808         47.6381         8.96861
           10885         79.7964         91.5266         48.2908         5.10697
           10886         67.7943         77.4528         44.1738        -4.73253
           10887         71.4167         78.5726         46.8187        -11.7385
           10888         71.9021         82.8995         44.3268         1.56916
           10889         85.0630         96.9866         35.0444    -128.653E-03
           10890         85.0419         96.9938         35.2204    -83.7416E-03
           10891         84.9345         96.9043         35.3747    -80.9499E-03
           10892         60.3528         53.1370         56.0850        -14.7601
           10893         66.7547         68.6233         46.4434        -16.0949
           10894         63.4693         71.3548         47.4880        -4.83818
           10895         88.4875         101.784         45.5841        -3.25990
           10896         88.8198         102.218         45.6252        -2.73625
           10897         68.1992         72.8326         46.9023         13.6959
           10898         67.6531         71.7740         46.8808         14.0528
           10899         69.8533         49.9459         79.7542        -1.58728
           10900         66.5797         69.7176         46.9226        -14.6277
           10901         75.1033         82.3381         46.0795         13.3132
           10902         73.7093         82.5352         46.6958         9.90887
           10903         66.9987         76.1305         49.1841         2.47019
           10904         71.6843         82.2005         45.5763        -4.11963
           10905         61.3251         56.3473         54.1821         15.3087
           10906         89.6990         103.342         46.5442        -1.81621
           10907         62.8893         62.5732         60.4792        -7.44529
           10908         63.0685         64.7458         58.6964        -6.84828
           10909         66.6420         69.8613         47.0475         14.5360
           10910         66.0527         68.7686         47.3930         14.6844
           10911         63.9030         51.3115         70.8308        -4.76622
           10912         80.5796         92.9409         46.8081        -2.19455
           10913         80.2705         92.6094         46.1020        -1.90967
           10914         64.3994         65.3713         48.2113         15.2881
           10915         72.1047         77.6020         45.9674        -14.5048
           10916         72.8971         78.8797         46.1080        -14.1775
           10917         56.9461         53.9901         43.0035        -16.3339
           10918         57.9791         55.3457         43.5123        -16.4654
           10919         60.6863         58.5051         45.7550        -16.7667
           10920         61.6326         59.6770         46.6718        -16.7751
           10921         57.2577         52.2746         45.6144         16.8286
           10922         67.6342         77.3044         48.0313        -1.21528
           10923         77.1373         87.5283         47.9289        -7.89331
           10924         70.3116         76.6364         46.8184        -12.4715
           10925         60.5223         56.0799         61.0005        -8.52129
           10926         60.6720         55.5856         61.1314        -9.17075
           10927         68.3585         49.8699         77.9114     612.062E-03
           10928         69.3408         49.7320         79.2057    -361.250E-03
           10929         59.9722         64.0914         53.0950        -4.92629
           10930         63.8785         54.2261         68.4177         7.50637
           10931         63.5148         56.3018         66.9323         7.13493
           10932         79.5972         91.7500         45.5521        -2.71172
           10933         78.8739         90.1087         48.3925        -6.33155
           10934         63.0578         52.0118         69.1783         5.27581
           10935         73.2293         84.4112         37.9948     535.627E-03
           10936         73.6913         84.9195         37.8929     595.640E-03
           10937         76.1673         85.9032         48.2312         8.92686
           10938         60.9109         54.5804         61.9653        -9.54819
           10939         61.4521         52.9146         64.1846        -9.18416
           10940         71.2310         82.1265         40.6946         2.24646
           10941         64.8261         72.3421         52.2473         2.51212
           10942         64.4566         71.4378         53.0691         2.95003
           10943         77.3805         89.1757         41.0825         1.93494
           10944         78.0941         89.9497         40.8656         2.12821
           10945         82.4574         93.2070         47.7372        -9.69996
           10946         86.2873         98.6628         47.4961         6.86439
           10947         88.2675         101.301         48.9435         5.53019
           10948         90.0071         103.612         50.1603         3.95520
           10949         72.2753         83.2369         44.4806         2.53281
           10950         59.1211         48.1863         57.2390         14.7785
           10951         59.9811         50.6058         57.5817         14.5498
           10952         59.0351         63.0383         53.7276         1.96307
           10953         58.8801         61.4142         55.6006         2.47603
           10954         59.1269         60.6758         56.5751         3.93416
           10955         59.7745         64.9387         52.0519         2.98543
           10956         61.9675         59.8465         48.7099         16.3384
           10957         61.7022         60.1550         46.6940        -16.5034
           10958         64.4327         65.5199         46.8290        -15.6417
           10959         65.1239         66.1605         45.5384        -16.3606
           10960         67.9841         72.6972         47.1337         13.4394
           10961         61.2683         59.9901         44.8455         16.6749
           10962         84.4453         96.6420         37.1095    -429.793E-03
           10963         83.8537         96.1264         38.1716        -1.06106
           10964         86.9565         99.7311         45.9072        -5.35521
           10965         86.0757         98.3384         47.8357        -7.17443
           10966         89.6638         103.311         45.9417     846.515E-03
           10967         60.3503         56.0590         62.2627         6.14518
           10968         60.7677         51.6933         60.3228        -12.9095
           10969         61.9648         54.7703         61.1792         12.2169
           10970         61.9189         55.2900         60.2691         12.6079
           10971         85.4917         97.6157         46.8996         7.27014
           10972         62.2563         55.3158         62.0365        -11.5338
           10973         89.6839         103.338         45.9483    -697.544E-03
           10974         82.0014         94.1542         38.7040         1.33676
           10975         82.5697         94.7763         38.7773         1.49420
           10976         65.6172         73.6005         51.2671        -3.34418
           10977         85.0152         97.0854         35.9572    -14.9543E-03
           10978         81.4924         91.8842         46.8983         10.1335
           10979         60.1625         51.6659         57.1100        -14.5974
           10980         66.3684         76.4649         40.7857        -2.08829
           10981         73.7234         84.9865         39.5852        -1.79404
           10982         74.7003         86.0720         38.5048        -1.04860
           10983         71.5966         79.0868         46.6907        -11.3130
           10984         74.9917         84.2626         47.3811        -9.50541
           10985         75.5891         87.0626         38.3115     713.984E-03
           10986         63.1333         66.0574         57.8355         5.70813
           10987         63.4692         67.3443         56.5587         5.86236
           10988         76.9059         87.1126         48.1208         8.21028
           10989         79.9736         92.1154         46.5683         3.24480
           10990         69.1207         78.7368         47.7089         4.41571
           10991         70.7587         81.1129         46.0985         3.72420
           10992         70.9190         81.1051         46.3103         4.57631
           10993         59.8168         53.4626         53.1252        -15.6815
           10994         75.5248         86.9936         42.6958         3.02452
           10995         64.0059         70.2612         54.1473         3.29838
           10996         61.9898         57.3758         56.2674         14.2958
           10997         55.6671         48.7070         47.9411        -15.9497
           10998         89.4033         102.950         46.5914         2.58219
           10999         89.2849         102.782         46.8984         3.08341
           11000         78.0243         87.3989         45.7709         10.8715
           11001         79.1964         91.1610         40.1024         1.76223
           11002         77.7720         89.5581         41.3697         2.66882
           11003         71.0241         76.0090         45.4742         14.7830
           11004         82.3437         93.1383         46.8417        -9.56302
           11005         54.6429         46.9599         46.2217        -16.4796
           11006         76.3774         86.5257         47.3052        -8.20840
           11007         60.4449         58.3801         45.2449         16.7296
           11008         58.3064         47.8459         55.0293         15.4392
           11009         63.5890         54.9391         67.4442         7.78598
           11010         62.9887         62.9681         59.6360        -8.19156
           11011         67.9718         77.6662         47.9648        -2.06167
           11012         59.8302         63.0618         54.0949        -5.41380
           11013         60.1142         63.6895         53.5171        -5.82409
           11014         63.7706         50.1639         70.2218         6.87422
           11015         84.6417         96.8410         37.0096    -348.402E-03
           11016         85.0572         97.0617         35.5312     10.4650E-03
           11017         89.3563         102.922         45.4134        -1.03614
           11018         83.2795         94.3971         47.5881        -9.16925
           11019         63.2907         64.5581         58.0193        -8.51161
           11020         73.0446         51.7846         83.3356         2.86018
           11021         63.7789         66.3257         56.4007        -8.72605
           11022         67.0968         70.8053         47.1273         14.1947
           11023         66.7939         69.0406         45.3627         16.0095
           11024         84.1864         95.6664         47.9226        -8.62755
           11025         84.4981         96.2347         46.7964         8.00723
           11026         83.3598         95.6172         38.4967         1.31160
           11027         56.9934         49.4015         48.8172         16.6960
           11028         67.9076         77.1239         44.9270        -6.05108
           11029         58.3596         53.3851         46.9338         16.9180
           11030         59.3454         54.3782         48.4115         16.8696
           11031         75.9526         87.1942         35.4321    -3.97978E-03
           11032         61.8737         52.8808         66.1240         7.21760
           11033         70.7276         81.4377         41.5898        -3.03070
           11034         60.4684         65.9168         51.4187         4.35424
           11035         76.2757         86.5445         46.8176         7.91519
           11036         75.1431         86.5874         38.9144        -1.19259
           11037         79.2031         90.8032         47.5179         5.31491
           11038         73.7417         84.9946         38.3376     908.215E-03
           11039         78.5483         90.3446         41.5747         3.42947
           11040         74.5209         85.8875         39.1084        -1.43219
           11041         73.9944         85.2815         40.0246        -2.13105
           11042         58.7214         51.9818         50.2152        -16.6814
           11043         60.5496         52.1972         58.6578        -13.6960
           11044         79.5666         91.7795         45.0493        -2.04313
           11045         61.9729         60.0202         48.2036        -16.4095
           11046         61.0932         54.5071         64.5177         6.20479
           11047         57.6880         52.3559         46.5607         16.8976
           11048         80.6192         92.6530         48.8209         4.27382
           11049         61.3394         59.4799         46.0333         16.7695
           11050         88.4134         101.623         46.7916         4.29587
           11051         58.1283         50.9762         51.5299        -15.8301
           11052         57.5900         50.8106         50.0710        -16.0408
           11053         62.1424         55.9471         60.6768         12.1740
           11054         73.8677         85.1174         43.4925         2.69779
           11055         70.8160         77.9240         46.6710        -11.5666
           11056         85.5603         97.5767         48.4197        -7.73550
           11057         79.7316         89.5522         46.0619        -10.6582
           11058         67.0297         68.9761         47.4300        -15.8873
           11059         88.6483         102.019         44.8498        -2.20735
           11060         57.5688         50.5841         48.7317         16.7897
           11061         66.0180         75.9707         43.0642         1.14437
           11062         71.3949         76.4583         46.2614        -14.7003
           11063         64.0790         64.9256         49.0906         14.9236
           11064         61.5276         58.4778         50.0444         16.2074
           11065         79.7020         91.5011         47.7313         4.80104
           11066         80.1067         92.0126         48.1834         4.56863
           11067         62.5751         55.2073         63.6363         10.5105
           11068         73.1188         83.5952         45.2588        -5.57571
           11069         55.1904         51.2313         42.8600        -16.1259
           11070         57.0993         53.5375         44.0344        -16.4573
           11071         58.2375         55.0932         44.5370        -16.5981
           11072         63.1535         55.4914         65.8487         8.69953
           11073         62.9136         55.9570         64.7195         9.30641
           11074         77.1306         88.4092         43.2794        -5.35823
           11075         74.1372         83.1053         46.8862        -9.79812
           11076         61.5020         52.8094         64.3484         9.14982
           11077         62.6831         51.7224         68.0566         6.88748
           11078         65.0517         66.6838         47.2782        -15.3020
           11079         59.7329         52.6320         53.2586        -15.9637
           11080         60.5069         53.1516         57.1064        -14.2613
           11081         63.3870         51.3870         69.7165         5.75678
           11082         89.0706         102.564         44.7706    -741.243E-03
           11083         70.1247         79.7514         47.2801         5.55084
           11084         66.1652         75.0107         45.6382        -5.52950
           11085         60.3967         56.8078         60.0907         8.62856
           11086         62.7421         70.5080         47.8375         4.06987
           11087         67.0518         76.3670         48.8438        -1.67043
           11088         64.5789         73.2298         46.1789        -4.35915
           11089         57.6844         50.3312         49.4551        -16.7092
           11090         80.3009         92.3466         39.4015         1.46676
           11091         82.2951         94.5031         39.2767         1.89305
           11092         84.4511         96.7060         37.5441    -610.756E-03
           11093         84.1626         96.5282         38.8223        -1.40621
           11094         62.2102         50.3562         66.2640        -9.66508
           11095         61.5308         52.0032         64.0887        -10.1186
           11096         78.9936         91.1761         43.5438     575.197E-03
           11097         79.2899         91.2231         46.1012         3.89028
           11098         60.5417         58.3946         57.6730        -9.94967
           11099         60.5031         56.6419         59.9009        -9.25749
           11100         66.9407         70.7480         47.4433         13.9215
           11101         61.0645         53.7107         62.1822        -10.2836
           11102         80.9221         91.2853         46.0672        -9.97420
           11103         83.1543         94.3393         46.6915        -8.93451
           11104         57.9724         51.8963         49.3442        -16.2635
           11105         61.8868         66.8264         50.9821        -7.57140
           11106         84.8549         96.6549         47.4745        -8.02089
           11107         62.4567         57.4105         60.8123        -11.5180
           11108         62.0199         57.2598         56.9637        -13.9600
           11109         62.4581         60.7913         47.4876        -16.7052
           11110         76.4816         87.9607         42.6931         3.87156
           11111         63.2904         66.0400         57.5186         6.69635
           11112         62.3791         60.9843         47.9327        -16.3060
           11113         88.8990         102.329         45.3994         2.33858
           11114         76.9265         88.2943         44.3617        -4.85546
           11115         78.0916         89.7560         44.9895        -4.32783
           11116         84.5141         96.7440         37.3114    -495.591E-03
           11117         83.0567         95.3162         38.8997         1.61367
           11118         83.0958         95.4059         40.4066        -2.88535
           11119         77.0514         86.2563         45.7559         10.7998
           11120         78.3460         90.1504         44.7621        -3.77177
           11121         61.1117         65.2043         52.2191        -7.32842
           11122         74.3753         85.7228         39.0982         1.44089
           11123         60.5008         55.1197         52.6483        -15.8353
           11124         58.4757         52.3729         50.1581        -16.2026
           11125         62.3139         58.0889         57.4455         13.4865
           11126         84.8118         97.0490         37.1735    -327.803E-03
           11127         62.7639         61.7519         48.1404        -16.1377
           11128         89.0256         102.504         44.9223        -1.31111
           11129         88.7980         102.220         44.3831        -1.03286
           11130         84.0228         95.4858         47.3629        -8.59327
           11131         79.7110         91.6167         41.3349        -3.58777
           11132         62.0704         60.8149         45.8582         16.7349
           11133         87.9969         101.205         44.0303        -2.48132
           11134         70.0147         76.7480         46.7291        -11.7552
           11135         70.2547         77.4341         46.5840        -11.2072
           11136         74.3976         85.0172         44.7646        -6.02709
           11137         68.8827         78.3378         48.0001        -4.62704
           11138         67.7930         76.8371         48.9588        -4.35265
           11139         59.2303         61.8775         55.2339         3.93069
           11140         79.1189         90.7692         47.1082         5.08373
           11141         79.3560         91.4782         45.1363         2.63455
           11142         73.1931         81.6814         46.7135        -10.3093
           11143         75.5319         86.0555         45.3235        -6.96750
           11144         75.2165         85.8208         44.8147        -6.58245
           11145         64.2684         67.1582         55.2955        -9.59448
           11146         63.0513         62.4522         59.1882        -9.45839
           11147         55.8159         51.3260         44.1872        -16.2941
           11148         57.0856         52.8390         45.0795        -16.4985
           11149         56.9509         51.8731         46.2808        -16.4459
           11150         66.7029         76.8001         42.7495         1.49000
           11151         66.4665         69.9721         47.7306         13.9439
           11152         78.9198         90.9502         44.6572        -2.81149
           11153         78.1179         89.9377         44.1761        -3.42437
           11154         78.5774         90.6190         43.6470        -2.06472
           11155         60.9847         64.2521         52.9606        -7.93320
           11156         84.7439         96.9950         37.3176    -414.361E-03
           11157         84.7672         97.0465         37.5108    -475.508E-03
           11158         84.6349         96.9110         37.5787    -561.880E-03
           11159         79.4630         91.7203         44.3738     950.774E-03
           11160         79.7515         92.0363         45.0218         1.44945
           11161         84.6879         97.0093         37.8962    -683.307E-03
           11162         80.7479         92.8325         39.8058         2.09087
           11163         86.1753         98.5772         46.8114        -6.63190
           11164         66.1460         73.9777         51.0491        -4.93579
           11165         62.7807         58.4601         62.6029         9.38940
           11166         62.7572         59.2471         61.4567         9.87348
           11167         59.9420         63.7797         53.4052         5.13935
           11168         59.0205         49.0376         55.8302         15.2699
           11169         60.0975         52.0198         56.2429         14.9234
           11170         76.6907         87.6686         43.9092        -6.24813
           11171         66.1272         74.2990         50.7636        -3.96698
           11172         88.4687         101.801         44.2916        -1.86684
           11173         60.6220         56.6567         59.2534        -10.1846
           11174         74.8948         86.3165         39.4392        -1.58086
           11175         63.6233         62.8836         47.4553        -16.5905
           11176         89.0560         102.547         44.6493    -260.712E-03
           11177         76.6964         84.9285         46.1780        -12.3681
           11178         78.3267         87.5026         46.0502        -11.3615
           11179         79.3632         89.2535         45.7259        -10.3709
           11180         62.3205         57.3975         59.5829         12.3715
           11181         68.6337         78.8077         42.9937         3.63824
           11182         83.4280         95.7330         39.0300         1.68855
           11183         60.8874         54.4656         60.7238        -10.9659
           11184         69.3048         76.7855         46.4484         10.2674
           11185         60.8125         54.5339         58.4825         12.8229
           11186         60.8313         55.0673         58.8078         12.2211
           11187         60.1787         52.9304         55.1876         15.2236
           11188         60.8954         56.2988         52.2215         15.8284
           11189         66.0757         74.4518         46.2431        -6.51631
           11190         60.8141         59.0515         56.4957        -10.8883
           11191         79.4217         91.6273         44.6952         1.81530
           11192         65.8145         66.7379         47.9542        -16.1076
           11193         84.5535         97.0150         39.4791        -1.71680
           11194         76.5014         87.8598         43.0728         4.55438
           11195         62.3132         58.4067         55.9776        -14.2310
           11196         73.2108         84.3648         40.4795         2.50716
           11197         72.1560         82.9844         41.8242         3.72237
           11198         63.8939         63.2012         48.0590         16.4900
           11199         63.9967         63.2121         48.9045         16.3250
           11200         64.2014         63.5035         49.7385         16.0601
           11201         63.2223         63.8418         58.3422         8.98392
           11202         78.8888         90.8092         45.2767         3.59193
           11203         74.6947         83.9705         46.9683        -9.41962
           11204         72.2087         83.1669         41.0988        -2.96174
           11205         61.8255         56.8962         56.3215        -14.3479
           11206         77.6336         89.3300         43.9357        -3.72230
           11207         61.2092         56.7596         52.2844        -15.9049
           11208         79.3911         91.2019         41.7855         4.08503
           11209         72.0568         81.9132         46.3006         6.61560
           11210         62.5797         58.9388         58.2464         12.6856
           11211         63.0643         60.7880         55.2235         14.0145
           11212         85.3045         97.7152         38.1049    -99.6162E-03
           11213         60.1557         54.7665         51.1140        -16.3913
           11214         61.6771         58.8132         50.2172        -16.0908
           11215         65.8558         68.4899         47.7017        -14.5803
           11216         84.7803         96.8602         45.4078         6.88303
           11217         63.7859         64.7488         49.8899         14.3475
           11218         72.8073         82.6152         44.8066         7.52106
           11219         69.8352         77.9375         46.0391         9.50925
           11220         60.8256         63.4559         53.5867        -8.20496
           11221         75.9144         87.3384         37.1880     19.6821E-03
           11222         88.6056         101.818         47.9082         4.71852
           11223         59.0322         52.3724         50.7194         16.5909
           11224         58.7904         51.3567         51.5056         16.4432
           11225         79.4717         91.2084         42.1720        -4.64530
           11226         76.2437         87.8271         38.6337     81.3805E-03
           11227         78.4886         90.5810         42.7133     206.237E-03
           11228         75.1534         86.6100         39.2958        -1.41317
           11229         81.7698         92.5172         46.0368        -9.42852
           11230         83.7777         95.1913         46.9383        -8.60705
           11231         67.6532         70.1073         46.8819         15.8195
           11232         80.5322         90.9166         45.6728        -9.76430
           11233         88.2131         101.482         43.1853    -399.589E-03
           11234         87.5812         100.685         42.1467     289.725E-03
           11235         61.4057         61.0017         54.3913        -11.6762
           11236         60.8192         55.1419         59.7902        -11.2608
           11237         60.7960         56.0477         58.6434        -11.5844
           11238         67.0189         75.5266         49.9087        -4.68381
           11239         76.1031         87.6379         38.2230     137.889E-03
           11240         64.4719         64.3077         47.8338        -16.4231
           11241         69.4785         76.3619         46.7016        -11.2739
           11242         72.1753         82.9166         42.2328         4.17528
           11243         88.7097         102.106         44.4769        -1.51571
           11244         88.6351         102.014         44.2124        -1.27618
           11245         63.3895         64.0631         57.6814         9.69966
           11246         88.3602         101.669         43.7676        -1.31450
           11247         88.0730         101.307         43.6540        -1.86692
           11248         60.6790         53.2499         58.4247        -13.4667
           11249         60.7267         55.2825         61.9531         8.53056
           11250         68.2636         75.6633         46.6172         9.81540
           11251         61.2703         67.4262         50.2662         4.84173
           11252         66.5699         76.1092         44.4205         3.94018
           11253         67.0264         76.6243         44.2967         4.21368
           11254         68.3966         78.2178         43.8602         4.72606
           11255         62.9179         68.9840         49.4905        -7.40765
           11256         68.7845         77.6198         48.6244         6.22784
           11257         62.9529         61.2493         59.3400        -10.4065
           11258         78.8460         90.8830         44.4243         2.63810
           11259         60.8379         55.5060         58.3755        -12.2858
           11260         65.3909         72.7705         47.3812        -7.81876
           11261         64.5755         71.2718         48.2107        -8.20792
           11262         85.7512         98.1205         45.7798        -6.37143
           11263         62.5108         57.8563         60.6151         11.4459
           11264         75.9155         86.4324         44.6664        -7.26049
           11265         87.0828         99.8186         46.8495         5.80936
           11266         63.6350         62.5059         54.5473         13.8629
           11267         63.7305         62.8089         48.4564        -16.4529
           11268         68.1037         71.3331         48.7527        -14.7259
           11269         87.6555         100.773         43.9341         2.91055
           11270         66.8326         71.1512         47.7679         13.1792
           11271         78.2335         90.0282         44.5753         3.71794
           11272         63.2805         61.6229         55.8742         13.2696
           11273         83.7661         95.4382         45.5959         7.76540
           11274         83.0984         94.6236         45.2196         7.86878
           11275         78.5838         90.5832         44.0289        -2.57121
           11276         61.1661         57.2302         51.4753        -15.9398
           11277         73.9443         83.8335         45.6944        -7.79833
           11278         60.8370         54.9193         60.1665         11.0952
           11279         83.6946         95.3849         45.4093        -7.65648
           11280         69.8133         77.1034         46.5268        -10.8258
           11281         62.3506         58.8445         54.2780        -14.9753
           11282         64.3915         65.3071         47.7392        -15.4911
           11283         78.5505         88.2298         45.6454        -10.4795
           11284         63.2590         61.7847         56.6041         12.6173
           11285         77.3617         86.2182         45.9959        -11.5661
           11286         78.0746         89.6534         45.3605         4.72823
           11287         75.1616         86.1556         44.0099         5.20586
           11288         76.5081         87.7260         43.4303         5.20947
           11289         78.2747         89.7372         42.8735         5.27194
           11290         79.1924         90.7703         42.6876         5.31443
           11291         62.8618         60.3768         58.9755         11.3855
           11292         75.1611         86.6239         39.8402        -1.76734
           11293         60.9127         54.5554         61.9534         9.58712
           11294         64.9966         65.1187         49.2525         15.9746
           11295         65.2241         65.5962         49.8368         15.6707
           11296         67.5144         69.8501         47.4506         15.7271
           11297         69.0199         72.6312         47.5819         15.0593
           11298         83.6424         95.3990         45.0614        -7.37944
           11299         65.3384         68.3648         53.2974        -11.5240
           11300         69.1177         73.1322         48.2066        -14.4973
           11301         76.7914         88.5362         40.2235     719.641E-03
           11302         60.8573         55.4540         57.5954         12.9760
           11303         75.0880         85.2834         45.6300        -7.62303
           11304         74.6518         84.3826         46.1135        -8.50877
           11305         74.1048         84.4869         44.4387        -6.66265
           11306         64.8714         64.9233         48.5866        -16.1967
           11307         66.8964         69.0518         49.4214        -15.0238
           11308         60.3729         53.3249         55.7758         14.8844
           11309         60.5587         54.1811         55.4947         14.8197
           11310         79.5522         89.9280         45.1536        -9.36695
           11311         85.1060         97.6785         40.0874        -1.88103
           11312         69.8397         78.5592         48.1367         7.53816
           11313         70.4347         79.2975         47.7434         7.73410
           11314         80.2208         91.0578         44.6940         8.48591
           11315         79.3354         89.9164         44.7962         8.76276
           11316         66.4618         70.9990         48.0470        -12.6370
           11317         63.7105         70.9997         48.0687         6.33345
           11318         66.6528         72.0504         47.8670         11.6751
           11319         60.8116         55.4336         59.1111         11.6588
           11320         77.0253         88.8208         40.6015    -713.978E-03
           11321         80.0553         91.8439         42.1565        -4.76752
           11322         80.0364         91.7505         42.4642        -5.18263
           11323         62.2165         60.3136         51.1083         15.3148
           11324         60.8546         55.8689         53.5184         15.3596
           11325         65.9416         69.2418         48.1780         13.7681
           11326         68.8759         77.3439         45.7476         8.31207
           11327         87.3184         100.352         41.7167    -140.024E-03
           11328         86.9836         99.9278         41.1933     125.300E-03
           11329         87.2845         100.318         41.8998     938.120E-03
           11330         87.3415         100.340         44.6140         3.94159
           11331         65.9445         70.3282         52.5289        -10.6082
           11332         75.1712         86.6248         40.4458        -2.20654
           11333         74.2942         85.4832         41.7166        -3.56108
           11334         62.0817         62.2481         52.9064        -12.5638
           11335         63.8985         69.8460         49.0446        -8.65559
           11336         75.2136         86.3518         43.0895        -4.64060
           11337         75.8583         87.1680         43.0958        -4.30338
           11338         85.8879         98.3883         45.1286         5.77357
           11339         84.0471         96.0239         44.6717         6.76523
           11340         85.3100         97.8918         39.7730         1.47687
           11341         79.3980         90.5394         43.8429        -7.16398
           11342         61.7234         65.9741         51.5962         8.14544
           11343         62.3606         66.6280         51.0666         9.02251
           11344         87.0820         99.8651         46.3105         5.48881
           11345         84.6816         97.2075         41.4524        -3.30897
           11346         81.7855         93.9541         40.2765         2.79596
           11347         63.4900         63.1066         56.7474         11.6820
           11348         63.2534         62.0182         57.1600         12.0059
           11349         60.7319         54.3003         57.3580        -13.7170
           11350         66.1272         74.0474         46.6966        -7.46042
           11351         66.7073         74.5942         50.6126        -5.75471
           11352         73.4836         82.6171         46.1222        -9.26434
           11353         60.8529         54.8075         61.1337         10.2056
           11354         63.4697         62.1486         49.2312        -16.3493
           11355         69.5305         76.9221         46.4861        -10.5251
           11356         78.3715         90.3016         44.0122        -2.88718
           11357         70.8410         80.2985         44.7346        -7.33792
           11358         87.5974         100.446         47.8608         5.79226
           11359         74.6518         85.3227         44.6415         6.02772
           11360         73.9852         84.3081         44.4925         6.76880
           11361         76.5212         88.1895         39.3642     159.788E-03
           11362         88.4041         101.722         44.0274        -1.64050
           11363         61.0399         54.8398         56.1384        -14.6693
           11364         83.4696         95.2963         44.5408         6.98746
           11365         81.7374         92.6960         45.4283        -8.86468
           11366         81.9647         93.1002         45.1775        -8.47718
           11367         82.9296         94.4950         44.8774        -7.63141
           11368         80.9454         93.0229         40.5884         3.00784
           11369         65.1819         71.9904         47.8817        -8.57185
           11370         65.3384         67.5990         48.1829        -14.5488
           11371         71.8896         80.9981         46.9448        -8.28740
           11372         71.1310         79.7043         47.5673        -8.86033
           11373         58.0944         53.6544         46.5550        -16.6000
           11374         77.9770         89.9705         41.9234    -93.2028E-03
           11375         67.4966         73.7404         50.6804        -9.77816
           11376         67.3635         73.0451         50.8740        -10.4910
           11377         64.2539         66.9161         55.3305         9.86300
           11378         61.6828         67.9116         49.9925         5.43453
           11379         66.6150         73.1478         47.4978         10.0875
           11380         67.6612         77.0112         44.7316         5.51453
           11381         81.8631         93.2305         44.4871         7.70471
           11382         67.5252         77.2061         44.1248         4.41858
           11383         67.5601         76.6088         45.1892         6.19936
           11384         75.1487         85.1471         45.3358        -8.20940
           11385         65.4745         69.5252         53.1870        -10.3623
           11386         65.3207         68.8497         53.4086        -10.8196
           11387         72.4020         82.8968         43.1818        -5.32721
           11388         81.3967         93.3526         42.0635        -4.76480
           11389         81.0580         92.8649         42.5678        -5.40228
           11390         86.2206         98.9743         43.5619         4.16113
           11391         80.8523         92.0404         44.2955         7.75748
           11392         79.1496         89.8932         44.4950         8.24370
           11393         77.7434         87.2357         45.6302        -10.5266
           11394         78.6001         88.7306         45.1837        -9.53003
           11395         87.9552         101.160         43.0071        -1.11142
           11396         61.1260         57.1751         55.3667         13.7541
           11397         84.3900         96.8668         40.2054         2.35153
           11398         84.8664         97.4199         40.4708         2.34122
           11399         75.6288         86.5443         44.1041         5.81896
           11400         77.2866         88.4580         43.5269         5.89093
           11401         79.0263         90.4487         43.1082         5.91488
           11402         64.8274         64.9308         47.9390         16.3417
           11403         73.2621         82.5282         46.3521        -8.81805
           11404         67.1851         74.4755         46.9087         9.31594
           11405         74.3360         85.4211         42.3844        -4.20968
           11406         61.6202         58.5305         51.9994        -15.3931
           11407         66.1095         69.9375         48.2050         13.2517
           11408         77.9961         89.6285         44.9613         4.41270
           11409         79.8510         91.3639         43.0734         6.02380
           11410         76.3122         86.3876         45.1170        -8.61659
           11411         69.9322         78.3628         48.2489         8.22094
           11412         70.6001         79.2924         47.7657         8.22543
           11413         85.8498         98.5855         41.2728        -2.34877
           11414         73.0859         82.5000         46.3138         8.39090
           11415         74.1521         83.8203         45.8217         8.44301
           11416         63.9470         65.0018         55.8660         11.1709
           11417         83.5206         95.8047         42.0530        -4.38094
           11418         85.3262         97.9595         41.9171        -3.34821
           11419         85.7542         98.3962         39.7341    -974.970E-03
           11420         86.7299         99.5654         44.3548         4.38438
           11421         61.9456         58.4357         51.9335        -15.9186
           11422         60.9300         55.8966         55.3632        -14.3477
           11423         60.5242         54.7602         53.6569         15.5317
           11424         60.6446         54.9753         54.1810         15.2592
           11425         73.4548         82.7766         45.8520        -8.88286
           11426         66.8680         73.6502         47.2927        -9.89097
           11427         64.7777         70.8220         48.5294        -9.34958
           11428         64.5790         64.3031         49.1867        -16.1150
           11429         65.7563         66.7786         50.0928        -15.2790
           11430         64.0902         63.3461         49.2582        -16.2149
           11431         64.6422         66.0225         54.0658        -12.4645
           11432         64.3445         64.9901         54.3420        -12.8471
           11433         67.0893         73.7902         50.9211         8.57323
           11434         68.5372         76.0271         49.5166         8.75474
           11435         71.0982         76.9230         47.6650        -13.3215
           11436         71.8601         78.3189         47.4039        -12.8518
           11437         65.6123         66.3312         48.9329         15.8797
           11438         66.0682         67.3442         49.6322         15.3715
           11439         72.2349         81.1441         45.7609        -9.17754
           11440         68.0203         74.9636         46.9083        -10.3801
           11441         68.6692         75.9391         46.6364        -10.2515
           11442         69.2979         76.8656         46.4022        -10.1235
           11443         77.3773         88.9583         44.0987         4.16018
           11444         86.6246         99.4737         40.6754     384.209E-03
           11445         86.4462         99.3052         41.8652         2.32086
           11446         65.1932         67.6861         48.6127        -14.0944
           11447         65.8049         69.9274         48.4762        -12.6534
           11448         65.5660         69.9608         48.6336        -12.1325
           11449         87.6107         100.731         42.6009        -1.33719
           11450         72.1098         78.5931         47.2505         12.9601
           11451         62.8261         63.7537         51.5810        -13.0445
           11452         83.5658         95.3648         44.7806        -7.16449
           11453         82.9835         94.6554         44.5635        -7.27757
           11454         65.9918         71.0646         48.2698         11.6195
           11455         66.6327         75.4647         45.5873         5.97309
           11456         70.6302         80.1020         44.6757         7.18750
           11457         63.3936         68.6351         49.7666         9.07354
           11458         77.6607         89.5865         41.5867     727.898E-03
           11459         67.5909         75.9464         45.9841         7.71291
           11460         82.1555         94.3381         40.8749         3.42355
           11461         82.8554         95.1212         40.9334         3.41896
           11462         77.7842         89.6600         42.9279         2.42037
           11463         86.3586         99.1726         43.1316         3.63986
           11464         85.8152         98.5111         42.8811         3.88521
           11465         62.0207         58.1070         53.8629        -15.2615
           11466         63.1482         64.7048         51.1107        -12.8554
           11467         68.4177         77.4186         45.1935         6.92124
           11468         67.3225         69.6752         48.6434         15.2833
           11469         66.7332         68.6723         49.3396         15.1800
           11470         71.1317         81.0482         44.0510         6.34218
           11471         85.8388         98.5162         43.2565         4.21110
           11472         64.0262         63.1342         49.9795        -16.0301
           11473         64.0576         64.3168         54.9508         12.6674
           11474         61.7038         67.5962         50.3030         6.00044
           11475         66.8836         74.4778         46.7740         8.60797
           11476         61.8692         59.5046         52.3497        -14.8499
           11477         62.0090         60.2600         52.5534        -14.3626
           11478         85.8602         98.5105         39.6522     712.061E-03
           11479         70.5892         78.7471         48.0169        -9.26115
           11480         63.9647         63.4074         54.0298        -13.8764
           11481         64.3806         66.1287         54.9109         11.3700
           11482         64.5721         65.6425         54.0310         12.7540
           11483         64.8619         66.7766         48.6720        -14.4814
           11484         61.7512         59.0360         52.2320         15.0925
           11485         74.4669         83.9198         45.9002        -9.09026
           11486         63.7068         62.4131         52.9123        -14.8982
           11487         74.6648         85.7658         42.6555        -4.39486
           11488         62.3152         60.9565         51.7394         14.6558
           11489         62.7826         62.9085         51.4835         13.8127
           11490         65.4092         68.7180         48.7075         13.3025
           11491         77.0777         88.8783         41.2644         1.45933
           11492         77.5725         89.4832         41.3080    -294.365E-03
           11493         62.2892         68.5735         49.6384         6.25906
           11494         74.3749         85.5482         41.9348         3.74398
           11495         67.6106         74.1434         50.5204         9.44110
           11496         72.4590         81.7966         45.3427        -8.41707
           11497         70.1017         78.3617         48.2402         8.69396
           11498         82.0637         93.5216         44.3868        -7.50772
           11499         77.4160         87.0858         45.4515        -10.0275
           11500         63.4969         65.2183         50.6357        -13.1255
           11501         63.7461         65.1098         50.1797        -13.8259
           11502         64.2513         66.0130         49.5714        -13.9708
           11503         68.0633         74.0366         50.2086        -10.7636
           11504         64.7655         70.2462         48.8119        -10.1044
           11505         71.5595         79.9550         47.4448        -9.49390
           11506         75.0681         86.2344         42.7892         4.39085
           11507         78.0757         89.2050         43.6540         6.50064
           11508         82.5562         94.1701         44.3305         7.23277
           11509         82.0897         93.6952         43.9661         6.98367
           11510         73.6625         84.3070         43.4731         5.58782
           11511         73.8918         84.6923         43.1478         5.15653
           11512         71.5560         77.9546         47.5795         12.7615
           11513         68.4663         73.1342         49.5688        -13.0017
           11514         77.5089         87.6957         44.9835        -8.91500
           11515         75.4620         84.9733         45.6732        -9.46947
           11516         70.6657         79.1158         45.8197        -9.30852
           11517         70.9778         80.1417         45.1424        -8.06449
           11518         69.3004         76.9267         48.9574         9.20368
           11519         69.5083         76.8876         48.8957         9.80441
           11520         76.5134         88.1912         41.2676         2.08426
           11521         82.5820         94.3972         43.6312         6.42760
           11522         63.6512         66.1127         50.4630         12.5208
           11523         66.2804         72.3237         47.8423        -10.5456
           11524         64.9017         67.4704         49.0253        -13.7143
           11525         71.2161         77.5221         47.7694        -12.6928
           11526         71.6306         78.3582         47.6045        -12.3146
           11527         85.4394         98.0146         43.2844         4.54601
           11528         86.6138         99.4836         41.0718         1.16082
           11529         86.4619         99.2861         40.7244     969.695E-03
           11530         85.8457         98.5834         41.4573         2.52215
           11531         76.3153         86.9602         44.4603         7.10676
           11532         65.4014         66.3530         51.3213        -14.6750
           11533         64.5241         64.1569         50.3937        -15.7144
           11534         86.2155         98.9938         40.6606         1.31728
           11535         63.9411         69.2422         49.3878         9.56648
           11536         83.3398         95.6392         41.5291         3.90737
           11537         84.8309         97.2693         43.1625         4.84267
           11538         84.2195         96.5527         42.8518         4.88815
           11539         74.2541         83.2215         46.2215        -9.96745
           11540         63.1146         64.5440         51.1514         12.9432
           11541         77.2852         88.9633         43.3466         3.45746
           11542         76.3922         85.6673         45.7197        -10.3808
           11543         64.4067         67.3687         49.6500        -12.7725
           11544         64.0201         66.4715         50.0374        -12.9412
           11545         64.3960         64.4483         53.2852        -14.0010
           11546         64.3847         63.9990         51.9887        -14.9879
           11547         64.1515         63.3786         51.4460        -15.4105
           11548         64.0036         63.0394         50.7629        -15.7658
           11549         71.8401         79.9980         47.3957        -10.1083
           11550         71.2002         79.0346         47.7917        -10.2657
           11551         64.2890         68.5321         49.5676         11.2020
           11552         82.5641         94.6979         41.9810         4.55487
           11553         64.5327         66.2488         49.0697        -14.3589
           11554         69.8548         77.4042         48.6331        -9.78955
           11555         86.4542         99.2811         40.7985        -1.09499
           11556         81.1237         92.5373         43.8876         7.14180
           11557         64.4671         70.3397         48.7834         9.30815
           11558         61.4163         59.1962         54.5842         13.1594
           11559         76.6906         88.3564         42.0808         2.70202
           11560         69.7761         74.8221         48.3886         13.5332
           11561         83.8441         96.1771         42.1505         4.36042
           11562         66.6660         69.7579         51.0933         13.3145
           11563         77.6612         87.6838         45.1624        -9.36614
           11564         81.7811         93.7041         42.5180         5.29217
           11565         61.9934         60.4298         52.7489         14.1018
           11566         62.6952         63.6881         51.7789         12.7952
           11567         62.3223         63.2128         52.3819         12.3227
           11568         62.7181         63.3503         51.7238         13.1868
           11569         68.4273         74.9492         49.8425         10.2680
           11570         69.4896         76.2754         49.0049         10.7588
           11571         65.7938         68.4358         52.3315         12.7559
           11572         70.3236         78.2955         48.2236         9.40553
           11573         68.3301         72.6207         49.5209         13.4060
           11574         71.2336         77.9661         47.8521        -12.0628
           11575         70.7738         77.4470         48.1340        -11.8582
           11576         81.5997         93.1541         43.7691         6.88869
           11577         83.0271         95.0554         43.1385         5.70318
           11578         83.6351         95.8814         42.5707         4.86693
           11579         71.8124         79.5779         47.4984        -10.7719
           11580         71.0576         78.5112         47.9457        -10.8115
           11581         62.4627         62.5689         52.1340         13.3009
           11582         62.3201         62.7636         52.4279         12.7332
           11583         83.1458         95.3244         42.3801         4.83989
           11584         64.8605         67.3675         54.0661         11.3674
           11585         64.6181         67.3256         54.5890         10.6151
           11586         70.9326         77.9615         48.0420        -11.4139
           11587         67.1940         71.2954         50.8528         12.5374
           11588         68.9203         74.9183         49.4622         11.4944
           11589         67.8642         72.5509         50.2425         12.4197
           11590         61.7142         59.0468         52.7207         14.7833
           11591         66.2800         70.0142         51.9848         11.9487
           11592         4.68782    -109.346E-03         4.63210     17.0039E-03
           11593         5.70137         1.85198         6.39707    -11.0614E-03
           11594         4.52680         3.82553         4.99219     95.9469E-03
           11595         2.81782         1.89469         3.22245     153.987E-03
           11596         3.03807         3.49689         1.70666     135.420E-03
           11597         1.96179         2.06870     415.116E-03     291.841E-03
           11598         1.77201     544.157E-03         1.88862     318.704E-03
           11599         18.0781         18.8900         1.75113    -207.931E-06
           11600         16.1195         17.4858         3.29374    -526.339E-03
           11601         17.4277         19.4860         5.87465        -1.15204
           11602         19.1209         20.8865         4.34095    -628.945E-03
           11603         23.6581         25.6623         4.72012    -11.7722E-03
           11604         21.9699         24.2306         5.73375    -732.866E-03
           11605         23.2510         26.1210         8.42144        -1.56651
           11606         24.7375         27.5510         7.41159    -846.745E-03
           11607         28.9945         32.3300         8.63123    -20.3423E-03
           11608         27.4568         30.8466         9.30272    -962.830E-03
           11609         28.8033         32.6402         12.0229        -2.01064
           11610         30.1537         34.1223         11.3546        -1.06951
           11611         34.2358         38.8703         13.1972    -26.7920E-03
           11612         32.8354         37.3735         13.5394        -1.16679
           11613         34.2892         39.1087         16.1870        -2.40078
           11614         35.5131         40.6047         15.8480        -1.26257
           11615         39.4433         45.2558         18.1890    -31.8967E-03
           11616         38.1963         43.8193         18.2508        -1.35028
           11617         39.7831         45.5532         20.7551        -2.72575
           11618         40.8651         46.9919         20.6934        -1.40586
           11619         45.0629         51.7745         25.2000        -2.56545
           11620         46.0949         53.1526         25.5475        -1.26266
           11621         44.6305         51.4662         23.4306    -24.4443E-03
           11622         43.4846         50.0900         23.0845        -1.33048
           11623         50.2041         57.7469         29.8848        -2.47667
           11624         51.2163         59.0737         30.5900        -1.25383
           11625         49.7710         57.4705         28.7673    -22.8499E-03
           11626         48.6700         56.1440         28.0634        -1.24690
           11627         55.2171         63.4776         34.6364        -2.48124
           11628         56.2268         64.7701         35.6135        -1.24516
           11629         54.8295         63.2475         34.0921    -22.6154E-03
           11630         53.7415         61.9551         33.1156        -1.25889
           11631         60.0085         68.9051         39.2511        -2.38479
           11632         61.0506         70.1780         40.4952        -1.18821
           11633         59.7634         68.7742         39.3110    -20.5425E-03
           11634         58.6550         67.5014         38.0661        -1.21805
           11635         64.6368         74.0854         43.7179        -2.37105
           11636         65.7056         75.3317         45.1947        -1.20941
           11637         64.5304         74.0305         44.3492    -20.1436E-03
           11638         63.3979         72.7835         42.8726        -1.18406
           11639         69.1105         79.0524         47.9461        -2.47669
           11640         70.1699         80.2344         49.6586        -1.23897
           11641         69.0894         78.9950         49.1508    -23.4655E-03
           11642         67.9601         77.8117         47.4384        -1.26138
           11643         73.3851         83.7909         52.0878        -2.29504
           11644         74.3974         84.8416         53.9428        -1.10184
           11645         73.4017         83.6449         53.6736    -22.5352E-03
           11646         72.3283         82.5938         51.8158        -1.21418
           11647         79.3404         89.9957         59.8464    -14.8541E-03
           11648         78.3108         89.0710         57.9434    -928.903E-03
           11649         79.1552         90.1225         57.8806        -1.79510
           11650         80.1431         91.0478         59.7825    -881.480E-03
           11651         82.9073         93.7900         63.5142    -13.2061E-03
           11652         81.8898         92.9316         61.5185    -843.777E-03
           11653         82.5781         93.8696         61.1625        -1.64155
           11654         83.5553         94.7282         63.1577    -811.527E-03
           11655         86.1343         97.2144         66.8043    -12.3452E-03
           11656         85.1327         96.4304         64.6961    -781.558E-03
           11657         85.6636         97.2553         64.0359        -1.51637
           11658         86.6240         98.0396         66.1436    -747.812E-03
           11659         89.0032         100.255         69.7049    -11.7070E-03
           11660         88.0265         99.5537         67.4948    -713.100E-03
           11661         88.4059         100.274         66.5313        -1.38208
           11662         89.3399         100.976         68.7408    -681.546E-03
           11663         90.8135         102.939         68.6503        -1.23645
           11664         91.7021         103.534         70.9687    -600.273E-03
           11665         91.5002         102.900         72.2086    -12.4266E-03
           11666         90.5665         102.306         69.8908    -647.792E-03
           11667         92.9328         105.185         70.9234    -925.439E-03
           11668         93.7405         105.671         73.1334    -427.166E-03
           11669         93.6137         105.137         74.3225    -8.66495E-03
           11670         92.7705         104.653         72.1111    -506.137E-03
           11671         94.6172         106.991         72.6182    -696.530E-03
           11672         95.3298         107.375         74.6738    -329.414E-03
           11673         95.3350         106.960         76.0282    -6.25777E-03
           11674         94.5895         106.576         73.9731    -373.804E-03
           11675         95.8699         108.368         73.7407    -516.741E-03
           11676         96.5198         108.659         75.7975    -236.771E-03
           11677         96.6563         108.361         77.3290    -5.05681E-03
           11678         95.9724         108.071         75.2723    -284.885E-03
           11679         96.7510         109.313         74.6183    -321.688E-03
           11680         97.3232         109.510         76.6039    -137.879E-03
           11681         97.5743         109.335         78.2303    -3.14222E-03
           11682         96.9696         109.137         76.2443    -186.866E-03
           11683         97.2168         109.834         75.0006    -137.990E-03
           11684         97.7005         109.936         76.8997    -47.8725E-03
           11685         98.0852         109.877         78.7287    -1.14922E-03
           11686         97.5683         109.777         76.8288    -92.5419E-03
           11687         97.2382         109.927         74.7707     56.7997E-03
           11688         97.6631         109.927         76.7593     53.9614E-03
           11689         98.1869         109.986         78.8241    -17.2425E-06
           11690         97.7235         109.987         76.8353     1.30516E-03
           11691         96.9136         109.582         74.4361     265.821E-03
           11692         97.2585         109.484         76.4003     157.076E-03
           11693         97.8797         109.661         78.5229     444.476E-06
           11694         97.4943         109.758         76.5568     110.055E-03
           11695         96.6559         108.361         77.3282     2.21759E-03
           11696         96.4794         108.613         75.7671     241.077E-03
           11697         95.7838         108.268         73.6862     525.480E-03
           11698         95.9269         108.016         75.2469     286.730E-03
           11699         95.3344         106.960         76.0259     4.11955E-03
           11700         95.2720         107.314         74.6139     335.398E-03
           11701         94.4864         106.859         72.4543     720.142E-03
           11702         94.5140         106.505         73.8655     388.750E-03
           11703         93.6130         105.137         74.3194     6.25986E-03
           11704         93.6568         105.592         73.0137     445.331E-03
           11705         92.7859         105.030         70.7638     943.119E-03
           11706         92.7041         104.575         72.0683     503.877E-03
           11707         91.4999         102.899         72.2106     8.83928E-03
           11708         91.6544         103.455         71.0247     565.128E-03
           11709         90.7000         102.782         68.6854         1.19032
           11710         90.5031         102.227         69.8692     633.735E-03
           11711         88.2019         100.082         66.1904         1.47011
           11712         87.9068         99.4487         67.2824     772.429E-03
           11713         89.0034         100.256         69.7006     11.1027E-03
           11714         89.2489         100.889         68.6093     707.306E-03
           11715         85.4385         97.0089         63.8253         1.52367
           11716         85.0159         96.2977         64.6111     766.944E-03
           11717         86.1331         97.2140         66.8001     9.08799E-03
           11718         86.5126         97.9252         66.0113     767.925E-03
           11719         82.3101         93.5740         60.9237         1.63719
           11720         81.7495         92.7802         61.3798     848.941E-03
           11721         82.9064         93.7897         63.5106     10.8553E-03
           11722         83.4261         94.5839         63.0532     799.118E-03
           11723         78.8309         89.7717         57.5349         1.83422
           11724         78.1419         88.8893         57.7679     944.193E-03
           11725         79.3396         89.9960         59.8409     12.8517E-03
           11726         79.9832         90.8782         59.6070     902.657E-03
           11727         75.0973         85.6714         53.9468         1.95462
           11728         74.2633         84.6855         53.8894     996.400E-03
           11729         75.4545         85.8465         55.8138     14.0535E-03
           11730         76.2421         86.8324         55.8712     972.925E-03
           11731         71.0655         81.2283         49.9983         2.13762
           11732         70.0802         80.1327         49.6356         1.11528
           11733         71.2772         81.3586         51.4507     16.7945E-03
           11734         72.2119         82.4563         51.8130         1.03963
           11735         66.6992         76.3747         45.6618         2.45549
           11736         65.5939         75.2071         45.0664         1.26334
           11737         66.8373         76.5498         46.7790     22.3537E-03
           11738         67.8763         77.7197         47.3747         1.21374
           11739         62.0581         71.1791         41.1701         2.59602
           11740         60.8952         69.9984         40.3240         1.29555
           11741         62.1695         71.4375         41.8464     24.2383E-03
           11742         63.2552         72.6198         42.6926         1.32318
           11743         54.8291         63.2473         34.0854     21.4238E-03
           11744         56.0326         64.5513         35.4216         1.23799
           11745         54.8294         63.0414         34.2594         2.45614
           11746         53.5488         61.7375         32.9229         1.24068
           11747         49.7704         57.4699         28.7606     23.3331E-03
           11748         51.0306         58.8609         30.4074         1.25246
           11749         49.8343         57.3168         29.5400         2.50090
           11750         48.4837         55.9262         27.8920         1.27300
           11751         44.6301         51.4653         23.4215     26.4021E-03
           11752         45.9040         52.9274         25.3832         1.29441
           11753         44.6863         51.3330         24.8603         2.57594
           11754         43.2974         49.8713         22.8968         1.30967
           11755         39.4445         45.2565         18.1837     28.8444E-03
           11756         40.6632         46.7576         20.4451         1.31485
           11757         39.3685         45.0888         20.3051         2.58977
           11758         38.0027         43.5892         18.0431         1.30649
           11759         33.9683         38.7330         15.8686         2.34005
           11760         32.7021         37.2062         13.3635         1.11807
           11761         34.2367         38.8700         13.1908     26.4143E-03
           11762         35.3362         40.3936         15.7010         1.25220
           11763         28.5548         32.3496         12.0111         2.09497
           11764         27.3243         30.7018         9.29654         1.00173
           11765         28.9934         32.3279         8.62786     24.9204E-03
           11766         30.0236         33.9761         11.3414         1.11748
           11767         22.9573         25.7825         8.29299         1.56436
           11768         21.8319         24.0669         5.65851     724.973E-03
           11769         23.6587         25.6620         4.71737     15.6252E-03
           11770         24.5834         27.3753         7.35596     856.334E-03
           11771         17.1786         19.1865         5.67340         1.10293
           11772         16.0211         17.3507         3.18562     501.005E-03
           11773         18.0795         18.8898         1.74758     4.09983E-03
           11774         18.9897         20.7224         4.24251     608.394E-03
           11775         10.9095         12.3541         4.28386     567.161E-03
           11776         9.66859         10.4687         1.89025     185.883E-03
           11777         12.0152         12.0371     43.8871E-03    -11.1153E-03
           11778         12.8886         13.9214         2.44869     367.024E-03
           11779         3.01924         3.47480         1.68470    -136.031E-03
           11780         2.79755         1.87326         3.19982    -154.856E-03
           11781         1.77216     544.951E-03         1.88923    -318.294E-03
           11782         1.96191         2.06907     415.436E-03    -291.562E-03
           11783         5.19201         5.10705    -165.731E-03    -19.4944E-03
           11784         6.32313         6.98031         1.63601     12.6170E-03
           11785         4.73213         5.38959         3.45602    -89.6376E-03
           11786         7.94036    -208.086E-03         7.83403     36.0428E-03
           11787         8.72329         2.08271         9.57004    -186.265E-03
           11788         7.08249         4.12989         8.16506    -229.558E-03
           11789         8.50854         7.98944         8.77345    -749.556E-03
           11790         10.6921         10.0245         10.7881        -1.36523
           11791         10.9726         11.5896         9.52105        -1.38711
           11792         8.81580         9.54981         7.51766    -773.807E-03
           11793         15.7284         16.2487         13.0822        -2.87444
           11794         14.7872         14.8781         13.0867        -2.62982
           11795         16.4033         15.9455         14.8638        -3.20880
           11796         17.2779         17.3147         14.8348        -3.44075
           11797         19.8029         21.7742         12.5852        -3.35083
           11798         19.5315         21.1313         13.4009        -3.58424
           11799         21.3236         22.7215         15.0090        -4.24994
           11800         21.5583         23.3743         14.2071        -4.02666
           11801         23.7531         26.7013         11.7699        -2.99948
           11802         22.8603         25.4906         12.5653        -3.42698
           11803         24.8556         27.3219         14.8567        -4.33988
           11804         25.6228         28.5326         14.0627        -3.91178
           11805         30.3814         33.3591         17.9540        -5.37839
           11806         29.6583         32.0494         18.5586        -5.85441
           11807         31.7803         33.7894         20.6608        -6.81938
           11808         32.4201         35.1008         20.0587        -6.34356
           11809         36.7067         40.9313         20.9796        -5.49513
           11810         38.4967         42.4093         22.9908        -6.58002
           11811         39.4252         43.9823         22.9103        -5.85015
           11812         37.7196         42.4984         20.9056        -4.76309
           11813         42.2193         47.0529         25.0996        -6.31169
           11814         40.7197         45.8678         23.2224        -5.16793
           11815         41.0141         45.1701         24.7787        -7.00217
           11816         48.3976         53.9593         29.6926        -7.10071
           11817         49.6907         54.9903         30.8833        -7.95259
           11818         50.4312         56.2788         31.2202        -7.26498
           11819         49.1759         55.2454         30.0282        -6.41454
           11820         50.8887         57.9652         30.9676        -4.68132
           11821         49.9344         56.5238         30.3938        -5.55865
           11822         51.6111         57.9688         31.9452        -6.69953
           11823         52.5084         59.4124         32.5195        -5.82658
           11824         57.6914         64.6253         36.7292        -7.66978
           11825         56.6857         63.8197         35.9221        -6.89083
           11826         55.6762         62.3503         35.1716        -7.48771
           11827         56.7316         63.1846         35.9745        -8.26733
           11828         58.8821         65.8977         37.5743        -7.93350
           11829         60.5149         67.5102         38.7664        -8.53862
           11830         60.6817         68.2301         39.0063        -7.45715
           11831         59.0746         66.6204         37.8147        -6.85104
           11832         66.1544         74.7257         43.3097        -7.14358
           11833         64.9805         73.6731         42.6730        -6.26106
           11834         64.3173         72.6166         41.9035        -7.08356
           11835         65.5204         73.6683         42.5354        -7.96155
           11836         72.1777         81.8982         48.1283        -6.52174
           11837         71.2071         80.8829         47.6526        -6.10781
           11838         70.8052         80.1671         46.8377        -7.01633
           11839         71.7897         81.1871         47.3011        -7.42212
           11840         75.4574         85.7491         50.6263        -6.29916
           11841         76.4105         86.7600         50.8633        -6.76004
           11842         76.9256         87.5240         51.9815        -5.90616
           11843         75.9884         86.5116         51.7464        -5.44529
           11844         79.1462         90.2142         54.6030        -4.83027
           11845         79.9287         91.1367         56.0955        -4.01480
           11846         79.1053         90.1929         56.1361        -3.40137
           11847         78.2968         89.2702         54.6434        -4.21678
           11848         82.3491         93.8498         59.0236        -3.11721
           11849         81.5030         92.9361         57.4383        -3.85365
           11850         82.1933         93.7510         57.1106        -4.43610
           11851         83.0135         94.6647         58.6956        -3.69949
           11852         84.9822         96.9955         59.2797        -4.06708
           11853         84.1950         96.1047         57.8102        -4.70791
           11854         84.7151         96.7353         57.2816        -5.12845
           11855         85.4827         97.6259         58.7507        -4.48754
           11856         88.2506         100.691         62.8472        -3.04805
           11857         88.5158         101.137         61.8427        -3.48607
           11858         89.3286         101.952         63.5678        -2.90595
           11859         89.0873         101.503         64.5760        -2.46713
           11860         90.2964         103.115         64.0182        -2.80449
           11861         90.2234         102.832         65.2950        -2.36911
           11862         89.4319         102.239         62.2877        -3.35396
           11863         92.2194         105.443         64.8928        -2.42222
           11864         92.2418         105.623         63.8088        -2.61231
           11865         92.7854         106.129         65.1635        -2.24834
           11866         92.7814         105.955         66.2369        -2.06096
           11867         93.9911         106.919         69.4378        -1.31778
           11868         93.3664         106.430         67.8186        -1.68138
           11869         93.3705         106.692         66.3742        -1.90371
           11870         93.9737         107.185         67.9972        -1.54202
           11871         94.3930         108.118         65.7279        -1.49754
           11872         94.5108         108.072         66.9471        -1.41485
           11873         94.0569         107.662         65.8626        -1.69715
           11874         93.9630         107.725         64.6271        -1.79298
           11875         94.4902         108.304         65.3431        -1.40428
           11876         94.4997         108.457         64.3683        -1.31484
           11877         94.9517         108.756         66.2733        -1.06478
           11878         94.9578         108.599         67.2479        -1.14951
           11879         95.6095         109.435         67.3206    -310.193E-03
           11880         95.8416         109.497         68.6414    -380.022E-03
           11881         95.4963         109.310         67.1914    -529.626E-03
           11882         95.2810         109.248         65.8700    -460.147E-03
           11883         95.5559         109.340         67.4665     509.280E-03
           11884         95.8341         109.511         68.5131     359.108E-03
           11885         95.6240         109.438         67.4097     329.112E-03
           11886         95.3646         109.278         66.3606     477.580E-03
           11887         94.8864         108.730         65.9048         1.09331
           11888         94.4424         108.373         64.4421         1.37736
           11889         94.6273         108.385         65.9637         1.33458
           11890         95.0909         108.741         67.4261         1.05092
           11891         94.3371         107.809         67.1575         1.49683
           11892         94.4131         107.651         68.5450         1.36104
           11893         95.0202         108.081         70.3041         1.02315
           11894         94.9199         108.239         68.9164         1.15884
           11895         93.7614         106.678         69.1607         1.38922
           11896         93.7938         106.953         67.9863         1.58124
           11897         93.1304         106.423         66.1277         2.00737
           11898         93.0738         106.147         67.3022         1.81555
           11899         91.5381         104.608         64.6430         2.57189
           11900         91.7126         104.958         63.7199         2.75488
           11901         91.0420         104.303         62.0251         3.25875
           11902         90.8484         103.953         62.9482         3.07599
           11903         89.3092         101.908         63.7226         2.83983
           11904         88.5650         101.195         61.8640         3.48666
           11905         88.1500         100.600         62.5623         3.14976
           11906         88.9199         101.316         64.4180         2.50133
           11907         86.8585         99.1541         61.0965         3.56101
           11908         87.5541         99.8043         62.9671         2.84874
           11909         87.4791         99.9526         60.6993         3.86101
           11910         83.6559         95.4605         57.8978         4.48701
           11911         83.0450         94.7457         56.5824         5.13457
           11912         82.4744         94.0800         56.7972         4.77946
           11913         83.1031         94.7995         58.1097         4.13192
           11914         81.8755         93.3145         58.6289         3.14039
           11915         82.5515         94.1292         58.4490         3.64717
           11916         81.6370         93.1039         56.6316         4.53654
           11917         80.9343         92.2880         56.8094         4.03333
           11918         77.6360         88.3509         52.4094         5.92000
           11919         78.1909         89.0788         53.5205         5.22425
           11920         79.0657         90.0591         53.8099         5.51712
           11921         78.5086         89.3184         52.6994         6.20795
           11922         76.7913         87.2924         51.5337         6.31718
           11923         75.6711         85.8300         50.1221         7.04938
           11924         75.2188         85.4872         50.5509         6.21468
           11925         76.3680         86.9461         51.9631         5.48543
           11926         70.5505         80.0401         46.9741         6.43454
           11927         71.2887         81.0854         48.0221         5.62765
           11928         72.0283         81.7784         48.1758         6.30365
           11929         71.3154         80.7316         47.1320         7.11599
           11930         64.5220         72.9536         42.1345         6.81680
           11931         65.2357         73.9967         42.9174         6.16522
           11932         65.9225         74.5900         43.2574         6.76949
           11933         65.2272         73.5494         42.4896         7.41135
           11934         60.9910         68.4911         39.2249         7.67764
           11935         60.1312         67.0862         38.4733         8.48611
           11936         58.9571         66.1606         37.6799         7.56874
           11937         59.8552         67.5659         38.4300         6.76221
           11938         55.4926         62.5474         34.9671         6.62451
           11939         54.1025         61.3413         33.8010         5.63373
           11940         55.0730         62.8035         34.5550         4.65073
           11941         56.4111         64.0096         35.7211         5.64142
           11942         50.2491         57.2132         30.4341         4.71251
           11943         51.7560         58.6013         31.8824         5.66965
           11944         50.9220         57.1686         31.4199         6.67888
           11945         49.3571         55.7802         29.9720         5.72170
           11946         46.0937         51.3992         27.9241         6.78897
           11947         47.8482         52.9952         29.5068         7.61630
           11948         47.2309         51.6421         29.5144         8.50363
           11949         45.4271         50.0446         27.9315         7.67709
           11950         39.0951         43.6261         22.6463         5.78245
           11951         38.5757         42.4956         23.0626         6.59251
           11952         36.4976         40.5967         20.9736         5.64364
           11953         37.0666         41.7003         20.5377         4.81840
           11954         32.7316         37.1738         15.8964         3.03846
           11955         31.8578         35.8113         16.8558         4.16241
           11956         30.2557         34.1971         14.8357         3.32685
           11957         31.2820         35.5638         13.8622         2.20699
           11958         29.1980         30.8863         19.4501         6.35067
           11959         27.8203         29.9145         17.8383         5.61286
           11960         28.9527         31.5603         17.6131         5.41167
           11961         30.2673         32.5308         19.2152         6.15681
           11962         20.2951         22.8428         10.0445         2.49341
           11963         21.8533         24.3862         12.0514         3.24195
           11964         20.9404         23.0808         12.8519         3.52320
           11965         19.2619         21.5396         10.8435         2.77182
           11966         16.6434         18.1792         11.6203         2.75291
           11967         18.0793         19.6346         12.5358         3.17981
           11968         18.3446         19.3993         13.8731         3.50511
           11969         16.9037         17.9501         12.9387         3.07508
           11970         12.8743         12.4141         12.3330         2.05226
           11971         13.1145         11.1912         13.6966         2.03572
           11972         10.7633         8.61847         11.7495         1.26267
           11973         10.3513         9.84406         10.3664         1.26876
           11974         7.94153    -208.150E-03         7.83520    -33.9574E-03
           11975         5.66939         1.81696         6.35510     7.33273E-03
           11976         7.00697         4.06767         8.07912     217.853E-03
           11977         8.68885         2.05570         9.52662     180.499E-03
           11978         13.7082     742.007E-03         14.0641     4.54262E-03
           11979         14.4364         3.41376         15.8094    -512.967E-03
           11980         12.7659         5.27785         14.4606    -880.310E-03
           11981         11.6429         2.61426         12.7104    -364.467E-03
           11982         13.6640         9.34812         15.2167        -1.82720
           11983         15.8800         11.4813         17.2850        -2.58453
           11984         15.7653         13.1512         16.2952        -2.84942
           11985         13.4184         11.0127         14.2236        -2.08997
           11986         18.2016         15.0102         18.5478        -3.66861
           11987         18.8189         16.6508         18.2121        -4.01936
           11988         16.3636         14.7894         15.9531        -3.18726
           11989         21.6099         21.3253         17.8942        -4.95368
           11990         19.7094         19.5204         16.6436        -4.29315
           11991         20.1207         19.2511         17.7400        -4.51095
           11992         21.9992         21.0546         18.9775        -5.16678
           11993         29.6891         29.3261         22.6474        -7.58680
           11994         27.8664         28.1594         20.6983        -6.78275
           11995         26.3826         26.1870         20.5375        -6.48870
           11996         28.2587         27.3560         22.4876        -7.29568
           11997         33.4772         34.4096         23.2219        -8.09332
           11998         33.3084         33.5569         23.9585        -8.43306
           11999         35.4419         35.3245         25.6585        -9.24341
           12000         35.5811         36.1739         24.9283        -8.90306
           12001         38.3857         39.9599         25.6297        -9.01759
           12002         38.9395         41.2112         25.2625        -8.57963
           12003         37.0574         39.6764         23.5239        -7.72456
           12004         36.4575         38.4258         23.8902        -8.16227
           12005         44.3253         47.7528         28.0537        -8.88891
           12006         44.8603         48.8062         28.0482        -8.41869
           12007         43.2248         47.4896         26.4450        -7.51967
           12008         42.6188         46.4160         26.4112        -7.96385
           12009         49.0004         51.9503         31.7887        -10.6945
           12010         50.3469         53.5134         32.6245        -10.8416
           12011         49.8618         53.7366         31.8210        -9.93228
           12012         48.5009         52.1701         30.9926        -9.78033
           12013         51.4959         54.8577         33.3091        -10.9578
           12014         52.5872         56.0364         34.0411        -11.1666
           12015         52.3215         56.2338         33.5962        -10.5804
           12016         51.2310         55.0578         32.8628        -10.3706
           12017         60.5312         66.4302         38.7375        -10.3891
           12018         60.4493         66.9347         38.6700        -9.43145
           12019         59.1593         65.5665         37.7740        -9.14131
           12020         59.2319         65.0535         37.8509        -10.1012
           12021         62.6568         69.2439         40.1365        -9.99053
           12022         61.6866         68.1867         39.5083        -9.81221
           12023         61.7831         67.8509         39.5348        -10.5338
           12024         62.7574         68.9115         40.1973        -10.7070
           12025         67.2120         75.3546         43.5109        -8.65403
           12026         68.4319         76.7078         44.3023        -8.84086
           12027         68.4150         77.0933         44.6679        -7.86556
           12028         67.1933         75.7337         43.8757        -7.68411
           12029         72.8723         81.8773         46.9912        -9.05217
           12030         73.7132         82.8911         47.5492        -9.00315
           12031         73.6198         83.0437         47.9159        -8.30252
           12032         72.7789         82.0324         47.3892        -8.34997
           12033         77.0313         86.8941         49.3182        -8.87703
           12034         77.5126         87.6888         50.1671        -8.19002
           12035         76.7568         86.8732         50.0401        -7.91179
           12036         76.2652         86.0722         49.1931        -8.60532
           12037         79.3700         90.1439         52.0587        -7.21895
           12038         78.7732         89.2840         51.0953        -7.84960
           12039         79.4648         90.0234         51.0184        -8.17346
           12040         80.0511         90.8824         51.9828        -7.54277
           12041         82.0063         93.3863         53.9005        -6.64180
           12042         81.3397         92.4856         52.8283        -7.24791
           12043         81.9353         93.1412         52.5556        -7.55230
           12044         82.5910         94.0417         53.6280        -6.94594
           12045         84.4777         96.4226         55.5263        -6.05520
           12046         83.7901         95.5345         54.3811        -6.63108
           12047         84.2574         96.0727         53.9514        -6.87624
           12048         84.9345         96.9607         55.0965        -6.30005
           12049         86.6777         99.1322         56.9041        -5.44016
           12050         87.3745         99.9660         58.2104        -4.88918
           12051         87.0421         99.5291         58.8649        -4.61822
           12052         86.3316         98.6953         57.5587        -5.16905
           12053         89.7444         102.817         60.2964        -3.93961
           12054         90.2423         103.355         61.3689        -3.56403
           12055         90.0944         103.063         62.3700        -3.31945
           12056         89.5735         102.518         61.2702        -3.68834
           12057         90.4693         103.857         58.6351        -4.08077
           12058         90.8713         104.362         58.7903        -3.88907
           12059         91.2582         104.739         60.3500        -3.49591
           12060         90.8534         104.233         60.1967        -3.68008
           12061         91.6953         105.347         59.8012        -3.35122
           12062         91.8721         105.588         59.6426        -3.26083
           12063         92.0792         105.788         60.4163        -3.08750
           12064         91.8987         105.542         60.5721        -3.17394
           12065         93.6774         107.803         60.9701        -1.77130
           12066         94.0981         108.153         62.7194        -1.52744
           12067         94.0354         108.002         63.2668        -1.67741
           12068         93.6037         107.650         61.5167        -1.91631
           12069         94.1079         108.315         61.4221        -1.21731
           12070         94.1017         108.244         61.9775        -1.39502
           12071         93.7519         107.944         60.5379        -1.56253
           12072         93.7661         108.017         59.9808        -1.38266
           12073         95.0821         109.163         64.7195    -334.130E-03
           12074         94.9340         109.092         63.8523    -207.116E-03
           12075         95.2138         109.264         65.2013    -125.431E-03
           12076         95.3759         109.341         66.0651    -250.034E-03
           12077         94.7479         108.941         63.1565     427.027E-03
           12078         94.4704         108.722         61.9940     606.782E-03
           12079         94.6167         108.793         62.9847     748.086E-03
           12080         94.9066         109.016         64.1488     568.414E-03
           12081         93.4511         107.553         60.5400         1.97438
           12082         93.8663         107.964         61.7541         1.66172
           12083         93.7271         107.915         60.5038         1.59886
           12084         93.3250         107.505         59.2904         1.91068
           12085         93.1337         107.040         61.5213         2.35370
           12086         93.0865         107.089         60.4368         2.34596
           12087         92.5976         106.572         59.1205         2.71574
           12088         92.6325         106.523         60.2049         2.72372
           12089         92.0298         105.692         60.7690         3.08831
           12090         92.0863         105.848         59.8416         3.11545
           12091         91.5251         105.229         58.4665         3.54461
           12092         91.4569         105.073         59.3938         3.51751
           12093         90.5895         103.938         59.6778         3.86165
           12094         90.7519         104.202         58.8916         3.92422
           12095         90.1496         103.507         57.5538         4.39552
           12096         89.9765         103.243         58.3402         4.33290
           12097         88.8741         101.839         58.3637         4.64739
           12098         88.5732         101.426         59.0320         4.49441
           12099         89.2266         102.149         60.4739         3.96469
           12100         89.5140         102.562         59.8064         4.11783
           12101         86.1488         98.4697         57.6343         5.12678
           12102         85.7919         98.0280         57.9785         4.92528
           12103         86.4817         98.8059         59.4921         4.29489
           12104         86.8342         99.2577         59.1623         4.48029
           12105         83.4110         95.1084         54.8463         6.32506
           12106         84.1435         96.0205         55.4287         6.05904
           12107         84.1205         95.9350         54.4445         6.62463
           12108         83.3966         95.0248         53.8583         6.89039
           12109         82.7535         94.2059         53.3686         7.13746
           12110         82.1621         93.4421         52.7889         7.42126
           12111         82.1337         93.4748         53.3544         7.04759
           12112         82.7308         94.2390         53.9357         6.76216
           12113         76.3512         86.2189         49.3126         8.48019
           12114         76.0315         86.0592         49.7776         7.75937
           12115         76.9565         87.2872         50.7244         7.25453
           12116         77.2634         87.4527         50.2559         7.97942
           12117         74.2420         83.5923         47.9601         8.81526
           12118         75.1252         84.8138         48.7739         8.33118
           12119         75.4213         84.9513         48.5112         8.93308
           12120         74.5544         83.7322         47.6934         9.41806
           12121         70.4908         79.5213         46.1710         7.85574
           12122         69.7998         78.4983         45.3729         8.42661
           12123         69.3261         78.1967         45.3813         7.75870
           12124         70.0358         79.2216         46.1753         7.18497
           12125         64.8908         72.2646         41.7426         9.35799
           12126         65.4756         73.2973         42.3028         8.67385
           12127         66.5351         74.2961         42.8953         9.20072
           12128         65.9659         73.2654         42.3386         9.88392
           12129         61.0306         66.4924         39.0992         11.1737
           12130         59.8651         65.5034         38.3175         10.5646
           12131         60.5540         66.7454         38.7232         9.94895
           12132         61.7057         67.7381         39.5006         10.5599
           12133         56.7108         62.0916         36.1623         9.97358
           12134         58.0290         63.2239         37.1466         10.6268
           12135         57.4664         61.9806         36.9424         11.3396
           12136         56.1261         60.8489         35.9578         10.6861
           12137         52.7036         57.1901         33.5865         9.99539
           12138         54.1622         58.4027         34.7602         10.7159
           12139         53.6648         57.1817         34.7365         11.3993
           12140         52.1770         55.9694         33.5721         10.6738
           12141         50.1693         53.5429         32.3545         10.5777
           12142         49.8595         52.5159         32.5991         11.2148
           12143         48.2158         51.0272         31.3409         10.6140
           12144         48.5420         52.0514         31.1000         9.97611
           12145         44.5123         47.5366         28.5215         9.38003
           12146         44.5062         46.6337         29.2822         10.2337
           12147         42.1434         44.3513         27.5345         9.52309
           12148         42.1671         45.2447         26.7692         8.67085
           12149         34.7924         36.6405         22.8882         7.80494
           12150         35.2009         36.2181         24.2043         8.52718
           12151         33.0327         34.0020         22.8786         7.94796
           12152         32.6257         34.4305         21.5459         7.22466
           12153         31.2599         31.5536         22.6750         7.80759
           12154         31.2092         32.2330         21.6986         7.38531
           12155         33.0804         33.3111         23.8549         8.37172
           12156         15.4738         13.5183         15.6017         2.83968
           12157         15.5796         11.7882         16.7631         2.60557
           12158         13.4008         9.46026         14.8573         1.81666
           12159         16.3535         1.77352         17.1680     6.70049E-03
           12160         14.3565         3.44071         15.7353     519.560E-03
           12161         15.3830         6.21053         17.3755         1.16482
           12162         17.0317         4.54930         18.8056     654.246E-03
           12163         12.6312         5.30303         14.3186     881.957E-03
           12164         13.7067     743.382E-03         14.0633    -1.95351E-03
           12165         11.5765         2.61262         12.6422     361.372E-03
           12166         18.8927         3.12068         20.2587    -9.64248E-03
           12167         19.7061         5.89564         21.9371    -746.127E-03
           12168         18.2216         7.27992         20.5705        -1.37057
           12169         17.1229         4.50909         18.8897    -636.545E-03
           12170         19.7491         9.76202         22.3382        -2.14503
           12171         20.8392         8.68625         23.5845        -1.57630
           12172         22.3434         11.2182         25.2882        -2.42031
           12173         21.4567         12.2940         24.0417        -2.98955
           12174         20.8271         13.3004         22.9509        -3.43401
           12175         23.3525         14.6063         25.7738        -3.83687
           12176         22.8611         15.6128         24.6826        -4.28186
           12177         26.9605         22.4640         25.6822        -6.82128
           12178         27.3359         23.5858         25.1810        -7.08972
           12179         25.2686         21.9003         23.5279        -6.34001
           12180         24.9083         20.7795         24.0273        -6.07177
           12181         33.8892         32.8440         25.8142        -9.15090
           12182         32.7160         31.6357         25.1909        -8.79146
           12183         33.6284         32.0002         26.3709        -9.22502
           12184         34.8064         33.2128         26.9986        -9.59460
           12185         35.5347         34.2415         27.0568        -9.74050
           12186         36.1031         33.9719         28.3009        -10.1627
           12187         36.7962         35.0038         28.3359        -10.2897
           12188         38.9063         37.3457         29.3017        -10.8736
           12189         40.6329         38.7098         30.7035        -11.5239
           12190         40.9009         39.6912         30.1090        -11.3432
           12191         39.1879         38.3246         28.7112        -10.6915
           12192         47.3447         47.9420         32.4649        -12.1867
           12193         47.0391         46.9496         32.8769        -12.5310
           12194         48.6039         48.2674         34.1125        -13.1080
           12195         48.8948         49.2597         33.6979        -12.7616
           12196         48.9834         49.9269         33.2597        -12.3966
           12197         49.6561         51.1422         33.2970        -12.1709
           12198         48.4971         50.4322         32.1679        -11.4903
           12199         47.8002         49.2039         32.1264        -11.7257
           12200         54.1147         56.1908         35.9031        -12.9019
           12201         53.0530         55.0017         35.2725        -12.7192
           12202         53.1080         54.4688         35.7167        -13.2083
           12203         54.1720         55.6701         36.3544        -13.3873
           12204         61.3456         65.7021         39.5754        -12.6555
           12205         60.9982         64.8775         39.5371        -13.0840
           12206         62.1134         65.8961         40.2858        -13.5094
           12207         62.4571         66.7246         40.3006        -13.0846
           12208         64.2445         70.4639         41.0844        -11.0940
           12209         63.6116         70.1160         40.7283        -10.4417
           12210         63.4033         69.2534         40.5725        -11.3666
           12211         72.1037         80.5733         46.0695        -9.94083
           12212         71.0343         79.1643         45.3880        -10.1968
           12213         71.3158         79.1605         45.2509        -10.8628
           12214         72.3712         80.5677         45.9262        -10.6048
           12215         78.2901         87.9782         48.7093        -10.0320
           12216         78.8887         88.9038         49.3971        -9.50549
           12217         78.3741         88.3520         49.4288        -9.31587
           12218         77.7755         87.4324         48.7345        -9.84081
           12219         80.1995         90.2874         48.8521        -10.0722
           12220         80.9139         91.3302         49.4820        -9.60175
           12221         80.5384         90.9393         49.7504        -9.41014
           12222         79.8174         89.8928         49.1219        -9.88011
           12223         83.4436         94.8507         51.6046        -8.12165
           12224         82.9739         94.3047         51.9305        -7.99581
           12225         82.3285         93.3812         51.0221        -8.54748
           12226         82.8048         93.9293         50.6944        -8.67363
           12227         84.4918         96.2361         52.2086        -7.66154
           12228         84.8668         96.6923         51.9036        -7.69577
           12229         85.4529         97.4999         52.8310        -7.20806
           12230         85.0774         97.0393         53.1397        -7.17299
           12231         88.5350         101.510         54.9183        -5.56614
           12232         87.9869         100.806         54.0078        -5.97965
           12233         88.1598         101.037         53.4063        -5.98256
           12234         88.7050         101.742         54.3080        -5.57290
           12235         89.1172         102.260         55.1659        -5.25055
           12236         89.6225         102.896         55.8940        -4.88792
           12237         89.6817         102.939         56.8610        -4.70267
           12238         89.1769         102.312         56.1264        -5.06544
           12239         90.7463         104.374         55.7294        -4.15806
           12240         90.5137         104.062         55.8367        -4.34017
           12241         90.1353         103.607         54.8443        -4.63073
           12242         90.3623         103.910         54.7235        -4.45884
           12243         92.6081         106.766         56.6814        -2.32308
           12244         92.2970         106.406         55.8987        -2.56808
           12245         92.1852         106.314         54.9201        -2.44916
           12246         92.4925         106.675         55.7044        -2.20868
           12247         93.4529         107.722         58.7066        -1.51729
           12248         93.4916         107.802         58.3438        -1.28066
           12249         93.8028         108.099         59.6140        -1.14241
           12250         93.8480         108.209         59.0489    -604.508E-03
           12251         93.8996         108.229         59.5733    -861.268E-03
           12252         93.4955         107.839         57.9499        -1.03004
           12253         93.4491         107.818         57.4329    -769.319E-03
           12254         94.3343         108.641         61.1298     398.398E-03
           12255         94.0295         108.369         59.8903     597.967E-03
           12256         94.1584         108.451         60.7556     807.299E-03
           12257         92.3910         106.512         56.1794         2.51157
           12258         92.7867         106.975         57.0498         2.15082
           12259         92.6271         106.836         55.9675         2.06517
           12260         92.2361         106.372         55.0988         2.42530
           12261         92.0840         106.056         57.0038         3.03868
           12262         92.0535         106.068         56.1763         2.95500
           12263         91.5965         105.521         55.1714         3.31966
           12264         91.6219         105.510         55.9985         3.40369
           12265         91.0416         104.725         56.4313         3.94013
           12266         91.1052         104.846         55.7067         3.86742
           12267         90.5760         104.198         54.6149         4.27491
           12268         90.5067         104.076         55.3392         4.34746
           12269         89.8367         103.211         54.9378         4.83546
           12270         90.4053         103.912         56.0416         4.40470
           12271         89.9435         103.375         54.2351         4.77914
           12272         89.1255         102.289         54.5443         5.30976
           12273         88.5417         101.539         53.5206         5.75606
           12274         88.3720         101.308         54.1790         5.76575
           12275         88.9609         102.057         55.2016         5.31921
           12276         85.4958         97.5721         53.1868         7.06931
           12277         85.7647         97.8977         52.7466         7.14590
           12278         85.1293         97.0303         51.8432         7.63266
           12279         84.8556         96.7048         52.2850         7.55301
           12280         84.6798         96.5092         52.7057         7.42353
           12281         84.2318         95.9558         52.8104         7.43870
           12282         84.6443         96.5356         53.7806         6.95016
           12283         85.0997         97.0986         53.6752         6.94220
           12284         81.8581         92.7890         50.9472         8.61551
           12285         82.4409         93.5794         51.4023         8.31465
           12286         82.5984         93.7092         50.9916         8.55022
           12287         82.0073         92.9072         50.5300         8.84642
           12288         76.8640         86.1968         48.1642         10.1653
           12289         77.3139         86.6771         48.1999         10.3138
           12290         76.6956         85.6669         47.5593         10.8900
           12291         76.2426         85.1823         47.5387         10.7461
           12292         74.7926         83.7969         47.4947         9.93605
           12293         73.8782         82.5152         46.7863         10.3416
           12294         73.6301         82.4535         46.9843         9.82007
           12295         71.6186         79.6848         45.5603         10.5559
           12296         72.5402         81.0192         46.2264         10.1048
           12297         73.0265         81.2721         46.1774         10.7750
           12298         72.1238         79.9446         45.5197         11.2207
           12299         67.1687         74.4491         43.0070         10.3472
           12300         66.5561         73.2794         42.4889         11.0769
           12301         65.3419         72.0960         41.8239         10.6117
           12302         62.7420         67.2599         40.4071         12.8802
           12303         64.0272         68.6183         41.1840         13.1766
           12304         63.4938         67.3014         41.1562         13.8807
           12305         62.2133         65.9440         40.3834         13.5906
           12306         54.5428         56.9939         35.9507         12.6903
           12307         56.1622         58.5703         37.0877         13.1714
           12308         55.9286         57.5610         37.4403         13.7606
           12309         54.3062         55.9838         36.3070         13.2839
           12310         52.7758         54.3918         35.3188         12.9157
           12311         54.3317         55.0919         37.0195         13.9743
           12312         52.8091         53.5021         36.0340         13.6109
           12313         49.8754         50.6069         34.0287         12.7884
           12314         50.0728         50.1438         34.7249         13.2704
           12315         48.6053         48.5510         33.8563         12.9458
           12316         48.4045         49.0142         33.1650         12.4666
           12317         40.4513         38.6763         30.4360         11.4200
           12318         40.2891         39.5126         29.2886         10.9759
           12319         42.1598         41.3929         30.4045         11.5206
           12320         42.3069         40.5501         31.5438         11.9674
           12321         37.9529         35.7997         29.4012         10.7538
           12322         37.4516         34.6120         29.8815         10.7391
           12323         35.7260         33.2554         28.4832         10.1053
           12324         36.2330         34.4347         28.0087         10.1171
           12325         30.9276         27.3431         27.0930         8.47840
           12326         32.9731         29.3866         28.2296         9.24323
           12327         33.3110         28.8761         29.3968         9.31815
           12328         31.3063         26.8346         28.2643         8.55524
           12329         22.5297         19.6585         21.3200         5.34504
           12330         24.8062         21.6751         23.0126         6.18493
           12331         24.5970         20.3782         23.8929         5.93764
           12332         22.3660         18.3630         22.1972         5.09666
           12333         21.2083         12.3507         23.7186         3.03438
           12334         20.5584         13.4912         22.5354         3.50339
           12335         22.5155         15.7598         24.1327         4.34035
           12336         23.0112         14.6199         25.3171         3.87103
           12337         21.3524         4.74566         23.3260     16.4804E-03
           12338         19.6355         5.92174         21.8685     765.208E-03
           12339         20.7049         8.71333         23.4347         1.61021
           12340         22.1576         7.54032         24.8907     864.068E-03
           12341         18.8908         3.12204         20.2573     12.2292E-03
           12342         18.0784         7.34459         20.4189         1.40482
           12343         23.7682         6.60453         26.3720    -17.7510E-03
           12344         24.7056         9.39338         27.9673    -943.130E-03
           12345         23.4008         10.3262         26.5694        -1.76960
           12346         22.2339         7.53975         24.9727    -846.446E-03
           12347         24.8926         12.8719         28.2033        -2.68068
           12348         25.9233         12.1482         29.5248        -1.94926
           12349         27.4183         14.6805         31.0990        -2.92402
           12350         26.5591         15.4043         29.7777        -3.65545
           12351         27.3509         19.0984         29.0586        -5.59451
           12352         27.8097         18.4402         30.1601        -5.15958
           12353         29.7869         20.5826         31.7418        -6.03883
           12354         29.4096         21.2405         30.6401        -6.47462
           12355         31.4123         23.2282         32.1515        -7.30943
           12356         31.1396         23.8277         31.1303        -7.62854
           12357         29.0839         21.8410         29.6188        -6.79400
           12358         35.0538         30.1662         30.8890        -9.94059
           12359         34.6811         29.1086         31.4826        -9.67349
           12360         36.4790         30.5077         32.9786        -10.3039
           12361         36.8464         31.5589         32.3825        -10.5676
           12362         39.3755         35.5230         32.1423        -11.5067
           12363         37.9303         34.3767         30.9656        -10.9936
           12364         37.4268         33.3245         31.3202        -10.8477
           12365         38.8727         34.4656         32.4972        -11.3605
           12366         47.5757         44.3983         36.3407        -13.9649
           12367         47.6412         45.1633         35.6196        -13.7829
           12368         45.9359         43.5729         34.3991        -13.2550
           12369         45.8723         42.8038         35.1231        -13.4396
           12370         49.1268         46.4832         36.7565        -14.2627
           12371         49.3894         47.4418         36.1998        -14.0896
           12372         47.9072         46.1212         35.0578        -13.6112
           12373         52.9816         52.0948         37.5720        -14.5926
           12374         51.6591         50.9683         36.4628        -14.1399
           12375         51.1623         49.7444         36.8472        -14.3561
           12376         52.4923         50.8682         37.9553        -14.8096
           12377         57.4373         58.0710         39.2870        -14.8858
           12378         57.8770         58.0001         40.0594        -15.3235
           12379         59.0098         59.5366         40.5213        -15.3631
           12380         58.5893         59.6116         39.7509        -14.9291
           12381         60.6651         62.7500         40.3618        -14.6778
           12382         60.5415         62.1909         40.6192        -14.9866
           12383         61.4827         63.2584         41.1840        -15.1395
           12384         61.6176         63.8236         40.9300        -14.8359
           12385         68.9764         74.3477         43.7959        -13.7623
           12386         68.4335         73.2591         43.7362        -14.2299
           12387         69.2835         74.2015         44.1891        -14.3824
           12388         69.8261         75.2869         44.2495        -13.9158
           12389         71.9805         78.9836         45.1007        -12.5289
           12390         72.6032         79.9960         45.4613        -12.1361
           12391         71.9060         79.3023         45.2202        -11.8719
           12392         71.2733         78.2838         44.8516        -12.2613
           12393         75.2392         83.3218         46.4826        -11.9834
           12394         75.7418         83.8701         46.5449        -12.1096
           12395         76.4400         84.9955         47.0003        -11.6134
           12396         75.9376         84.4459         46.9430        -11.4878
           12397         76.9086         85.4890         46.9611        -11.7739
           12398         77.6799         86.6831         47.4691        -11.2793
           12399         77.2137         86.1904         47.5099        -11.1186
           12400         81.4303         91.8421         48.7077        -9.94809
           12401         81.3303         91.7840         49.1039        -9.76506
           12402         80.4080         90.4721         48.5706        -10.2541
           12403         80.5134         90.5303         48.1778        -10.4422
           12404         82.5877         93.4985         49.5727        -9.24288
           12405         82.1409         92.8316         48.9353        -9.61767
           12406         82.7944         93.7108         48.9101        -9.38791
           12407         83.2443         94.3773         49.5496        -9.01342
           12408         87.1429         99.6922         51.3870        -6.77280
           12409         86.9867         99.4830         51.8268        -6.82362
           12410         86.3860         98.6722         51.1863        -7.23342
           12411         86.5416         98.8802         50.7458        -7.18252
           12412         88.5299         101.559         51.6491        -5.80352
           12413         88.4872         101.488         52.2870        -5.85283
           12414         87.8611         100.659         51.5443        -6.29511
           12415         87.9045         100.730         50.9096        -6.24423
           12416         90.0952         103.654         52.0967        -4.43141
           12417         89.7581         103.240         51.0686        -4.55676
           12418         90.1122         103.713         51.1804        -4.18168
           12419         90.4490         104.125         52.2096        -4.06027
           12420         90.8475         104.678         51.8040        -3.41159
           12421         91.0567         104.923         52.6086        -3.39685
           12422         90.6797         104.436         52.1974        -3.77357
           12423         90.4674         104.184         51.3965        -3.79361
           12424         92.4116         106.665         53.9694        -1.46840
           12425         92.0124         106.186         52.9193        -1.79105
           12426         91.8083         105.959         51.9200        -1.54525
           12427         92.2016         106.437         52.9632        -1.22308
           12428         92.3385         106.616         53.0166    -620.524E-03
           12429         92.1082         106.348         52.1538    -366.681E-03
           12430         92.3850         106.676         53.0444    -91.4030E-03
           12431         92.6159         106.940         53.9109    -341.985E-03
           12432         92.9969         107.347         55.5917     862.638E-03
           12433         93.1606         107.535         56.0537     544.958E-03
           12434         92.8834         107.239         54.9155     433.403E-03
           12435         92.7077         107.033         54.4579     756.529E-03
           12436         91.5407         105.598         52.0015         2.29753
           12437         91.2223         105.192         51.5268         2.66858
           12438         91.4821         105.497         52.5173         2.69083
           12439         91.8020         105.902         52.9917         2.31952
           12440         90.6018         104.385         50.8888         3.40473
           12441         90.8324         104.662         51.6975         3.39551
           12442         91.1462         105.069         52.0108         3.03803
           12443         90.9132         104.791         51.1994         3.04749
           12444         90.1416         103.683         53.0031         4.52934
           12445         90.2233         103.814         52.4498         4.35644
           12446         89.7482         103.206         51.5806         4.69682
           12447         89.6633         103.073         52.1337         4.86811
           12448         89.0094         102.206         51.7293         5.40927
           12449         89.5142         102.856         52.6214         5.06270
           12450         89.1593         102.423         51.2406         5.21422
           12451         85.8124         97.8863         49.8038         7.67532
           12452         85.7745         97.8373         50.4334         7.65664
           12453         86.5125         98.8418         51.1383         7.16931
           12454         86.5486         98.8907         50.5033         7.18820
           12455         85.0884         96.8913         49.7293         8.11295
           12456         84.9395         96.7007         50.2097         8.12384
           12457         85.6249         97.6446         50.9162         7.66794
           12458         83.1666         94.2763         49.6018         9.02970
           12459         83.7825         95.1508         50.2607         8.60291
           12460         84.0858         95.5347         49.9296         8.57484
           12461         83.4736         94.6646         49.2708         9.00079
           12462         80.5358         90.6355         48.5304         10.2405
           12463         80.4594         90.4454         48.1485         10.4861
           12464         79.7077         89.3726         47.8007         10.8479
           12465         79.7763         89.5593         48.1853         10.5989
           12466         78.2015         87.3989         47.6349         11.1214
           12467         78.2593         87.3591         47.4196         11.3552
           12468         77.5300         86.2818         47.0511         11.7216
           12469         77.4687         86.3253         47.2717         11.4815
           12470         74.1116         81.8837         46.0581         12.0782
           12471         74.6509         82.4230         46.1792         12.2870
           12472         73.7605         80.9752         45.7306         12.8503
           12473         73.2209         80.4403         45.6057         12.6401
           12474         67.0061         72.1129         42.7734         13.4721
           12475         66.0458         71.2955         42.2174         12.9949
           12476         67.0237         72.9996         42.6618         12.3491
           12477         67.9702         73.8172         43.2171         12.8248
           12478         64.0140         67.1599         41.8867         14.6736
           12479         64.9646         68.1597         42.5246         14.8861
           12480         64.4175         66.9665         42.6538         15.2985
           12481         63.4672         65.9671         42.0156         15.0860
           12482         62.4203         64.8226         41.3350         14.8905
           12483         61.2712         63.6076         40.5965         14.6334
           12484         61.7678         64.8123         40.4522         14.1428
           12485         62.9181         66.0268         41.1874         14.4016
           12486         55.9192         56.2142         38.5160         14.7036
           12487         57.1010         57.6536         39.1089         14.8532
           12488         57.2873         57.3075         39.7299         15.2319
           12489         56.1147         55.8722         39.1417         15.0778
           12490         54.4596         54.5245         37.6871         14.4624
           12491         54.9153         54.3116         38.6376         14.9616
           12492         53.6572         52.6722         38.1137         14.8280
           12493         53.1813         52.8825         37.1573         14.3294
           12494         46.4984         44.4909         34.3794         13.2952
           12495         46.9551         44.3116         35.3584         13.6361
           12496         45.3119         42.4049         34.5849         13.2344
           12497         44.8026         42.5258         33.6014         12.8932
           12498         38.9130         35.6341         31.2238         11.2863
           12499         38.0576         34.1455         31.4484         11.0647
           12500         36.5797         33.1245         30.1080         10.5144
           12501         28.5069         22.6928         27.9316         7.10283
           12502         29.8224         24.2877         28.5026         7.73194
           12503         31.0752         24.6297         30.2430         7.94318
           12504         29.7894         23.0414         29.6578         7.30929
           12505         24.8657         16.8558         26.8145         4.73100
           12506         25.4680         15.9562         28.0856         4.21730
           12507         23.7525         13.7193         26.5878         3.35739
           12508         26.1585         8.65785         29.3898     23.0899E-03
           12509         24.6485         9.39139         27.9042     960.528E-03
           12510         25.8220         12.1590         29.4026         1.99396
           12511         27.1107         11.4284         30.8870         1.05884
           12512         23.2765         10.3249         26.4251         1.80229
           12513         23.7677         6.60390         26.3712     19.8911E-03
           12514         28.5415         10.8727         32.3799    -23.4031E-03
           12515         29.6039         13.5722         33.8885        -1.10995
           12516         28.4240         14.1141         32.4563        -2.11327
           12517         27.1645         11.4161         30.9467        -1.02895
           12518         29.9330         16.5949         33.9876        -3.13357
           12519         30.9054         16.1766         35.3588        -2.25076
           12520         32.4207         18.5738         36.8499        -3.29882
           12521         31.5926         18.9917         35.4785        -4.18244
           12522         35.1594         23.3613         38.3936        -6.14512
           12523         36.9911         25.3802         39.8199        -7.05205
           12524         36.5249         25.7737         38.5463        -7.69080
           12525         34.6187         23.7542         37.1195        -6.78417
           12526         35.0844         27.5987         33.9032        -9.22829
           12527         37.0615         29.4830         35.2585        -10.0112
           12528         36.6323         29.9088         33.9668        -10.1579
           12529         34.6166         28.0191         32.6068        -9.37463
           12530         38.7858         31.8250         35.5470        -10.9423
           12531         38.6534         32.4253         34.5618        -11.0882
           12532         48.9307         42.6245         41.1465        -14.5852
           12533         47.5153         41.4041         39.8907        -14.1865
           12534         46.9921         40.2293         40.4113        -13.9344
           12535         48.4144         41.4536         41.6683        -14.3365
           12536         46.8332         41.6866         38.1957        -14.0109
           12537         46.9107         42.3712         37.5012        -13.9991
           12538         45.5573         41.1150         36.5213        -13.5743
           12539         45.4885         40.4357         37.2212        -13.5868
           12540         51.0581         46.7887         40.0043        -15.1565
           12541         51.0646         46.3237         40.6195        -15.2032
           12542         52.3114         47.6315         41.4717        -15.5261
           12543         52.3290         48.1316         40.8525        -15.4816
           12544         55.9664         54.1897         40.6676        -15.7652
           12545         55.4368         53.1657         40.8596        -15.8058
           12546         56.1796         53.6971         41.7088        -16.0498
           12547         56.7025         54.7214         41.5170        -16.0098
           12548         58.7075         58.0693         41.5129        -15.9357
           12549         58.0451         57.0146         41.4548        -15.9541
           12550         58.6066         57.3469         42.1993        -16.1791
           12551         59.2551         58.3977         42.2639        -16.1529
           12552         61.1938         61.4941         42.4680        -16.0329
           12553         60.4453         60.1003         42.6402        -16.1873
           12554         61.3126         60.7994         43.6703        -16.4388
           12555         62.0491         62.1895         43.4917        -16.2866
           12556         65.1408         67.8815         43.0419        -15.3250
           12557         65.6562         68.2487         43.5985        -15.5731
           12558         66.6998         69.9751         43.7492        -15.2721
           12559         66.1956         69.6081         43.1990        -15.0268
           12560         68.7003         72.7749         44.4938        -15.0763
           12561         68.5723         72.3347         44.7923        -15.3138
           12562         69.3095         73.3841         45.0829        -15.2148
           12563         69.4480         73.8257         44.7900        -14.9811
           12564         75.3198         82.8203         46.1309        -12.9922
           12565         75.4107         83.0353         46.1745        -12.8315
           12566         74.8227         82.1708         46.0137        -13.0399
           12567         74.7317         81.9505         45.9695        -13.2033
           12568         78.3287         87.2692         46.9371        -11.7266
           12569         77.5891         86.1686         46.7107        -12.0851
           12570         77.6801         86.2611         46.5775        -12.1325
           12571         78.4196         87.3613         46.8032        -11.7740
           12572         80.5502         90.4812         47.5087        -10.6935
           12573         79.8658         89.4872         47.2732        -11.0481
           12574         79.9135         89.5480         47.0111        -11.0609
           12575         80.5984         90.5412         47.2474        -10.7070
           12576         82.8887         93.8206         47.9155        -9.44805
           12577         82.3921         93.1295         47.4978        -9.70835
           12578         82.8025         93.7275         47.4239        -9.43937
           12579         83.3064         94.4215         47.8402        -9.18310
           12580         84.1294         95.5598         48.7967        -8.71692
           12581         84.6472         96.2803         49.1490        -8.40061
           12582         84.5572         96.1600         49.5959        -8.41774
           12583         84.0350         95.4353         49.2341        -8.73025
           12584         86.1928         98.4347         48.9646        -7.35038
           12585         85.7519         97.8314         48.7155        -7.63992
           12586         85.6588         97.7247         48.2717        -7.62663
           12587         86.0969         98.3254         48.5204        -7.33359
           12588         88.0713         101.016         49.2933        -5.82989
           12589         87.5558         100.324         48.9736        -6.21678
           12590         87.3301         100.048         48.3159        -6.22782
           12591         87.8454         100.740         48.6356        -5.84079
           12592         88.7586         101.967         49.0700        -5.04694
           12593         88.4431         101.580         48.2534        -5.06075
           12594         88.8381         102.112         48.3565        -4.64836
           12595         89.1531         102.499         49.1738        -4.63377
           12596         89.9086         103.507         49.5225        -3.79917
           12597         89.5284         103.002         49.3240        -4.22644
           12598         89.1972         102.600         48.3325        -4.17179
           12599         89.5796         103.107         48.5287        -3.74602
           12600         90.9618         104.905         49.9922        -2.17859
           12601         90.7050         104.593         49.1457        -2.05607
           12602         90.9691         104.932         49.5235        -1.69899
           12603         91.2268         105.244         50.3683        -1.82250
           12604         91.1123         105.129         49.3620    -847.562E-03
           12605         91.3449         105.420         49.9029    -565.884E-03
           12606         91.5732         105.697         50.6167    -757.607E-03
           12607         91.3328         105.398         50.0776        -1.04214
           12608         91.4565         105.538         50.7235         1.45424
           12609         91.6690         105.807         51.0975         1.09341
           12610         91.3807         105.458         50.1799     993.088E-03
           12611         91.1692         105.189         49.8064         1.35343
           12612         90.3684         104.127         49.5129         3.05790
           12613         90.6481         104.495         49.6884         2.65095
           12614         90.2680         104.025         48.7269         2.68874
           12615         89.9857         103.653         48.5485         3.09061
           12616         89.5480         103.062         48.5838         3.82430
           12617         89.7624         103.327         49.1648         3.81940
           12618         90.0709         103.734         49.3192         3.45348
           12619         89.8404         103.451         48.7371         3.45691
           12620         89.4483         102.873         49.8194         4.51968
           12621         89.0279         102.330         49.1370         4.76950
           12622         88.9333         102.180         49.6271         5.04754
           12623         89.3553         102.724         50.3105         4.79768
           12624         87.7787         100.628         49.0253         6.02398
           12625         87.3569         100.084         48.3367         6.21190
           12626         87.0437         99.6385         48.5540         6.56077
           12627         87.4643         100.183         49.2430         6.37126
           12628         86.8321         99.3108         49.2313         6.89554
           12629         86.6121         99.0395         48.5482         6.93057
           12630         86.0224         98.2315         48.3099         7.35147
           12631         86.2419         98.5023         48.9911         7.31576
           12632         85.1404         96.9903         48.4204         8.03193
           12633         84.6841         96.3608         48.1418         8.31339
           12634         84.7417         96.4236         48.5504         8.32478
           12635         85.2004         97.0555         48.8296         8.04577
           12636         82.0464         92.6243         47.8367         9.91350
           12637         81.6495         92.0527         47.5155         10.1514
           12638         81.2461         91.4790         47.5965         10.3469
           12639         81.6501         92.0604         47.9222         10.1132
           12640         80.6650         90.6418         47.4937         10.6486
           12641         80.3020         90.1328         47.5037         10.7941
           12642         80.8606         90.9590         47.9514         10.4431
           12643         81.2294         91.4742         47.9437         10.2910
           12644         78.3726         87.3052         46.8557         11.7665
           12645         78.7768         87.8839         46.8011         11.6179
           12646         78.1625         86.9673         46.5927         11.9334
           12647         77.7573         86.3812         46.6427         12.0830
           12648         74.8147         82.1235         46.0016         13.0975
           12649         74.3271         81.2808         45.8805         13.4430
           12650         73.6853         80.3972         45.7035         13.5578
           12651         74.1686         81.2436         45.8170         13.2110
           12652         72.2243         78.1949         45.3195         14.0453
           12653         71.5451         77.1630         45.1437         14.2600
           12654         71.5112         77.2770         45.0459         14.0713
           12655         72.2016         78.3189         45.2216         13.8555
           12656         67.2169         70.4902         44.1453         15.4083
           12657         66.5570         69.8025         43.6534         15.2637
           12658         67.1604         70.9510         43.5788         14.9367
           12659         67.8194         71.6384         44.0698         15.0814
           12660         64.7320         66.7600         43.4613         15.7683
           12661         65.4710         67.6191         44.0091         15.8448
           12662         64.9746         66.5763         44.2824         16.0885
           12663         64.2377         65.7170         43.7342         16.0120
           12664         60.2542         60.5924         41.6578         15.7892
           12665         61.1722         61.6366         42.2777         15.9314
           12666         60.7641         60.6199         42.6529         16.1643
           12667         59.8509         59.5814         42.0399         16.0169
           12668         45.6895         41.6973         36.0552         13.5682
           12669         44.3613         40.8830         34.7067         13.0494
           12670         46.6164         43.2424         35.9138         13.7402
           12671         41.7470         36.0699         35.7130         12.3088
           12672         43.1928         37.1541         37.0244         12.7801
           12673         42.2872         35.6302         37.2664         12.3520
           12674         40.8243         34.5098         35.9491         11.8878
           12675         38.9994         31.3574         36.5290         10.7820
           12676         37.4004         29.6735         35.6333         10.0979
           12677         37.0128         30.2118         34.3096         10.2729
           12678         38.6556         31.8994         35.2030         10.9604
           12679         34.8638         25.8749         35.4436         8.30308
           12680         36.4808         27.7289         36.2654         9.17204
           12681         37.2179         27.6171         37.7907         8.90686
           12682         35.6637         25.7662         36.9685         8.03892
           12683         30.5226         19.4185         33.6539         5.01579
           12684         32.2866         21.6781         34.9067         6.07511
           12685         33.1136         21.4320         36.4493         5.47136
           12686         31.4645         19.1734         35.1971         4.41229
           12687         30.9247         13.2138         35.3363     30.4297E-03
           12688         29.5694         13.6271         33.8505         1.16578
           12689         30.8952         16.3671         35.3148         2.41505
           12690         32.0397         15.9579         36.7995         1.28182
           12691         32.4027         18.8653         36.7231         3.57018
           12692         29.8013         16.6747         33.7885         3.25707
           12693         33.3158         15.6520         38.2595    -26.6200E-03
           12694         34.4772         18.1427         39.6878        -1.21676
           12695         33.3733         18.3095         38.2355        -2.35640
           12696         32.0441         15.8193         36.8068        -1.16856
           12697         34.8755         20.6169         39.6678        -3.44179
           12698         35.8216         20.4883         41.0774        -2.42656
           12699         37.3098         22.6659         42.4750        -3.50650
           12700         36.4862         22.7938         41.0655        -4.52203
           12701         37.5360         25.0641         41.1181        -6.34128
           12702         39.3019         26.9775         42.5192        -7.21197
           12703         38.8248         27.2933         41.2211        -7.92303
           12704         38.0250         28.0690         38.7638        -9.00854
           12705         39.8897         29.8728         40.1494        -9.76739
           12706         39.5933         30.3376         38.9603        -10.1869
           12707         37.6900         28.5340         37.5747        -9.42770
           12708         46.7576         36.4699         45.2637        -12.3583
           12709         46.5375         36.9484         44.0701        -12.7371
           12710         44.9227         35.3897         42.8785        -12.1725
           12711         45.1643         34.9121         44.0725        -11.7932
           12712         48.1118         40.5304         42.3150        -14.1010
           12713         49.4933         41.8214         43.4645        -14.4815
           12714         49.8000         42.7440         42.8171        -14.7180
           12715         50.9976         43.8797         43.8400        -15.0229
           12716         51.3137         44.7300         43.3294        -15.1987
           12717         50.1130         43.5937         42.2985        -14.8962
           12718         54.1899         49.3721         43.1925        -15.9777
           12719         54.2474         50.0298         42.4154        -15.9454
           12720         53.3311         49.1024         41.6806        -15.7322
           12721         53.2692         48.4480         42.4625        -15.7539
           12722         56.4128         53.3118         42.7355        -16.2505
           12723         55.9558         52.4234         42.9421        -16.2274
           12724         56.5684         52.8759         43.7247        -16.3733
           12725         57.0188         53.7638         43.5201        -16.3951
           12726         59.8375         57.8383         44.4419        -16.6396
           12727         60.0996         57.7778         45.2844        -16.7276
           12728         60.9828         59.2412         45.3429        -16.7289
           12729         60.7379         59.3086         44.5048        -16.6376
           12730         62.5599         62.2433         44.7401        -16.5591
           12731         63.4355         63.4220         45.2882        -16.5626
           12732         63.6421         64.0742         44.7319        -16.4320
           12733         62.7575         62.8941         44.1813        -16.4275
           12734         65.6784         67.5315         44.6848        -16.0628
           12735         65.2805         67.1888         44.1378        -15.9648
           12736         64.6268         66.0463         44.2125        -16.1229
           12737         65.0306         66.3925         44.7532        -16.2219
           12738         67.8778         70.9449         45.1900        -15.6853
           12739         68.1319         71.2222         45.5089        -15.7007
           12740         68.7396         72.2894         45.3912        -15.4954
           12741         68.4854         72.0091         45.0685        -15.4823
           12742         72.9891         79.0507         45.8388        -14.1515
           12743         73.7233         80.2254         45.8847        -13.8410
           12744         73.3247         79.6773         45.7104        -13.9125
           12745         72.5924         78.4981         45.6643        -14.2247
           12746         75.4990         82.9481         46.1330        -13.1416
           12747         74.7403         81.7739         46.0757        -13.4655
           12748         74.8444         81.9572         46.1218        -13.3852
           12749         75.6079         83.1337         46.1780        -13.0624
           12750         76.3266         84.2310         46.2134        -12.7516
           12751         77.0580         85.3377         46.3039        -12.4208
           12752         77.0041         85.2372         46.3404        -12.4732
           12753         76.2743         84.1303         46.2495        -12.8040
           12754         79.8757         89.5557         46.5554        -10.9820
           12755         79.1462         88.4885         46.4660        -11.3507
           12756         79.0022         88.3483         46.2709        -11.2971
           12757         79.7316         89.4131         46.3598        -10.9294
           12758         80.6913         90.7385         46.7239        -10.5538
           12759         80.4010         90.3911         46.4014        -10.5665
           12760         81.0472         91.3371         46.4373        -10.1851
           12761         81.3407         91.6872         46.7632        -10.1745
           12762         83.2199         94.4697         46.5167        -8.78719
           12763         82.7850         93.8334         46.5736        -9.12329
           12764         82.3927         93.3531         46.2340        -9.16990
           12765         82.8298         93.9928         46.1774        -8.83410
           12766         85.4066         97.4993         46.8938        -7.33153
           12767         84.8199         96.6921         46.7972        -7.74594
           12768         84.4680         96.2699         46.3176        -7.75927
           12769         85.0552         97.0771         46.4111        -7.34604
           12770         86.6768         99.3171         46.3184        -5.88202
           12771         86.9933         99.7024         46.7930        -5.86126
           12772         86.5943         99.1628         46.7472        -6.20708
           12773         86.2787         98.7777         46.2728        -6.23222
           12774         88.4583         101.701         46.5197        -4.02997
           12775         88.9335         102.299         47.2318        -3.87172
           12776         88.8260         102.139         47.5201        -4.21147
           12777         88.3499         101.539         46.8059        -4.37061
           12778         89.6232         103.208         47.5211        -2.98399
           12779         89.2582         102.739         47.0978        -3.27874
           12780         89.1047         102.561         46.5133        -3.04908
           12781         89.4709         103.030         46.9361        -2.75378
           12782         90.2007         103.973         47.6465        -1.77748
           12783         90.0078         103.722         47.4798        -2.11810
           12784         89.7392         103.389         46.7990        -2.01769
           12785         89.9355         103.643         46.9666        -1.67725
           12786         90.2119         104.005         47.0351    -478.767E-03
           12787         90.2450         104.044         47.2128    -859.529E-03
           12788         89.8433         103.538         46.3518    -884.845E-03
           12789         89.8112         103.500         46.1747    -502.001E-03
           12790         89.9419         103.654         46.8625         1.50797
           12791         90.2978         104.100         47.7131         1.56534
           12792         90.5335         104.404         47.9871         1.07362
           12793         90.1803         103.961         47.1360         1.01536
           12794         89.4211         102.982         46.4047         2.33338
           12795         89.7112         103.341         47.1200         2.44126
           12796         90.0118         103.730         47.4025         2.02434
           12797         89.7248         103.373         46.6866         1.91730
           12798         89.0886         102.524         46.8830         3.37740
           12799         89.0554         102.494         46.5233         3.14975
           12800         88.6467         101.972         46.0994         3.44372
           12801         88.6826         102.003         46.4552         3.67327
           12802         89.2039         102.613         48.2277         4.11478
           12803         88.7688         102.045         47.8293         4.46516
           12804         88.9459         102.250         48.5529         4.60050
           12805         89.3827         102.821         48.9522         4.24992
           12806         86.7554         99.3953         46.6180         5.98462
           12807         86.3834         98.8825         46.6348         6.34841
           12808         86.6807         99.2424         47.1483         6.34118
           12809         87.0505         99.7529         47.1292         5.97963
           12810         85.0929         97.0936         46.6609         7.45831
           12811         84.5969         96.4038         46.6097         7.82770
           12812         84.9194         96.7937         47.0893         7.80645
           12813         85.4160         97.4842         47.1405         7.43731
           12814         83.5427         94.8262         47.1554         8.85642
           12815         84.1796         95.7162         47.3096         8.45970
           12816         83.9668         95.4595         46.9656         8.47460
           12817         83.3345         94.5765         46.8170         8.86724
           12818         80.7272         90.8280         46.5571         10.4609
           12819         80.7113         90.7574         46.7710         10.5625
           12820         81.2930         91.5822         46.9462         10.2754
           12821         81.3088         91.6510         46.7267         10.1716
           12822         79.1578         88.5131         46.4490         11.3315
           12823         78.2900         87.2397         46.3013         11.7482
           12824         78.3402         87.2513         46.5035         11.8224
           12825         79.2075         88.5279         46.6538         11.4051
           12826         77.2078         85.5442         46.3930         12.3770
           12827         76.4260         84.3621         46.2369         12.7380
           12828         76.1533         83.9555         46.2459         12.8414
           12829         76.9275         85.1352         46.4070         12.4779
           12830         72.1660         77.7981         45.6433         14.4111
           12831         71.9092         77.3343         45.7667         14.5497
           12832         71.1615         76.1707         45.6393         14.7808
           12833         71.4111         76.6388         45.5076         14.6373
           12834         66.7819         68.8921         45.7316         16.0507
           12835         67.3212         69.8917         45.4515         15.8969
           12836         67.8212         70.5901         45.8724         15.8179
           12837         67.2790         69.5913         46.1497         15.9722
           12838         65.1610         66.4278         45.1009         16.2805
           12839         65.7605         67.2394         45.5565         16.2389
           12840         65.2917         66.3148         45.8712         16.3619
           12841         64.6926         65.4951         45.4153         16.4058
           12842         64.0456         64.6181         44.9629         16.4326
           12843         63.3294         63.7199         44.4367         16.4039
           12844         63.7722         64.6861         44.0664         16.2402
           12845         64.4922         65.5851         44.5944         16.2676
           12846         58.0920         54.6725         44.8331         16.6005
           12847         57.5421         54.1913         44.1566         16.5075
           12848         58.3976         55.7265         43.9976         16.5416
           12849         58.9330         56.1887         44.6699         16.6381
           12850         53.7148         48.9494         42.7235         15.8664
           12851         52.8560         48.2496         41.8160         15.6499
           12852         53.5834         49.5663         41.5949         15.7685
           12853         54.4339         50.2608         42.5025         15.9859
           12854         50.8287         44.0839         43.1622         15.0548
           12855         51.6508         44.4077         44.5655         15.1518
           12856         50.2499         42.4074         44.2850         14.6460
           12857         49.3862         42.0722         42.8765         14.5424
           12858         46.1326         38.4725         41.0494         13.4449
           12859         46.9313         38.7903         42.2801         13.5438
           12860         45.7830         37.2755         41.9948         13.0184
           12861         44.9658         36.9611         40.7639         12.9201
           12862         45.1458         35.0350         43.8546         11.8871
           12863         46.1026         35.6042         45.1088         11.9589
           12864         45.2321         34.3561         45.0354         11.3234
           12865         44.2614         33.7852         43.7787         11.2566
           12866         42.7038         31.3529         43.9057         9.82286
           12867         43.1467         32.1798         43.6844         10.3847
           12868         44.6138         33.3564         45.1595         10.7195
           12869         44.1495         32.5153         45.3771         10.1374
           12870         35.7895         23.6210         39.2871         5.98492
           12871         37.4611         25.8163         40.2249         7.24031
           12872         38.6395         26.0847         42.2342         6.59638
           12873         37.0850         23.8891         41.2991         5.34148
           12874         36.0440         21.0199         41.2314         2.82770
           12875         37.0181         20.7987         42.6402         1.46384
           12876         35.7109         18.1609         41.1413     39.2739E-03
           12877         34.5300         18.3807         39.7362         1.40007
           12878         34.1485         21.3845         38.1332         4.83529
           12879         35.0632         21.2031         39.6928         3.91375
           12880         33.4701         18.6812         38.2802         2.64607
           12881         40.5203         23.2932         46.7887    -26.4213E-03
           12882         41.7328         25.3096         48.1035        -1.23576
           12883         40.6582         24.9203         46.6544        -2.45445
           12884         39.3254         22.9029         45.3397        -1.24685
           12885         42.9195         25.8731         49.5428    -25.2070E-03
           12886         44.1207         27.7098         50.8194        -1.20905
           12887         43.0390         27.1475         49.3798        -2.41807
           12888         43.7147         30.1205         47.8020        -7.26913
           12889         44.3063         30.0774         49.1212        -6.40157
           12890         45.8094         31.6553         50.3556        -7.18272
           12891         45.2705         31.6979         49.0366        -8.05044
           12892         46.0269         33.7265         47.7484        -10.1895
           12893         46.3665         33.4099         48.9750        -9.51012
           12894         47.8648         34.9024         50.1572        -10.1279
           12895         47.5570         35.2170         48.9301        -10.8081
           12896         47.0502         36.0590         46.5085        -11.9371
           12897         48.5854         37.6122         47.6490        -12.4849
           12898         48.3121         38.0224         46.4021        -12.9037
           12899         50.5933         41.1546         46.9425        -14.0746
           12900         50.4981         41.6682         45.9373        -14.3493
           12901         49.2820         40.3633         45.1177        -13.9644
           12902         49.3941         39.8473         46.1238        -13.6927
           12903         53.1394         45.5026         46.4616        -15.3704
           12904         54.0932         46.6863         46.9974        -15.6188
           12905         53.9632         47.0812         46.0729        -15.7252
           12906         52.9962         45.8970         45.5236        -15.4818
           12907         54.6935         48.2036         46.1939        -15.9230
           12908         55.0784         48.1283         47.2947        -15.8821
           12909         55.9335         49.4400         47.4949        -16.0897
           12910         55.5659         49.5099         46.3921        -16.1346
           12911         59.0273         54.0121         48.9312        -16.4877
           12912         59.1166         54.5395         48.2157        -16.5844
           12913         58.3419         53.4487         47.6988        -16.5456
           12914         58.2608         52.9231         48.4171        -16.4482
           12915         61.5373         58.9709         47.9718        -16.7026
           12916         60.7691         57.5504         48.0665        -16.7002
           12917         61.0459         57.6954         48.9454        -16.5943
           12918         61.8042         59.1166         48.8451        -16.6002
           12919         63.3425         62.5007         47.1224        -16.6393
           12920         63.9675         63.5536         47.2747        -16.5566
           12921         64.0465         63.8801         46.7054        -16.5675
           12922         63.4104         62.8251         46.5526        -16.6475
           12923         66.1573         67.8326         45.7444        -16.1858
           12924         66.3361         67.9654         46.2480        -16.1820
           12925         67.0024         69.1317         46.1420        -16.0304
           12926         66.8279         68.9977         45.6356        -16.0357
           12927         68.7429         72.0097         46.7283        -15.5086
           12928         68.5795         71.7663         46.3099        -15.6166
           12929         67.8551         70.5109         46.4658        -15.8093
           12930         68.0163         70.7492         46.8849        -15.7017
           12931         70.7862         75.4606         46.4245        -14.8815
           12932         70.6229         75.2863         46.7881        -14.7530
           12933         71.5706         76.8732         46.6882        -14.4008
           12934         71.7439         77.0578         46.3374        -14.5234
           12935         74.1786         80.9877         46.2225        -13.5448
           12936         73.3686         79.7293         46.3313        -13.8270
           12937         73.4505         79.9796         46.4394        -13.6117
           12938         74.2659         81.2396         46.3304        -13.3281
           12939         77.0379         85.4165         46.2019        -12.2562
           12940         76.6655         84.9550         46.1497        -12.2623
           12941         77.2285         85.8167         46.1359        -11.9784
           12942         77.6047         86.2795         46.1910        -11.9730
           12943         79.7552         89.7601         45.7979        -10.2859
           12944         79.6192         89.6860         45.6177        -10.0982
           12945         80.2104         90.5214         45.5920        -9.79799
           12946         80.3412         90.5941         45.7712        -9.98341
           12947         82.4943         93.6009         45.8638        -8.82401
           12948         81.9737         92.8787         45.8419        -9.11954
           12949         81.6593         92.5390         45.5492        -9.03937
           12950         82.1765         93.2574         45.5711        -8.73986
           12951         82.7082         93.9842         45.5787        -8.44341
           12952         83.2205         94.6926         45.5954        -8.11515
           12953         83.5641         95.0913         45.8945        -8.13353
           12954         83.0520         94.3838         45.8792        -8.45959
           12955         85.3672         97.7103         45.0290        -6.12198
           12956         85.5946         98.0398         44.8233        -5.77309
           12957         86.1070         98.6671         45.2289        -5.66198
           12958         85.8799         98.3399         45.4338        -6.00994
           12959         85.8038         98.3441         44.5736        -5.39983
           12960         86.0095         98.6409         44.3101        -5.00031
           12961         86.5815         99.3391         44.7803        -4.87368
           12962         86.3743         99.0424         45.0452        -5.27380
           12963         86.8957         99.8174         43.7564        -3.66836
           12964         87.3842         100.417         44.2139        -3.52940
           12965         87.3346         100.333         44.5853        -3.92037
           12966         86.8460         99.7322         44.1278        -4.05866
           12967         89.6367         103.269         46.2858        -1.61169
           12968         89.4298         103.002         46.1406        -1.99010
           12969         89.1559         102.660         45.5534        -1.92160
           12970         89.3618         102.925         45.6969        -1.54390
           12971         89.1955         102.723         44.9228    -343.855E-03
           12972         89.2030         102.732         44.9854    -585.755E-03
           12973         88.9300         102.387         44.4823    -606.577E-03
           12974         88.9237         102.380         44.4239    -365.549E-03
           12975         88.6849         102.077         44.2560         1.18867
           12976         89.0235         102.504         44.7308     871.827E-03
           12977         88.6882         102.082         44.0289     538.415E-03
           12978         88.3520         101.660         43.5571     853.518E-03
           12979         88.6584         102.029         44.9967         2.35799
           12980         88.2902         101.565         44.6391         2.63930
           12981         88.4403         101.742         45.1412         2.90201
           12982         88.8073         102.207         45.5004         2.61898
           12983         87.0514         99.8814         45.6747         5.08345
           12984         87.1514         100.040         45.3546         4.74459
           12985         86.5304         99.2664         44.8504         4.97548
           12986         86.4310         99.1052         45.1661         5.31368
           12987         85.9998         98.5592         44.9417         5.52894
           12988         86.0599         98.5887         45.3722         5.80590
           12989         86.4948         99.1416         45.6096         5.59395
           12990         83.8577         95.6201         45.3582         7.49894
           12991         84.2518         96.0767         45.7591         7.53039
           12992         84.7615         96.7896         45.6678         7.09229
           12993         84.3686         96.3334         45.2651         7.06038
           12994         83.8812         95.5449         45.8448         7.86807
           12995         84.3449         96.1103         46.2581         7.80913
           12996         84.7160         96.6414         46.1736         7.47255
           12997         80.2302         90.3303         45.9815         10.2720
           12998         79.3517         89.1231         45.8742         10.6109
           12999         79.2080         88.7889         46.0748         10.9312
           13000         80.0757         89.9941         46.1838         10.5909
           13001         75.5798         83.5375         46.2088         12.3653
           13002         75.5959         83.4228         46.2252         12.5810
           13003         76.2892         84.4468         46.1492         12.3312
           13004         76.2709         84.5565         46.1345         12.1110
           13005         73.5908         80.0115         46.1860         13.8568
           13006         73.0175         79.0849         46.1227         14.1119
           13007         73.5318         79.8824         46.0288         13.9519
           13008         74.1148         80.8117         46.0924         13.6963
           13009         70.7859         75.5066         46.5638         14.7996
           13010         70.9791         75.7681         46.2602         14.8579
           13011         71.9152         77.3306         46.2813         14.4774
           13012         71.7125         77.0625         46.5791         14.4214
           13013         68.3712         71.3922         47.3072         15.4614
           13014         69.1062         72.6538         46.9566         15.3161
           13015         69.3029         73.0641         47.2795         15.0955
           13016         68.5624         71.7975         47.6365         15.2410
           13017         61.3253         59.2542         46.4604         16.7743
           13018         61.6987         60.1355         45.9464         16.7570
           13019         62.4444         61.2334         46.3673         16.7240
           13020         62.0598         60.3495         46.8796         16.7414
           13021         60.6937         58.2089         46.3940         16.7689
           13022         60.7674         58.0166         47.0407         16.7637
           13023         59.9823         56.7687         46.8000         16.7503
           13024         59.8938         56.9526         46.1516         16.7547
           13025         57.2638         51.5470         47.7665         16.3567
           13026         56.0318         49.8475         47.0983         16.1686
           13027         56.1303         50.7984         45.8210         16.3115
           13028         57.3926         52.5012         46.4965         16.4998
           13029         54.5885         46.8764         47.9996         15.5842
           13030         55.3989         47.6697         48.9076         15.6642
           13031         55.0348         46.6602         49.5212         15.3837
           13032         54.2244         45.8568         48.6064         15.3166
           13033         52.7374         44.1737         47.5242         14.9519
           13034         51.6507         42.5851         47.2633         14.5280
           13035         50.9727         42.5646         45.7071         14.6383
           13036         52.0962         44.1497         45.9654         15.0704
           13037         46.9322         36.7252         45.2585         12.4857
           13038         47.6818         37.1321         46.3339         12.4955
           13039         46.8687         36.0125         46.1867         11.9703
           13040         44.4470         32.0813         46.6416         9.43769
           13041         45.3518         32.5573         47.9922         9.23853
           13042         44.3090         31.2321         47.5629         8.38856
           13043         43.3634         30.7493         46.2071         8.57526
           13044         39.9662         26.7728         44.0043         6.38371
           13045         41.8878         28.4817         45.9982         6.77369
           13046         41.6705         27.5944         46.5120         5.62978
           13047         39.7727         25.8644         44.5179         5.24367
           13048         41.0111         25.3365         47.0235         2.59312
           13049         41.9213         25.5054         48.3160         1.25873
           13050         40.5212         23.3035         46.7896     28.5534E-03
           13051         39.4770         23.1358         45.5001         1.36566
           13052         40.3098         25.3813         45.8420         3.77308
           13053         38.5609         23.2149         44.1554         2.79153
           13054         37.8902         23.7135         42.8333         4.25708
           13055         45.3070         28.4352         52.2479    -23.7266E-03
           13056         46.4862         30.0935         53.4862        -1.17749
           13057         45.3912         29.3692         52.0573        -2.36149
           13058         47.6755         30.9615         54.9014    -22.4868E-03
           13059         48.8206         32.4421         56.0974        -1.14972
           13060         47.7118         31.5751         54.6818        -2.30338
           13061         47.1651         31.9733         53.0460        -5.30497
           13062         48.0058         32.3678         54.4261        -4.33329
           13063         49.2765         33.7190         55.5287        -5.16836
           13064         48.4895         33.3247         54.1487        -6.13999
           13065         49.6079         36.0127         52.5074        -9.96543
           13066         49.9859         35.8072         53.7149        -9.21098
           13067         51.3045         37.0958         54.8376        -9.71489
           13068         50.9484         37.3037         53.6271        -10.4689
           13069         50.4390         38.0691         51.2322        -11.8386
           13070         51.7649         39.3334         52.4541        -12.1690
           13071         51.7940         40.1038         51.3427        -12.8746
           13072         50.4606         38.8456         50.1242        -12.5427
           13073         53.1984         42.5803         51.0352        -13.9700
           13074         52.4005         42.1948         49.6566        -14.0817
           13075         51.4220         40.7308         49.5436        -13.5229
           13076         52.2491         41.1193         50.9292        -13.4110
           13077         55.1406         46.7823         49.6139        -15.3993
           13078         55.7449         47.0066         50.9203        -15.2598
           13079         56.4542         48.2602         50.9074        -15.5271
           13080         55.8691         48.0401         49.6055        -15.6616
           13081         59.9907         54.9087         50.8108        -16.2494
           13082         59.4556         54.1764         50.1953        -16.3270
           13083         59.1397         53.2103         50.9598        -16.1334
           13084         59.6790         53.9444         51.5789        -16.0582
           13085         62.0500         59.2898         49.7630        -16.4216
           13086         61.4749         58.2079         49.6849        -16.4769
           13087         61.5174         58.0237         50.4634        -16.3213
           13088         62.0755         59.1023         50.5395        -16.2588
           13089         63.8493         63.0964         48.1829        -16.4737
           13090         64.0200         63.3424         48.5003        -16.3926
           13091         64.3857         64.0861         48.1896        -16.3762
           13092         64.2170         63.8402         47.8765        -16.4573
           13093         66.7677         68.5349         48.2975        -15.6877
           13094         66.1790         67.4226         48.5957        -15.7984
           13095         66.1554         67.4365         49.1142        -15.5858
           13096         66.7386         68.5479         48.8157        -15.4755
           13097         68.5913         71.9684         47.9744        -15.0157
           13098         67.9813         70.8613         48.2464        -15.1792
           13099         67.8545         70.7875         48.6810        -14.9391
           13100         68.4587         71.8909         48.4122        -14.7756
           13101         70.8824         75.9728         47.2421        -14.2564
           13102         71.1691         76.6772         47.3905        -13.8271
           13103         71.9280         77.8183         47.0475        -13.7312
           13104         71.6229         77.1077         46.8986        -14.1539
           13105         72.6098         78.6731         46.6426        -13.8649
           13106         72.7209         79.0310         46.7633        -13.5571
           13107         73.5684         80.3349         46.5585        -13.3065
           13108         75.2922         83.5139         46.2250        -11.8042
           13109         74.5317         82.4387         46.4404        -11.9806
           13110         74.5322         82.6862         46.4014        -11.5717
           13111         75.2985         83.7598         46.1857        -11.3951
           13112         76.8090         85.6702         45.9278        -11.3362
           13113         76.0757         84.6340         46.0697        -11.5650
           13114         76.0171         84.7397         46.0022        -11.2516
           13115         76.7556         85.7762         45.8621        -11.0214
           13116         77.9833         87.6503         45.5211        -10.2726
           13117         78.6566         88.5987         45.4152        -9.97201
           13118         78.8148         88.6791         45.5317        -10.2038
           13119         78.1462         87.7324         45.6383        -10.5034
           13120         84.5867         96.8690         43.8705        -5.66829
           13121         84.7893         97.1660         43.5940        -5.27294
           13122         85.4205         97.9254         43.9198        -5.13792
           13123         85.2146         97.6276         44.1966        -5.53322
           13124         87.0420         100.025         43.1194        -2.88578
           13125         87.4532         100.529         43.5324        -2.77585
           13126         87.3972         100.450         43.8472        -3.16183
           13127         86.9862         99.9449         43.4331        -3.27081
           13128         87.7071         100.853         42.9640        -1.66081
           13129         88.0213         101.244         43.4536        -1.69111
           13130         87.8821         101.070         43.4960        -2.03234
           13131         87.5691         100.681         43.0079        -2.00135
           13132         88.4079         101.729         43.5008    -232.558E-03
           13133         88.0858         101.322         42.9552    -205.611E-03
           13134         88.1603         101.416         43.0862     256.873E-03
           13135         88.4807         101.821         43.6320     229.572E-03
           13136         88.0570         101.289         43.2357         1.24113
           13137         87.6976         100.841         42.8871         1.56803
           13138         87.8994         101.092         43.3539         1.81868
           13139         88.2560         101.538         43.7040         1.49164
           13140         88.0421         101.268         43.7800         2.08779
           13141         88.1662         101.417         44.2102         2.37868
           13142         88.5360         101.883         44.5912         2.09542
           13143         88.4196         101.740         44.1591         1.80347
           13144         85.5661         98.2068         42.8513         4.04328
           13145         85.7676         98.4652         42.6431         3.70165
           13146         85.4364         98.0750         42.3908         3.70447
           13147         85.2348         97.8161         42.5992         4.04852
           13148         85.8221         98.5090         43.0728         4.04948
           13149         86.0257         98.7404         43.4017         4.18545
           13150         86.2909         99.0762         43.3461         3.90353
           13151         86.0874         98.8427         43.0061         3.76268
           13152         85.3228         97.8125         43.8379         5.12608
           13153         85.0078         97.3758         44.0834         5.58544
           13154         85.6731         98.1730         44.5857         5.51283
           13155         85.9877         98.6085         44.3385         5.04962
           13156         82.0339         93.3842         44.6770         7.85383
           13157         81.4723         92.7105         44.5459         7.91709
           13158         81.2148         92.2804         44.7777         8.31135
           13159         81.7732         92.9543         44.9100         8.24676
           13160         78.0305         87.9244         45.3179         9.81314
           13161         78.4884         88.3433         45.4729         10.0885
           13162         79.2441         89.4225         45.3034         9.69533
           13163         78.7879         89.0019         45.1427         9.41829
           13164         73.0489         79.6242         46.7457         13.3299
           13165         73.8961         80.9853         46.5280         12.9775
           13166         73.7141         80.9471         46.6678         12.6633
           13167         72.8614         79.5842         46.8903         13.0149
           13168         71.2019         76.7592         47.3819         13.7803
           13169         71.3358         76.7634         47.1676         14.0493
           13170         72.2271         78.2640         46.9108         13.6907
           13171         72.0961         78.2576         47.1218         13.4260
           13172         69.6686         73.9204         47.6982         14.6086
           13173         69.1640         73.1185         48.0281         14.6333
           13174         68.8725         72.4731         47.8848         14.9273
           13175         69.3642         73.2701         47.5502         14.8981
           13176         66.3869         67.7938         48.0214         15.9240
           13177         66.9964         68.9434         47.9917         15.7145
           13178         66.8191         68.6470         48.4971         15.5948
           13179         66.2169         67.5056         48.5286         15.7966
           13180         64.9338         65.2651         47.2852         16.4017
           13181         65.4202         66.1237         47.3351         16.2974
           13182         65.2464         65.7327         47.7567         16.2765
           13183         64.7704         64.8813         47.7015         16.3822
           13184         62.1603         59.3451         50.3282         16.2876
           13185         62.4697         60.1999         49.3665         16.4645
           13186         63.1777         61.4809         49.7784         16.2691
           13187         62.8569         60.6298         50.7367         16.0931
           13188         61.3364         57.5813         50.7029         16.2819
           13189         61.5134         58.2111         49.8892         16.4371
           13190         61.9733         58.7220         51.1277         16.1317
           13191         60.2314         55.1390         51.3429         16.1494
           13192         60.8327         56.3049         51.4516         16.1253
           13193         60.8683         55.9898         52.4140         15.8905
           13194         60.2827         54.8315         52.3083         15.9112
           13195         58.1737         51.8128         50.1814         16.1398
           13196         57.5662         50.4684         50.5786         15.9294
           13197         56.8261         49.9291         49.2317         16.0274
           13198         57.4633         51.2839         48.8484         16.2374
           13199         54.5331         45.5165         49.9836         15.0424
           13200         54.1490         44.6381         50.3438         14.7457
           13201         53.0871         43.6538         49.1128         14.6570
           13202         53.4521         44.5100         48.7505         14.9360
           13203         51.5396         39.9225         51.0184         12.8637
           13204         50.5627         39.1990         49.8192         12.7923
           13205         50.9837         40.2805         49.1830         13.4035
           13206         51.9436         40.9817         50.3756         13.4835
           13207         48.9411         36.9951         49.4003         11.7441
           13208         49.7246         37.5020         50.4497         11.7321
           13209         49.2462         36.6891         50.5756         11.2068
           13210         48.4531         36.1820         49.5252         11.2211
           13211         47.6424         34.0586         50.9321         9.13619
           13212         48.3509         34.3606         52.1548         8.73883
           13213         47.4382         33.2441         51.7267         7.94077
           13214         46.6966         32.9375         50.5020         8.33967
           13215         46.5443         31.1393         52.6981         4.49476
           13216         45.7600         30.8200         51.4003         5.36250
           13217         47.3248         32.4844         52.6305         6.43158
           13218         48.0454         32.8025         53.9298         5.56658
           13219         45.8052         29.7824         52.5160         2.39796
           13220         46.6931         30.3092         53.7148         1.20656
           13221         45.3082         28.4433         52.2488     25.5232E-03
           13222         44.3260         27.9183         51.0504         1.21857
           13223         44.2870         29.1887         50.1163         4.49225
           13224         44.9854         29.4079         51.3037         3.44145
           13225         43.4361         27.5438         49.8236         2.44741
           13226         42.6562         27.3239         48.6316         3.49917
           13227         50.0170         33.4345         57.5009    -21.3268E-03
           13228         51.1271         34.7454         58.6609        -1.12946
           13229         50.0033         33.7535         57.2572        -2.25620
           13230         52.3236         35.8380         60.0436    -21.6604E-03
           13231         53.3984         36.9846         61.1728        -1.13546
           13232         52.2700         35.8923         59.7897        -2.24160
           13233         50.9232         35.7525         56.1337        -7.54675
           13234         49.7667         34.6278         55.2134        -6.85650
           13235         50.4837         34.9118         56.5289        -5.99388
           13236         51.6034         36.0428         57.4512        -6.68059
           13237         51.5986         36.8769         55.8921        -8.93894
           13238         52.9634         38.1726         57.1489        -9.37186
           13239         52.6802         38.3710         56.0981        -10.1394
           13240         53.8262         41.2584         54.5343        -12.5301
           13241         53.9887         40.9847         55.3149        -12.1431
           13242         54.9828         42.1041         56.1564        -12.3993
           13243         54.8198         42.3469         55.3832        -12.7796
           13244         57.0817         45.8732         56.2839        -13.7600
           13245         56.6014         44.8153         56.4441        -13.4032
           13246         57.3444         45.0685         58.0042        -12.9985
           13247         57.7990         46.1112         57.8523        -13.3570
           13248         56.6732         46.5151         54.2551        -14.4714
           13249         57.1882         47.3673         54.4773        -14.6002
           13250         56.9053         47.4771         53.4717        -14.8728
           13251         56.3878         46.6324         53.2807        -14.7283
           13252         58.9515         51.0227         54.3068        -15.2054
           13253         58.8938         51.5315         53.2151        -15.5284
           13254         58.1374         50.3025         52.7253        -15.5121
           13255         58.2120         49.8066         53.8152        -15.1901
           13256         61.0090         55.5959         54.2415        -15.3260
           13257         61.4053         56.4190         54.5274        -15.1730
           13258         61.5351         56.9818         53.8062        -15.3895
           13259         61.1336         56.1565         53.5234        -15.5425
           13260         62.4148         59.2512         53.0041        -15.4491
           13261         62.7131         60.0652         52.3034        -15.6106
           13262         62.2977         59.2389         51.7662        -15.9016
           13263         61.9973         58.4184         52.4682        -15.7390
           13264         64.9281         65.1020         50.8591        -15.2945
           13265         65.4133         66.1292         50.5591        -15.1991
           13266         65.5393         66.2949         49.9755        -15.4484
           13267         65.0457         65.2686         50.2756        -15.5429
           13268         67.6544         70.8979         49.5626        -14.2365
           13269         66.9568         69.5154         50.0313        -14.4412
           13270         66.7213         69.3588         50.5620        -14.0414
           13271         67.4075         70.7369         50.0916        -13.8351
           13272         69.2064         73.8103         48.6930        -13.7186
           13273         69.4423         74.4875         48.7252        -13.2805
           13274         70.1030         75.4476         48.2463        -13.3472
           13275         69.8544         74.7638         48.2128        -13.7853
           13276         72.1666         78.9749         47.3034        -12.5055
           13277         72.9123         80.1049         47.0040        -12.3192
           13278         72.9301         79.8356         46.9232        -12.7728
           13279         72.1925         78.7056         47.2183        -12.9610
           13280         72.9633         80.4728         46.9902        -11.8480
           13281         73.7954         81.6568         46.6662        -11.7019
           13282         73.7363         81.2914         46.6804        -12.1710
           13283         74.7539         83.5341         46.1813        -10.5703
           13284         75.4610         84.4669         45.9600        -10.4800
           13285         75.3067         83.9922         46.1064        -11.0028
           13286         74.6054         83.0561         46.3295        -11.0932
           13287         80.7190         92.0856         43.7966        -7.08742
           13288         80.2256         91.3792         44.0933        -7.54950
           13289         79.5006         90.5687         44.0167        -7.45466
           13290         79.9911         91.2742         43.7208        -6.99215
           13291         82.4012         94.2709         43.2647        -6.04769
           13292         83.1885         95.1982         43.4100        -5.93698
           13293         82.8545         94.7010         43.7777        -6.47832
           13294         82.0711         93.7711         43.6317        -6.59078
           13295         82.7205         94.8249         42.3638        -4.94576
           13296         82.2127         94.2249         42.4207        -5.10448
           13297         82.1230         94.1894         41.9890        -4.63303
           13298         82.6346         94.7865         41.9291        -4.48203
           13299         85.0395         97.6030         42.2066        -3.80623
           13300         84.8593         97.3688         42.4765        -4.16511
           13301         84.3690         96.7947         42.2476        -4.21932
           13302         84.5481         97.0290         41.9764        -3.85863
           13303         86.7435         99.6671         42.4650        -2.58102
           13304         86.4007         99.2507         42.2021        -2.70482
           13305         86.4090         99.2609         41.8333        -2.32195
           13306         86.7442         99.6670         42.0880        -2.19311
           13307         87.2525         100.288         42.3170        -1.68156
           13308         87.2071         100.236         42.5782        -2.06657
           13309         86.7953         99.7265         41.8275        -1.80841
           13310         87.0518         100.029         41.6150        -1.02081
           13311         87.3345         100.381         41.9948    -975.388E-03
           13312         87.2434         100.274         42.0815        -1.33869
           13313         86.9618         99.9225         41.7003        -1.38321
           13314         86.7508         99.6535         41.2311         1.11160
           13315         86.8415         99.7615         41.2317     889.282E-03
           13316         86.6305         99.4947         40.8979     844.689E-03
           13317         86.5386         99.3862         40.9011         1.06724
           13318         86.2698         99.0912         41.6108         2.25316
           13319         86.5730         99.4584         41.8058         2.09220
           13320         86.5114         99.3772         41.4856         1.83211
           13321         86.2072         99.0102         41.2892         1.99241
           13322         86.0753         98.8494         42.4959         3.29408
           13323         86.2277         99.0391         42.2519         2.93450
           13324         85.7085         98.4207         41.8294         2.97252
           13325         85.5531         98.2273         42.0720         3.33080
           13326         84.2554         96.6950         41.7549         3.78883
           13327         83.9041         96.2691         41.9111         4.09722
           13328         84.1734         96.5601         42.2749         4.32835
           13329         84.5231         96.9882         42.1205         4.02106
           13330         83.6187         95.7917         43.0573         5.37428
           13331         84.0625         96.3359         43.0483         5.15877
           13332         83.9265         96.2165         42.7122         4.87607
           13333         83.4775         95.6701         42.7213         5.09153
           13334         80.3614         91.6626         43.8005         7.12519
           13335         80.4268         91.6420         44.0354         7.45191
           13336         80.9071         92.2470         43.9719         7.28475
           13337         80.8510         92.2741         43.7282         6.95708
           13338         79.1648         90.0270         44.3046         7.91449
           13339         78.6302         89.4829         44.2301         7.68229
           13340         78.0087         88.5724         44.5631         8.19512
           13341         78.5425         89.1136         44.6353         8.42604
           13342         78.2589         88.6362         44.8446         8.79202
           13343         77.6165         87.7889         44.9999         8.99895
           13344         77.7643         87.7727         45.1961         9.44349
           13345         78.3985         88.6197         45.0385         9.23228
           13346         75.2541         84.4600         45.8994         9.99331
           13347         74.5573         83.3616         46.2109         10.4308
           13348         74.9230         83.6892         46.1529         10.6767
           13349         75.6190         84.7886         45.8456         10.2387
           13350         71.8728         79.2069         47.5079         11.5170
           13351         71.8458         78.8513         47.5287         12.0140
           13352         72.8561         80.2941         47.0331         11.9058
           13353         72.8951         80.6523         47.0136         11.4072
           13354         71.2139         77.2873         47.6843         13.0345
           13355         71.1379         77.4320         47.8295         12.6591
           13356         70.4527         76.3190         48.1853         12.8404
           13357         70.5337         76.1740         48.0363         13.2181
           13358         69.3618         74.1391         48.6477         13.5961
           13359         69.1239         73.5546         48.6459         13.8990
           13360         69.7226         74.4356         48.1912         13.9682
           13361         69.9706         75.0265         48.1972         13.6626
           13362         66.0967         67.9091         50.8407         14.4326
           13363         66.6265         68.8150         50.1730         14.5934
           13364         67.0004         69.7874         50.2129         14.1618
           13365         66.4568         68.8790         50.8797         13.9998
           13366         64.6987         64.5736         50.7560         15.4649
           13367         64.8675         64.8718         50.1527         15.6806
           13368         65.4051         66.0253         50.0535         15.4697
           13369         65.2300         65.7292         50.6585         15.2544
           13370         63.5545         62.0971         50.7796         15.8936
           13371         63.4227         61.7151         51.6742         15.6263
           13372         62.7413         60.2467         51.6351         15.8269
           13373         62.8132         60.2144         52.7093         15.4414
           13374         62.2136         58.7889         52.9951         15.5074
           13375         62.1171         58.8133         51.9132         15.8927
           13376         60.5078         54.2970         54.5469         15.2687
           13377         60.0342         53.4495         54.1220         15.3933
           13378         60.2009         54.2550         53.1924         15.6744
           13379         60.6770         55.1018         53.6146         15.5481
           13380         57.9683         49.4883         53.5440         15.2104
           13381         57.9928         50.1596         52.5044         15.5357
           13382         58.8163         51.3930         53.1777         15.5264
           13383         58.7823         50.7213         54.2211         15.1981
           13384         56.3555         46.0873         54.0008         14.4287
           13385         55.8424         44.9417         54.3008         14.0287
           13386         55.0217         44.3790         52.9735         14.1729
           13387         55.5501         45.5204         52.6740         14.5705
           13388         55.4631         43.0484         55.9897         12.8894
           13389         56.0991         44.2489         55.9296         13.3648
           13390         56.8978         44.6301         57.4322         13.0418
           13391         56.2940         43.4324         57.5026         12.5641
           13392         53.8100         39.9934         56.3334         11.1886
           13393         52.9838         39.4796         55.1433         11.3270
           13394         53.5164         40.4394         54.9789         11.9624
           13395         54.3273         40.9588         56.1697         11.8243
           13396         52.3918         38.4789         55.2395         10.6212
           13397         53.3877         39.1746         56.5536         10.5317
           13398         52.7978         38.1692         56.7047         9.65520
           13399         51.7795         37.4799         55.3831         9.74403
           13400         50.8634         35.5333         56.4135         6.98926
           13401         49.5304         34.2717         55.1812         6.45234
           13402         49.2231         34.2803         54.3948         7.15664
           13403         50.5644         35.5536         55.6070         7.69392
           13404         50.4541         34.2006         57.7389         2.37022
           13405         51.3537         34.9737         58.9063         1.19200
           13406         50.0185         33.4414         57.5018     26.3504E-03
           13407         49.0392         32.6699         56.3349         1.20538
           13408         51.0494         35.0501         57.8285         4.48302
           13409         50.2264         34.5794         56.5149         5.39367
           13410         51.7138         36.0278         57.7345         6.40540
           13411         52.4791         36.4817         59.0486         5.49525
           13412         54.5880         38.1567         62.5283    -20.9502E-03
           13413         55.6286         39.1359         63.6350        -1.14390
           13414         54.5073         37.9633         62.2815        -2.25522
           13415         54.4712         37.9507         61.7871        -4.24533
           13416         55.3564         38.7968         62.4700        -5.17275
           13417         54.2983         38.0008         60.9305        -5.97549
           13418         53.3716         37.1510         60.2514        -5.04977
           13419         54.1314         38.2171         59.9661        -7.42648
           13420         53.3681         37.4370         59.5306        -6.61775
           13421         55.0236         38.7830         61.3624        -6.78118
           13422         55.9723         40.0421         61.4531        -8.44108
           13423         56.8790         40.5206         62.8486        -7.95874
           13424         57.2797         41.1657         62.8126        -8.69199
           13425         56.3990         40.6899         61.4162        -9.16974
           13426         57.4031         42.2410         61.6094        -10.2882
           13427         57.8633         43.0776         61.6416        -10.7730
           13428         57.1151         42.7804         60.2780        -11.2138
           13429         56.6332         41.9431         60.2455        -10.7309
           13430         56.9958         44.1516         58.2980        -12.5758
           13431         57.7693         44.4625         59.7868        -12.1681
           13432         58.0895         45.3819         59.4935        -12.5875
           13433         58.9851         48.2533         58.4369        -13.6108
           13434         59.3258         49.3108         58.1048        -13.8687
           13435         58.8305         49.2259         56.6876        -14.3160
           13436         58.4585         48.1634         57.0138        -14.0605
           13437         60.0537         51.3831         57.7113        -14.1540
           13438         59.7912         51.5103         56.5725        -14.5522
           13439         59.3759         50.4484         56.6908        -14.4519
           13440         59.6567         50.3229         57.8290        -14.0529
           13441         61.8738         57.1963         55.8135        -14.5388
           13442         61.6766         56.7768         55.4863        -14.7423
           13443         61.4797         56.0114         56.1336        -14.5558
           13444         61.6858         56.4536         56.4708        -14.3429
           13445         64.2368         63.8650         53.0008        -14.4157
           13446         64.4999         64.3770         52.2417        -14.7174
           13447         64.0375         63.2057         52.4513        -14.9436
           13448         63.7881         62.6894         53.2115        -14.6435
           13449         67.5387         71.3983         50.2744        -13.2383
           13450         67.4735         71.5656         50.4785        -12.8515
           13451         68.1027         72.6772         49.9405        -12.7996
           13452         68.1666         72.5139         49.7441        -13.1794
           13453         68.1156         73.3590         50.1033        -11.8796
           13454         68.5341         74.3194         49.7941        -11.4712
           13455         69.1473         75.0029         49.2358        -11.8965
           13456         68.7169         74.0415         49.5453        -12.2955
           13457         70.1901         77.1147         48.5091        -11.0696
           13458         69.5943         76.0056         48.9529        -11.4137
           13459         69.3515         75.9301         49.1163        -10.9732
           13460         69.9552         77.0437         48.6643        -10.6312
           13461         74.4888         83.6304         46.0787        -9.74439
           13462         73.9497         82.9608         46.2889        -9.72223
           13463         74.0497         83.3045         46.1272        -9.28433
           13464         74.5936         83.9745         45.9175        -9.30897
           13465         74.6634         84.4948         45.5804        -8.34623
           13466         75.2475         85.1346         45.4182        -8.52723
           13467         74.9079         84.5240         45.6984        -8.96563
           13468         74.3224         83.8798         45.8621        -8.78572
           13469         79.2729         90.4869         43.6603        -6.85004
           13470         79.7255         91.1291         43.3430        -6.39898
           13471         80.4453         91.9170         43.4021        -6.54111
           13472         80.0612         91.7276         42.6477        -5.44638
           13473         80.4122         92.1929         42.3557        -5.08185
           13474         80.9263         92.7534         42.4098        -5.19403
           13475         80.5745         92.2876         42.7005        -5.55685
           13476         81.6223         93.5928         42.1543        -4.86286
           13477         81.4578         93.3562         42.4072        -5.18311
           13478         81.0976         93.0002         42.1557        -4.87082
           13479         84.2392         96.7032         40.9449        -3.04156
           13480         83.8691         96.2789         40.6674        -2.94265
           13481         84.1900         96.6454         40.4302        -2.60856
           13482         84.5582         97.0693         40.7075        -2.70746
           13483         84.9088         97.4795         41.0070        -2.77028
           13484         84.8533         97.4075         40.5209        -2.37860
           13485         85.2033         97.8182         40.8207        -2.44171
           13486         85.8673         98.5484         40.0227        -1.11875
           13487         85.7894         98.4759         40.2616        -1.42887
           13488         85.5116         98.1335         39.9331        -1.43457
           13489         85.5897         98.2058         39.6941        -1.12419
           13490         86.3809         99.1764         40.4765    -745.164E-03
           13491         86.1366         98.8667         40.1227    -785.002E-03
           13492         86.1327         98.8501         39.9583    -492.931E-03
           13493         86.3763         99.1589         40.3122    -453.555E-03
           13494         86.0979         98.7937         39.7751    -210.114E-03
           13495         86.0325         98.7081         39.6529     79.4097E-03
           13496         86.2774         99.0254         40.0683     137.474E-03
           13497         86.3436         99.1123         40.1909    -152.353E-03
           13498         85.8343         98.5410         40.5079         1.63185
           13499         85.5556         98.2117         40.3751         1.76895
           13500         85.5953         98.2717         40.6996         2.03165
           13501         85.8723         98.6007         40.8320         1.89436
           13502         84.5188         97.0263         40.8128         2.80232
           13503         84.1682         96.6199         40.9421         3.08003
           13504         84.4029         96.8868         41.2891         3.28474
           13505         84.7524         97.2953         41.1605         3.00782
           13506         84.6211         97.1315         41.6156         3.48936
           13507         84.0337         96.4501         41.4261         3.58066
           13508         82.1959         94.1854         42.5347         5.23519
           13509         81.7331         93.5901         42.7826         5.62346
           13510         82.0698         93.9215         43.0706         5.89864
           13511         82.5300         94.5199         42.8228         5.50760
           13512         79.9646         91.3004         43.5955         6.78952
           13513         80.6784         92.2144         43.3148         6.41833
           13514         80.3096         91.8836         43.0631         6.03872
           13515         79.5913         90.9730         43.3479         6.40652
           13516         78.1124         88.9594         44.1598         7.44092
           13517         77.6472         88.5171         44.1065         7.13237
           13518         77.0088         87.6450         44.4327         7.49991
           13519         77.4746         88.0849         44.4847         7.80840
           13520         75.9353         86.4278         44.6948         7.34056
           13521         76.2195         86.6352         44.7774         7.70377
           13522         76.7291         87.4375         44.3475         7.14061
           13523         74.1960         83.1420         46.2575         9.97749
           13524         73.4628         82.0459         46.6050         10.2790
           13525         73.8267         82.2615         46.5553         10.7352
           13526         70.3336         77.2420         48.4284         11.1936
           13527         69.9318         76.3877         48.6860         11.6055
           13528         70.6726         77.3035         48.2065         11.8526
           13529         71.0811         78.1543         47.9503         11.4415
           13530         68.6389         73.0370         49.2200         13.5298
           13531         69.1500         73.9901         48.8989         13.3431
           13532         68.8620         73.8107         49.2748         12.9480
           13533         68.3578         72.8620         49.5977         13.1375
           13534         65.9938         68.1385         51.5209         13.7657
           13535         66.7652         69.7385         50.8172         13.6096
           13536         66.2953         69.0009         51.4568         13.3754
           13537         65.2029         66.8962         52.8833         13.1322
           13538         65.5881         67.5038         52.2191         13.4559
           13539         65.8625         68.3398         52.0749         13.0962
           13540         65.4700         67.7322         52.7388         12.7725
           13541         63.5254         62.1360         54.3607         14.1098
           13542         63.4764         62.0772         54.8748         13.7950
           13543         63.1985         61.2343         55.2112         13.8679
           13544         63.2348         61.2764         54.6950         14.1870
           13545         62.0413         57.7453         55.5021         14.5957
           13546         62.3896         58.8614         54.8868         14.6737
           13547         62.5601         59.2043         55.6613         14.2106
           13548         62.2215         58.0886         56.2781         14.1317
           13549         60.8542         53.9322         56.9501         14.4069
           13550         60.6732         52.9863         57.7490         14.1262
           13551         60.2872         52.3353         57.1707         14.3657
           13552         60.4716         53.2810         56.3705         14.6492
           13553         60.3430         51.1559         59.0691         13.6250
           13554         59.9477         50.6259         58.3842         13.8779
           13555         60.1273         51.5409         57.7705         14.1296
           13556         60.5155         52.0690         58.4546         13.8765
           13557         59.5671         48.6972         59.5725         13.2784
           13558         59.6787         49.6109         58.8349         13.6335
           13559         60.2396         50.2779         59.7705         13.3362
           13560         60.1389         49.3675         60.5029         12.9847
           13561         56.8567         43.6018         58.6673         12.2163
           13562         57.5465         44.3219         59.4253         12.2426
           13563         57.8287         43.9704         60.5113         11.6883
           13564         57.1369         43.2407         59.7590         11.6582
           13565         56.7444         41.2745         61.3980         9.67470
           13566         57.6554         42.0065         62.4770         9.67238
           13567         57.6013         41.5409         63.0082         8.93762
           13568         56.6785         40.8043         61.9258         8.93481
           13569         54.7264         39.0351         60.0479         8.35602
           13570         55.5627         39.7655         60.8851         8.56448
           13571         55.6332         39.5663         61.4338         7.87734
           13572         54.8020         38.8266         60.5982         7.66886
           13573         53.7620         37.6454         60.1493         6.31350
           13574         54.4644         38.0633         61.4260         5.24324
           13575         53.2272         36.9127         60.3213         4.41803
           13576         54.9316         38.3569         62.7512         2.26933
           13577         55.8342         39.3255         63.8648         1.12067
           13578         54.5878         38.1637         62.5269     26.8588E-03
           13579         53.6193         37.1954         61.4145         1.17350
           13580         54.0348         37.5896         61.5316         3.34608
           13581         55.4448         38.7709         62.8537         4.36845
           13582         56.2799         39.5398         64.0704         3.28380
           13583         58.9557         42.4924         67.3068    -22.0605E-03
           13584         59.8927         43.1223         68.3542    -982.088E-03
           13585         58.7715         41.7846         67.0602        -2.09289
           13586         57.7776         41.1527         66.0105        -1.13085
           13587         58.8531         41.5533         66.8092        -4.06953
           13588         60.1726         42.5732         68.2724        -4.23160
           13589         59.7624         42.1993         67.5025        -5.25160
           13590         58.4403         41.1852         66.0381        -5.09292
           13591         60.7058         42.8950         68.5928        -5.24482
           13592         60.5112         42.7994         68.0730        -6.03790
           13593         59.5743         42.1100         66.9793        -6.05833
           13594         58.1531         41.6222         64.1543        -8.24302
           13595         57.8401         41.1441         64.2466        -7.49178
           13596         58.7725         41.7052         65.5488        -7.11704
           13597         59.0688         42.1928         65.4608        -7.86881
           13598         60.0009         44.6103         64.6970        -10.1731
           13599         60.0821         44.0816         65.3781        -9.56300
           13600         61.0567         44.6945         66.8175        -9.16733
           13601         60.9477         45.2220         66.1323        -9.77660
           13602         59.4705         45.8848         62.2881        -11.6846
           13603         60.1451         46.1522         63.6009        -11.2199
           13604         60.2642         46.9848         63.1273        -11.6214
           13605         59.6141         46.7144         61.8143        -12.0860
           13606         60.6240         49.5777         61.6955        -12.5127
           13607         60.4983         48.6902         62.1719        -12.2628
           13608         61.0016         48.8978         63.3328        -11.7755
           13609         61.1067         49.7841         62.8574        -12.0252
           13610         61.3034         53.2801         60.0137        -13.1050
           13611         61.1424         52.3684         60.4535        -13.0021
           13612         61.4092         52.4917         61.3365        -12.5593
           13613         61.5584         53.4021         60.8984        -12.6641
           13614         62.0198         55.6723         60.3482        -12.4481
           13615         62.0703         56.3781         59.5257        -12.7393
           13616         61.8607         55.7773         59.1466        -13.1195
           13617         61.8088         55.0783         59.9629        -12.8298
           13618         63.0014         60.6506         55.8949        -13.6198
           13619         62.7233         59.6776         56.1519        -13.7934
           13620         62.6364         59.3427         57.0481        -13.3249
           13621         62.9030         60.3163         56.7930        -13.1508
           13622         63.5874         62.6150         55.2394        -13.2933
           13623         63.8948         63.5599         54.8647        -13.1624
           13624         64.0436         63.7586         54.1664        -13.6137
           13625         63.7279         62.8126         54.5441        -13.7455
           13626         64.9283         66.4775         53.4544        -12.8136
           13627         64.9799         66.3277         53.1628        -13.2024
           13628         64.5300         65.3425         53.9062        -13.0507
           13629         64.4867         65.5012         54.2046        -12.6551
           13630         67.3156         72.7650         50.9254        -10.7833
           13631         66.9363         71.8504         51.3350        -11.1229
           13632         66.6276         71.5829         51.6705        -10.7085
           13633         67.0108         72.5052         51.2529        -10.3713
           13634         69.0327         76.0989         49.2825        -9.93377
           13635         69.4991         76.9404         48.8908        -9.68963
           13636         69.7280         76.9944         48.7703        -10.1711
           13637         69.2649         76.1511         49.1657        -10.4146
           13638         70.7687         79.3371         47.7530        -8.60370
           13639         70.8531         79.2202         47.7935        -9.06111
           13640         70.3075         78.4048         48.1919        -9.16238
           13641         70.2158         78.5180         48.1513        -8.70603
           13642         72.0417         81.8105         46.3907        -6.83636
           13643         72.6470         82.5288         46.0762        -6.98057
           13644         72.4577         82.1067         46.3476        -7.43774
           13645         71.8576         81.3909         46.6610        -7.29300
           13646         72.9437         83.0885         45.7201        -6.46979
           13647         73.5572         83.7740         45.4671        -6.69026
           13648         73.2596         83.2154         45.8241        -7.20160
           13649         77.2525         88.3729         43.6357        -6.06395
           13650         77.9149         89.0705         43.5836        -6.31566
           13651         77.4730         88.3941         44.0108        -6.87727
           13652         76.8094         87.6960         44.0629        -6.62569
           13653         79.7654         91.5285         42.1642        -4.70653
           13654         79.7091         91.5115         41.9491        -4.40780
           13655         80.3041         92.1912         41.7829        -4.31034
           13656         80.3588         92.2096         41.9982        -4.60860
           13657         80.9668         93.0190         40.9703        -3.44165
           13658         81.5151         93.6179         41.0034        -3.54881
           13659         81.2649         93.3113         41.3274        -3.88750
           13660         80.7147         92.7099         41.2937        -3.78189
           13661         81.8552         94.0183         40.6441        -3.17139
           13662         82.3250         94.5308         40.8099        -3.35069
           13663         81.9854         94.1285         41.1703        -3.72960
           13664         83.8646         96.2688         40.1352        -2.48470
           13665         84.2046         96.6472         39.9196        -2.18124
           13666         84.5289         97.0247         40.2146        -2.30501
           13667         85.0042         97.4557         38.7376    -950.211E-03
           13668         85.0902         97.5881         39.1020        -1.12877
           13669         84.8026         97.2647         39.0928        -1.31069
           13670         84.7160         97.1332         38.7269        -1.12975
           13671         85.3161         97.7926         38.6339    -566.211E-03
           13672         85.1452         97.5753         38.4033    -624.613E-03
           13673         85.1368         97.5345         38.1414    -459.998E-03
           13674         85.3061         97.7502         38.3721    -401.183E-03
           13675         85.7091         98.3319         39.5780     863.694E-03
           13676         85.7382         98.3847         39.8210         1.08902
           13677         86.0709         98.7944         40.1579     930.300E-03
           13678         86.0344         98.7324         39.9135     704.913E-03
           13679         84.5882         96.9899         38.7126         1.18079
           13680         84.6708         97.1189         39.1128         1.39520
           13681         84.9895         97.4790         39.1480         1.23920
           13682         84.9063         97.3476         38.7477         1.02427
           13683         84.1240         96.5624         40.0958         2.35383
           13684         83.7634         96.1570         40.2559         2.61255
           13685         83.9541         96.3777         40.6115         2.85104
           13686         84.3117         96.7834         40.4526         2.59331
           13687         82.1058         94.3069         40.3058         2.83557
           13688         81.5484         93.6827         40.5675         3.07934
           13689         81.7385         93.8773         40.8654         3.39541
           13690         82.2903         94.5007         40.6048         3.14863
           13691         80.3354         92.2862         41.3634         3.80252
           13692         80.7483         92.7177         41.5256         4.06167
           13693         81.2486         93.3093         41.1578         3.70391
           13694         80.8426         92.8816         40.9935         3.44459
           13695         78.7316         90.2524         42.7801         5.29265
           13696         78.2122         89.5978         43.0762         5.57862
           13697         78.5894         89.9530         43.1934         5.90066
           13698         79.1057         90.6085         42.8982         5.61272
           13699         76.9401         88.2214         43.2788         5.22283
           13700         76.4635         87.5929         43.6251         5.54533
           13701         76.8547         87.9593         43.6721         5.88560
           13702         77.3280         88.5877         43.3271         5.56312
           13703         73.6521         83.5494         45.7712         7.60004
           13704         74.1461         84.3230         45.3596         7.17961
           13705         73.5412         83.7433         45.4960         6.71962
           13706         73.0448         82.9702         45.9063         7.14023
           13707         71.0653         80.1398         47.3140         7.76761
           13708         71.6567         80.9036         46.9509         7.81899
           13709         71.6675         81.0991         46.8139         7.39788
           13710         71.0872         80.3549         47.1808         7.34051
           13711         69.1227         77.3677         48.8019         7.87920
           13712         68.5868         76.7237         49.2002         7.56709
           13713         68.3601         76.0327         49.5609         8.24811
           13714         68.8983         76.6838         49.1624         8.55535
           13715         69.3275         76.4714         49.0656         10.0517
           13716         68.9780         76.1493         49.3146         9.70539
           13717         68.4391         75.1806         49.7856         9.93480
           13718         68.7934         75.5153         49.5344         10.2782
           13719         66.3980         70.8720         51.9552         11.0858
           13720         66.6150         71.7237         51.6766         10.4760
           13721         66.0481         70.9142         52.3879         10.0679
           13722         65.8365         70.0613         52.6662         10.6771
           13723         65.9439         69.3064         52.3887         11.9933
           13724         66.1478         70.0580         52.1977         11.5423
           13725         65.7019         69.3882         52.8352         11.2042
           13726         65.5025         68.6353         53.0264         11.6542
           13727         64.9412         67.3020         53.8441         11.7250
           13728         64.6166         66.7535         54.4883         11.3665
           13729         64.4276         66.0121         54.7164         11.7102
           13730         64.7461         66.5634         54.0715         12.0669
           13731         62.5803         59.0268         57.8098         12.9421
           13732         62.7231         59.6439         56.9395         13.3014
           13733         62.8755         60.2703         57.0865         12.9431
           13734         62.7318         59.6507         57.9656         12.5798
           13735         62.4530         58.6062         57.4180         13.3406
           13736         62.3812         58.4458         56.8671         13.7269
           13737         62.6649         59.5010         56.3890         13.6870
           13738         61.7475         55.4971         58.9815         13.2578
           13739         61.9298         55.7570         59.6304         12.8514
           13740         61.7737         54.7626         60.2443         12.7385
           13741         61.5784         54.5006         59.5907         13.1435
           13742         61.4024         52.0556         61.7418         12.4153
           13743         61.7087         52.6308         62.2701         12.0791
           13744         61.7779         51.9572         63.0890         11.7569
           13745         61.4661         51.3821         62.5610         12.0912
           13746         60.1956         48.5998         61.4399         12.5522
           13747         60.3257         47.8884         62.4722         12.0389
           13748         59.6702         47.1369         61.5255         12.2935
           13749         59.5538         47.8495         60.4925         12.8098
           13750         59.3175         45.1146         62.7081         11.2544
           13751         60.1064         45.9154         63.7145         11.1129
           13752         60.3899         45.4240         64.7932         10.4660
           13753         59.5913         44.6222         63.7875         10.6063
           13754         60.5948         43.7155         66.8580         8.43445
           13755         59.7295         42.9509         65.8804         8.41087
           13756         59.4418         43.2024         64.9772         9.16544
           13757         60.3036         43.9602         65.9567         9.18717
           13758         58.0522         41.2824         64.5130         7.46406
           13759         58.8574         41.9340         65.3535         7.64174
           13760         59.0415         41.8654         65.9713         6.90137
           13761         58.2419         41.2159         65.1322         6.72426
           13762         60.1641         42.5084         67.8044         5.70287
           13763         59.9262         42.4073         67.2899         6.28274
           13764         60.4877         42.8301         67.8960         6.38918
           13765         60.7241         42.9306         68.4112         5.80895
           13766         59.0838         42.1221         67.4268         1.86305
           13767         60.0409         43.2784         68.5196     887.967E-03
           13768         58.9561         42.5026         67.3053     18.7160E-03
           13769         57.9580         41.3466         66.2144     995.268E-03
           13770         59.8101         42.2462         67.7310         4.70467
           13771         60.3667         42.7695         68.5773         3.87625
           13772         59.3719         42.0404         67.5367         3.44913
           13773         58.7991         41.5242         66.6864         4.28575
           13774         63.0620         46.3322         71.8160    -13.8928E-03
           13775         63.8910         46.6608         72.8015    -763.935E-03
           13776         62.7964         45.2983         71.6057        -1.60103
           13777         61.9356         44.9670         70.6221    -852.239E-03
           13778         63.9040         45.2063         72.6506        -3.92703
           13779         63.3868         45.0514         72.1316        -3.41162
           13780         64.3342         45.8769         73.3069        -2.79231
           13781         64.8372         46.0279         73.8279        -3.31062
           13782         62.5277         44.1462         70.7670        -5.06473
           13783         61.9360         43.7869         70.1742        -4.72807
           13784         62.5771         44.2900         71.0693        -4.12757
           13785         63.1575         44.6498         71.6587        -4.46612
           13786         61.8057         43.7172         69.5837        -6.02383
           13787         62.4203         44.0995         70.3952        -5.78597
           13788         62.4478         44.1988         70.2279        -6.27763
           13789         61.8404         43.8322         69.4097        -6.52306
           13790         63.5514         46.2072         70.4857        -8.00798
           13791         62.7207         45.7307         69.2594        -8.42627
           13792         62.8878         45.3816         69.8244        -7.93061
           13793         63.7351         45.8579         71.0503        -7.51178
           13794         64.1143         48.0288         70.6379        -8.30293
           13795         63.6143         47.5063         69.9317        -8.59610
           13796         64.1261         47.0981         71.0543        -7.99433
           13797         64.6399         47.6171         71.7632        -7.70572
           13798         61.5396         49.1673         64.4834        -11.2851
           13799         62.0998         49.4781         65.6917        -10.6958
           13800         62.0921         50.3206         65.1341        -10.9301
           13801         61.5546         50.0114         63.9263        -11.5224
           13802         62.5788         51.8308         65.6060        -10.4235
           13803         62.4977         52.4999         64.9921        -10.6119
           13804         62.2551         52.2229         64.4219        -10.9937
           13805         62.3279         51.5478         65.0348        -10.8084
           13806         62.1112         54.7438         61.9352        -11.7689
           13807         62.2016         55.8721         61.1155        -11.9290
           13808         61.9090         54.5343         61.1652        -12.2903
           13809         62.5154         58.1091         60.0969        -11.7195
           13810         62.5076         58.4847         59.0404        -12.3008
           13811         62.2862         57.2931         59.4529        -12.4989
           13812         62.3177         56.9247         60.5129        -11.9157
           13813         62.8298         60.1807         59.3095        -11.2180
           13814         62.9157         60.6280         58.3090        -11.8019
           13815         62.7266         59.5664         58.6926        -12.0797
           13816         62.6566         59.1217         59.6921        -11.4954
           13817         63.3133         63.3420         57.8516        -10.2306
           13818         63.5922         64.2818         56.9224        -10.4998
           13819         63.5697         63.6740         56.7159        -11.2747
           13820         63.2918         62.7372         57.6465        -11.0054
           13821         66.8307         73.0525         51.2880        -9.05413
           13822         67.2860         73.9533         50.7688        -8.85753
           13823         67.5785         74.1076         50.5390        -9.41729
           13824         67.1256         73.2079         51.0599        -9.61454
           13825         67.7604         74.8409         50.2327        -8.68808
           13826         67.0126         73.8494         50.9283        -8.25180
           13827         67.4876         74.7350         50.3920        -8.08202
           13828         70.5071         79.8892         47.3361        -6.58069
           13829         69.8194         79.0877         47.7408        -6.22913
           13830         70.2366         79.9275         47.1677        -5.47668
           13831         70.9305         80.7319         46.7677        -5.82863
           13832         72.2986         82.3487         46.0210        -6.26123
           13833         71.3424         80.9637         46.7812        -6.67627
           13834         71.5981         81.5079         46.4128        -6.09934
           13835         74.8914         85.6541         44.4640        -5.87598
           13836         74.2545         84.9569         44.6681        -5.64750
           13837         74.6145         85.5314         44.2413        -5.11281
           13838         75.2513         86.2270         44.0387        -5.34096
           13839         73.9777         84.8239         44.4766        -4.90331
           13840         74.3019         85.3265         44.0705        -4.40967
           13841         74.9430         86.0369         43.8338        -4.62009
           13842         78.5929         90.4575         41.0895        -2.75642
           13843         79.2931         91.2159         40.9411        -2.90703
           13844         79.0282         90.8846         41.3600        -3.35555
           13845         78.3319         90.1286         41.5057        -3.20656
           13846         80.2093         92.2303         40.5216        -2.73349
           13847         79.8915         91.8603         40.9016        -3.08915
           13848         79.6128         91.5882         40.5613        -2.55123
           13849         80.8293         92.9208         39.7627        -2.06626
           13850         81.0109         93.1141         39.4543        -1.79245
           13851         81.4628         93.6025         39.4149        -1.87582
           13852         81.2839         93.4125         39.7213        -2.14927
           13853         83.3417         95.6055         38.5861        -1.36437
           13854         83.4932         95.7987         38.9516        -1.63419
           13855         83.0367         95.3115         39.1717        -1.81714
           13856         82.8824         95.1189         38.8069        -1.54715
           13857         84.5625         96.9296         38.3980    -992.234E-03
           13858         84.3565         96.6706         38.1095    -923.901E-03
           13859         84.5426         96.8493         37.8904    -737.677E-03
           13860         84.7403         97.1010         38.1813    -804.001E-03
           13861         84.9753         97.3274         37.9145    -516.121E-03
           13862         84.9712         97.2757         37.5545    -338.866E-03
           13863         85.1312         97.4814         37.7811    -282.491E-03
           13864         85.1173         97.4292         37.5066     69.0880E-03
           13865         85.0636         97.3026         37.0340    -12.4971E-03
           13866         84.9902         97.1912         36.8175     92.5007E-03
           13867         85.0394         97.3134         37.2911     176.271E-03
           13868         84.2226         96.5425         38.2835         1.05569
           13869         84.1947         96.4685         37.8889     835.630E-03
           13870         83.8555         96.0982         37.8917     897.896E-03
           13871         83.8848         96.1725         38.2868         1.11910
           13872         83.5816         95.8948         38.9242         1.59188
           13873         83.5553         95.8450         38.6544         1.40199
           13874         83.2086         95.4679         38.6974         1.46244
           13875         83.2430         95.5253         38.9648         1.65181
           13876         81.9197         94.1047         40.0243         2.56115
           13877         82.5423         94.7903         40.0795         2.63386
           13878         82.3565         94.5850         39.7978         2.35853
           13879         79.3441         91.3033         40.5274         2.38143
           13880         78.8176         90.7159         40.8710         2.58447
           13881         79.1425         91.0502         41.0069         2.91604
           13882         79.6663         91.6374         40.6633         2.71293
           13883         78.4977         90.2520         41.7965         3.72956
           13884         78.9203         90.6804         41.9017         4.05735
           13885         79.4297         91.2811         41.5625         3.79779
           13886         79.0092         90.8521         41.4574         3.47006
           13887         76.0501         87.3383         43.2780         4.56368
           13888         76.4892         87.9105         42.8825         4.21319
           13889         75.9675         87.3762         42.9312         3.85354
           13890         75.5280         86.8056         43.3287         4.20601
           13891         73.6193         84.3990         44.6780         4.87409
           13892         72.9973         83.5693         45.1381         5.14780
           13893         73.4353         83.8975         45.2045         5.86103
           13894         74.0463         84.7243         44.7430         5.58357
           13895         72.0384         81.7077         46.4703         7.09167
           13896         71.6127         81.3540         46.5782         6.57520
           13897         71.2402         80.7460         46.9231         6.88763
           13898         68.6737         77.1176         48.9543         7.01578
           13899         69.1639         77.8747         48.5013         6.92420
           13900         69.0700         77.9882         48.4144         6.33255
           13901         68.5852         77.2453         48.8688         6.42428
           13902         67.8016         75.4245         49.9851         7.74140
           13903         67.5463         74.7653         50.3436         8.20835
           13904         68.1029         75.3678         49.9222         8.71765
           13905         65.4018         70.8187         53.0434         8.26582
           13906         65.9342         71.7189         52.3277         8.53253
           13907         65.9263         72.1912         52.1579         7.73753
           13908         65.3950         71.2954         52.8727         7.47274
           13909         64.4306         67.1212         54.9599         10.2378
           13910         64.0907         66.2657         55.6873         10.0922
           13911         64.1176         65.9874         55.5975         10.5575
           13912         64.4560         66.8392         54.8735         10.7037
           13913         63.7678         65.4155         56.4981         9.84838
           13914         64.0510         66.6633         55.7662         9.42024
           13915         63.7279         65.8137         56.5719         9.17653
           13916         63.0664         61.5418         58.1619         11.3513
           13917         62.9612         61.1219         59.0685         10.7938
           13918         62.8484         60.3688         59.4162         10.9868
           13919         62.9451         60.7960         58.5088         11.5434
           13920         62.3033         57.5475         59.0574         12.6598
           13921         62.2296         56.9634         59.6787         12.4586
           13922         62.0537         56.3872         59.3866         12.8194
           13923         62.1245         56.9658         58.7678         13.0186
           13924         62.4565         54.9541         63.3147         10.8245
           13925         62.5722         54.5151         64.0818         10.4933
           13926         62.4395         53.7761         64.0376         10.7967
           13927         62.3182         54.2192         63.2647         11.1292
           13928         61.9482         51.3030         64.0940         11.3397
           13929         62.0510         50.7762         64.7534         11.0609
           13930         61.6658         50.2115         64.0643         11.4601
           13931         61.5632         50.7409         63.3941         11.7368
           13932         63.6138         50.1149         68.8804         8.99309
           13933         63.2215         50.3722         67.8992         9.47851
           13934         63.4014         51.1407         68.0428         9.20673
           13935         63.7919         50.8827         69.0245         8.72028
           13936         61.9567         47.9051         66.3259         10.3594
           13937         62.4656         48.5184         67.0808         10.0455
           13938         62.8339         48.1147         68.0863         9.54431
           13939         62.3135         47.5019         67.3315         9.85547
           13940         62.8232         46.1675         69.1644         8.65543
           13941         62.0869         45.4359         68.2414         8.83321
           13942         61.5201         45.7500         66.8936         9.61396
           13943         62.2449         46.4872         67.8168         9.43166
           13944         62.5941         44.2790         70.4384         6.18493
           13945         62.0658         44.0124         69.6376         6.59789
           13946         62.4725         44.4048         69.9464         6.93966
           13947         62.9901         44.6675         70.7437         6.52801
           13948         61.9567         43.9813         70.4363         3.69169
           13949         62.5930         44.2654         71.0512         4.29323
           13950         63.5392         45.0709         72.2606         3.70126
           13951         62.9186         44.7904         71.6428         3.09781
           13952         63.0448         45.4613         71.8862         1.66575
           13953         64.0141         46.7185         72.9449     837.562E-03
           13954         63.0643         46.3320         71.8190     16.2977E-03
           13955         62.0587         45.0750         70.7589     848.371E-03
           13956         64.7674         45.9878         73.7719         3.17570
           13957         63.9090         45.1067         72.5582         4.39343
           13958         65.1145         46.0096         74.0693         3.85817
           13959         66.8633         49.5682         76.0476    -10.9462E-03
           13960         67.5324         49.4901         76.9199    -696.742E-03
           13961         66.4553         48.0869         75.7739        -1.41452
           13962         65.7583         48.1666         74.9020    -729.674E-03
           13963         68.1765         49.2655         77.7618        -1.29391
           13964         68.8260         49.2131         78.5630        -1.75883
           13965         67.7126         47.9800         77.2715        -2.55101
           13966         67.0466         48.0222         76.4768        -2.08202
           13967         69.1854         48.0627         78.9853        -3.37440
           13968         68.2181         47.4669         77.7355        -3.98576
           13969         68.0421         47.5278         77.5686        -3.67940
           13970         69.0156         48.1288         78.8140        -3.07406
           13971         67.2126         47.2705         76.1344        -5.33828
           13972         67.3652         47.1729         76.4347        -5.03868
           13973         68.2082         47.5006         77.5877        -4.53368
           13974         68.0446         47.5922         77.2871        -4.83093
           13975         67.0414         47.4810         75.7840        -5.63290
           13976         66.1940         47.1807         74.5488        -6.20126
           13977         66.3532         46.9742         74.8991        -5.90541
           13978         65.3293         49.3347         72.4884        -7.20234
           13979         65.4941         49.8568         72.6857        -6.93896
           13980         64.9850         50.1655         71.6744        -7.41263
           13981         64.8211         49.6434         71.4769        -7.67507
           13982         64.5109         50.4922         70.6648        -7.88873
           13983         64.0640         50.8227         69.6444        -8.37515
           13984         63.8987         50.2923         69.4390        -8.64473
           13985         64.3436         49.9607         70.4594        -8.15888
           13986         63.4766         52.3600         67.8182        -8.93239
           13987         63.1618         52.7930         66.8274        -9.38853
           13988         62.9888         52.0436         66.6374        -9.77341
           13989         63.3014         51.6112         67.6245        -9.31765
           13990         63.1774         53.6108         66.5566        -9.23092
           13991         63.5688         53.4072         67.7713        -8.46943
           13992         63.4907         54.4753         67.2438        -8.26459
           13993         63.1194         54.6793         66.0331        -9.02776
           13994         62.8798         58.6871         63.2853        -8.53813
           13995         62.7894         58.5357         62.6960        -9.22388
           13996         62.8404         57.6109         63.5453        -9.17966
           13997         62.9351         57.7545         64.1290        -8.49423
           13998         62.8340         59.6358         62.4077        -8.53789
           13999         62.8466         60.5376         61.5483        -8.61576
           14000         62.8235         60.3703         60.8673        -9.52138
           14001         62.7920         59.4653         61.7202        -9.44352
           14002         63.5265         64.6255         57.1904        -9.73611
           14003         63.3000         63.7644         58.0177        -9.56389
           14004         63.2291         64.0366         58.2872        -8.80052
           14005         63.4502         64.8988         57.4590        -8.97325
           14006         64.0439         68.6384         55.1817        -6.65707
           14007         64.4039         69.5924         54.4008        -6.61314
           14008         64.6506         69.6801         54.1181        -7.45157
           14009         64.2866         68.7262         54.8995        -7.49560
           14010         65.7751         71.7772         52.4312        -7.93178
           14011         65.4875         71.6405         52.6495        -7.21387
           14012         65.9585         72.6290         51.9577        -7.06128
           14013         66.2444         72.7644         51.7389        -7.77812
           14014         66.1783         73.4792         51.4150        -6.18592
           14015         66.4559         73.6064         51.2589        -6.92798
           14016         65.6815         72.5045         52.1128        -6.31992
           14017         67.9303         76.6011         49.2402        -5.59921
           14018         68.5663         77.3486         48.7761        -6.11510
           14019         68.1119         76.3535         49.4393        -6.83104
           14020         67.4817         75.6082         49.9080        -6.31992
           14021         69.7919         80.1174         46.3634        -2.38463
           14022         70.4340         80.8943         45.9602        -2.74756
           14023         69.9751         80.1565         46.6089        -3.41896
           14024         69.3398         79.3842         47.0124        -3.05666
           14025         72.1883         83.0464         44.7780        -3.05663
           14026         71.6560         82.4728         44.9336        -2.55554
           14027         72.4711         83.5418         44.1115        -2.01272
           14028         72.9968         84.1114         43.9572        -2.50861
           14029         75.0342         86.5437         42.4227        -2.00494
           14030         75.4386         87.0416         41.8618        -1.42016
           14031         76.2889         87.9756         41.5607        -1.76271
           14032         75.8822         87.4754         42.1251        -2.34780
           14033         78.0887         89.9631         40.5238        -1.62746
           14034         77.4894         89.3132         40.7354        -1.48240
           14035         77.7182         89.5685         40.2320    -913.922E-03
           14036         78.3170         90.2162         40.0166        -1.06408
           14037         79.0815         91.0201         40.5642        -2.30497
           14038         79.5004         91.4867         40.1253        -1.94845
           14039         80.0308         92.0553         40.1229        -2.19394
           14040         81.1663         93.2664         38.9852        -1.35534
           14041         80.9279         92.9963         38.7657        -1.04702
           14042         81.4397         93.5218         38.3572    -828.402E-03
           14043         81.6741         93.7911         38.5765        -1.13739
           14044         83.8839         96.0598         37.3102    -571.925E-03
           14045         83.5593         95.7132         37.3469    -563.547E-03
           14046         83.6234         95.7355         36.9818    -367.979E-03
           14047         83.9490         96.0825         36.9452    -375.858E-03
           14048         84.1469         96.3370         37.2475    -523.922E-03
           14049         84.1521         96.3821         37.5583    -681.699E-03
           14050         83.8909         96.1058         37.6204    -730.050E-03
           14051         84.4623         96.6585         37.0962     428.708E-03
           14052         84.4727         96.7241         37.5010     580.774E-03
           14053         84.7169         96.9943         37.5316     511.804E-03
           14054         84.7073         96.9287         37.1262     359.179E-03
           14055         83.0358         95.1873         37.6990     724.338E-03
           14056         83.4645         95.6367         37.5697     706.978E-03
           14057         83.4627         95.5881         37.1822     449.703E-03
           14058         83.0323         95.1385         37.3116     466.819E-03
           14059         80.4599         92.5086         39.1158         1.21828
           14060         80.6592         92.7324         39.3484         1.54833
           14061         81.1810         93.2821         38.9971         1.38580
           14062         80.9859         93.0593         38.7599         1.05299
           14063         79.1126         91.0707         39.6250         1.07385
           14064         78.5212         90.4361         40.0048         1.20746
           14065         78.7728         90.7053         40.2167         1.65167
           14066         79.3608         91.3397         39.8374         1.51792
           14067         77.7348         89.5603         40.9729         2.03401
           14068         78.2191         90.0987         40.5965         1.83232
           14069         77.8916         89.7526         40.5139         1.46288
           14070         77.4049         89.2146         40.8955         1.66335
           14071         75.0558         86.4627         42.9303         2.96887
           14072         75.5633         87.0893         42.4348         2.59362
           14073         75.1328         86.6467         42.4266         2.11293
           14074         74.6190         86.0190         42.9192         2.48581
           14075         71.9440         82.6983         45.0563         3.31328
           14076         71.6187         82.1706         45.5231         3.89594
           14077         72.4684         83.0766         45.2288         4.53732
           14078         72.7843         83.6006         44.7643         3.95711
           14079         70.3601         80.6263         46.3607         3.58334
           14080         69.9714         80.0227         46.8121         3.95925
           14081         70.4479         80.5031         46.6520         4.52296
           14082         70.8320         81.1065         46.2012         4.14633
           14083         67.7123         76.3705         49.3696         5.33909
           14084         68.2278         77.0226         48.9611         5.67090
           14085         68.4506         77.6018         48.5167         4.98528
           14086         67.9291         76.9439         48.9233         4.64988
           14087         66.0349         73.3541         51.5034         5.92085
           14088         65.4153         72.3550         52.2894         5.57176
           14089         65.3794         71.7557         52.6601         6.61235
           14090         65.9934         72.7522         51.8741         6.95880
           14091         63.9286         67.9364         55.6565         7.18712
           14092         64.0258         68.6931         55.1752         6.49146
           14093         63.6653         67.9929         55.9536         5.88452
           14094         63.5720         67.2393         56.4370         6.58070
           14095         63.3773         65.1981         57.5952         8.24184
           14096         63.4441         64.9260         57.4452         8.93491
           14097         63.6564         66.0898         56.7139         8.48572
           14098         62.8601         61.7556         61.0042         7.82048
           14099         62.9491         62.2148         60.0410         8.61059
           14100         62.9991         63.2168         59.4139         8.13367
           14101         62.9021         62.7575         60.3752         7.34863
           14102         62.6612         58.6241         61.0045         10.7149
           14103         62.6062         57.7147         61.8033         10.5808
           14104         62.5257         57.5173         61.2787         11.1165
           14105         62.5879         58.4231         60.4765         11.2518
           14106         63.4572         54.6693         67.1153         8.22130
           14107         63.7280         54.5753         67.9323         7.64674
           14108         63.8532         53.9169         68.4199         7.70075
           14109         63.5691         53.9973         67.6017         8.27936
           14110         64.4460         52.7174         70.0898         7.22361
           14111         64.1605         52.4081         69.4776         7.83179
           14112         63.8361         53.1047         68.5468         8.09197
           14113         64.1096         53.4114         69.1615         7.48259
           14114         64.1400         50.1231         69.9922         8.38516
           14115         64.1927         51.1924         69.8207         8.15271
           14116         64.5641         50.4399         70.7946         7.81764
           14117         66.3402         48.2608         74.4520         6.37532
           14118         66.1287         48.7122         74.0143         6.51681
           14119         66.8700         48.8917         75.1924         5.87623
           14120         67.0955         48.4451         75.6311         5.73797
           14121         65.7785         46.5576         74.1730         6.07988
           14122         65.3086         46.6322         73.3467         6.61387
           14123         65.9254         47.0292         74.1707         6.35913
           14124         66.4051         46.9571         74.9971         5.82408
           14125         65.6496         46.1181         74.3867         5.16969
           14126         66.4753         46.5868         75.4058         5.01701
           14127         66.7918         46.7748         75.9477         4.38348
           14128         65.9605         46.3027         74.9288         4.54326
           14129         68.5503         47.9581         78.2448         3.13006
           14130         67.9826         47.4809         77.4967         3.70012
           14131         68.6831         47.7395         78.3424         3.68801
           14132         69.2551         48.2120         79.0956         3.11546
           14133         66.7466         48.2147         76.1154         1.50305
           14134         67.6852         49.5883         77.0967     700.419E-03
           14135         66.8658         49.5707         76.0503     19.4039E-03
           14136         65.8940         48.1983         75.0667     820.541E-03
           14137         68.4311         48.4812         78.1270         2.32713
           14138         67.7217         47.7283         77.2573         2.99501
           14139         69.2539         48.7132         79.1118         2.46572
           14140         70.3201         52.1360         79.9780    -7.86391E-03
           14141         70.8863         51.7811         80.7827    -504.581E-03
           14142         69.8409         50.3595         79.6960        -1.10449
           14143         69.2544         50.7157         78.8929    -606.443E-03
           14144         70.9598         49.8961         81.1516        -1.75503
           14145         71.5126         49.8142         81.8481        -1.88752
           14146         70.5030         48.8899         80.6444        -2.55784
           14147         69.9481         48.9672         79.9521        -2.42527
           14148         69.9034         48.4217         79.8988        -2.99112
           14149         71.1171         49.0538         81.4003        -2.47392
           14150         70.5069         48.5880         80.6444        -2.90185
           14151         68.2558         47.4943         77.7177        -4.25227
           14152         69.0598         47.8369         78.7855        -3.76754
           14153         69.0087         47.8448         78.6594        -4.05042
           14154         68.6337         48.6438         77.9288        -4.55423
           14155         69.4352         48.6989         79.0811        -3.95828
           14156         69.3554         49.0367         78.9372        -3.88666
           14157         68.5570         48.9833         77.7860        -4.48173
           14158         66.0103         49.5478         73.6551        -6.50006
           14159         66.1779         50.0218         73.8773        -6.19028
           14160         65.6590         50.3309         72.9084        -6.62870
           14161         66.4089         51.7661         74.1023        -5.00818
           14162         65.7778         52.2317         72.9038        -5.52257
           14163         65.5080         51.6898         72.4435        -6.21821
           14164         66.1228         51.2274         73.6396        -5.70235
           14165         64.9078         53.9164         70.9488        -5.70415
           14166         64.3684         54.2815         69.6709        -6.44521
           14167         64.4416         53.6441         69.9250        -6.74740
           14168         64.9843         53.2789         71.2003        -6.00858
           14169         63.5656         56.4357         67.1010        -6.82992
           14170         63.4034         57.1123         66.3798        -6.90399
           14171         63.1926         57.0178         65.5915        -7.74416
           14172         63.3520         56.3361         66.3426        -7.65646
           14173         63.5727         57.8778         66.8728        -5.48096
           14174         63.6260         58.2547         67.0051        -4.77259
           14175         63.3575         58.9448         65.9320        -5.13158
           14176         63.3076         58.5660         65.7934        -5.84135
           14177         62.8604         63.5680         60.1306        -6.25121
           14178         62.9412         64.3353         59.3427        -6.29385
           14179         63.0474         64.3231         58.9135        -7.21596
           14180         62.9513         63.5507         59.6907        -7.17817
           14181         63.2026         67.5418         56.7292        -3.91877
           14182         62.9692         66.5913         57.7685        -3.66992
           14183         62.8898         66.6848         57.7805        -2.75368
           14184         63.1163         67.6407         56.7355        -3.00624
           14185         63.9923         70.3187         54.0829        -3.07565
           14186         64.3935         71.2623         53.2366        -3.04634
           14187         64.5535         71.2923         53.2069        -3.95121
           14188         64.1538         70.3490         54.0545        -3.98019
           14189         64.8406         72.2216         52.3829        -3.03005
           14190         65.3110         73.1513         51.6080        -2.95640
           14191         65.4624         73.1696         51.6338        -3.80835
           14192         64.9994         72.2449         52.4075        -3.88249
           14193         66.3509         75.2164         49.7912        -1.90496
           14194         65.8145         74.2807         50.5708        -2.07823
           14195         65.6491         74.1703         50.4974        -1.15348
           14196         66.1861         75.0999         49.7053    -975.889E-03
           14197         69.0744         79.2091         46.8799        -2.06410
           14198         69.5475         79.9505         46.1449        -1.25612
           14199         70.2728         80.8600         45.6289        -1.57935
           14200         70.9183         81.7396         44.8391    -936.354E-03
           14201         70.4479         81.1812         45.0188    -413.795E-03
           14202         71.1992         82.1369         44.1264     193.158E-03
           14203         71.6848         82.7176         43.9532    -332.287E-03
           14204         75.7668         87.4233         40.8038     107.606E-03
           14205         75.1574         86.7528         41.5230    -470.686E-03
           14206         74.4370         85.9415         41.7867    -54.5066E-03
           14207         75.0473         86.6123         41.0685     523.879E-03
           14208         77.6113         89.4365         39.7906    -140.054E-03
           14209         78.2100         90.0887         39.6350    -434.084E-03
           14210         77.1230         88.9210         40.3872    -620.684E-03
           14211         79.2643         91.2064         39.0123    -384.162E-03
           14212         79.8101         91.7590         38.4735    -74.4909E-03
           14213         80.2456         92.2381         38.5059    -404.525E-03
           14214         79.7004         91.6837         39.0445    -713.749E-03
           14215         81.3861         93.3645         37.4117     135.559E-03
           14216         80.8128         92.8064         37.9836    -138.977E-03
           14217         80.3989         92.3408         37.8827     236.537E-03
           14218         80.9751         92.8991         37.3115     511.091E-03
           14219         82.7439         94.7002         36.3928     360.616E-03
           14220         82.4435         94.3520         36.2701     651.968E-03
           14221         82.9157         94.7732         35.7139     873.919E-03
           14222         83.2132         95.1208         35.8368     583.045E-03
           14223         84.6152         96.6005         35.6137     100.654E-03
           14224         84.3767         96.3991         35.9590     20.2038E-03
           14225         84.2589         96.2393         35.7505     154.415E-03
           14226         84.4984         96.4404         35.4045     236.091E-03
           14227         85.3342         97.1985         34.5902     17.7571E-03
           14228         85.2207         97.1412         34.9595    -10.3661E-03
           14229         85.1621         97.0994         35.0832     46.8348E-03
           14230         85.2736         97.1555         34.7148     75.3879E-03
           14231         85.1209         97.0471         35.0353    -100.006E-03
           14232         85.1134         97.0200         34.9238    -142.405E-03
           14233         85.0526         96.9898         35.1294    -105.080E-03
           14234         85.0664         97.0222         35.2332    -66.3597E-03
           14235         84.7648         96.7271         35.4056    -131.699E-03
           14236         84.8689         96.8220         35.3037    -130.485E-03
           14237         84.8818         96.8091         35.1448    -186.917E-03
           14238         84.7811         96.7180         35.2464    -187.378E-03
           14239         82.8265         94.6955         35.8282    -835.625E-03
           14240         83.2984         95.1779         35.6287    -697.140E-03
           14241         83.4785         95.2885         35.1670        -1.00894
           14242         83.0053         94.8055         35.3665        -1.14727
           14243         80.9977         92.8810         37.0361    -821.886E-03
           14244         80.4023         92.2588         37.2955    -953.640E-03
           14245         80.2982         92.2067         37.7130    -527.570E-03
           14246         80.8938         92.8298         37.4530    -394.780E-03
           14247         79.3189         91.2533         38.8441     192.373E-03
           14248         78.7080         90.6051         39.1447     142.977E-03
           14249         78.5847         90.4941         39.5355     592.586E-03
           14250         79.1956         91.1452         39.2379     639.262E-03
           14251         75.2067         86.8084         41.4126     321.876E-03
           14252         74.6862         86.2183         41.9546     708.814E-03
           14253         75.1431         86.7174         41.9469         1.23375
           14254         75.6581         87.3074         41.4046     847.132E-03
           14255         74.2024         85.6500         42.5078         1.14751
           14256         74.2090         85.6832         42.0167     182.343E-03
           14257         73.7201         85.1156         42.5698     621.699E-03
           14258         72.5772         83.7536         43.6048         1.07499
           14259         72.0755         83.1346         44.0739         1.30065
           14260         72.3675         83.4379         44.0999         1.82293
           14261         72.8692         84.0611         43.6330         1.59638
           14262         68.4631         78.1456         47.8710         3.14790
           14263         69.0942         79.1424         47.0560         2.60398
           14264         68.7363         78.7918         47.1004         1.75255
           14265         68.0871         77.7917         47.9173         2.29544
           14266         65.7925         74.2968         50.5194         1.81314
           14267         65.3314         73.3921         51.3070         2.23014
           14268         65.6118         73.6329         51.2368         3.19429
           14269         66.0525         74.5312         50.4439         2.77441
           14270         63.0977         66.7413         57.4770         4.45014
           14271         63.1755         67.4848         56.7924         3.83827
           14272         62.9478         66.8380         57.6125         2.97850
           14273         62.8713         66.0975         58.2964         3.59151
           14274         62.7875         62.8052         61.8499         4.35395
           14275         62.8184         62.1312         62.2711         5.07146
           14276         62.8179         62.7804         61.1765         5.85461
           14277         62.7839         63.4553         60.7581         5.13566
           14278         62.8587         61.2207         62.1063         7.02961
           14279         62.8268         62.0183         61.5999         6.49907
           14280         62.8762         61.4079         62.7772         5.67231
           14281         62.9134         60.6094         63.2822         6.20349
           14282         63.2902         57.6518         65.8770         6.83306
           14283         63.0626         58.1867         64.6625         7.58193
           14284         63.0185         58.9768         64.2862         7.11217
           14285         63.2431         58.4444         65.5051         6.36222
           14286         64.0370         55.8823         68.5828         5.96851
           14287         64.0832         55.2205         68.8100         6.38393
           14288         63.6939         55.7343         67.6113         7.01385
           14289         63.6549         56.3971         67.3879         6.59964
           14290         64.8453         52.1309         71.0484         6.90952
           14291         64.6905         53.0990         70.5749         6.63318
           14292         65.0986         52.5161         71.5308         6.31799
           14293         66.1235         50.5564         73.7153         6.03347
           14294         66.4432         50.1770         74.3188         5.85338
           14295         65.9691         50.0207         73.5064         6.41612
           14296         65.6655         50.4009         72.9143         6.58675
           14297         67.2105         48.1880         75.8568         5.66579
           14298         67.7760         48.5641         76.6593         5.20778
           14299         67.8890         48.3088         76.8738         5.14077
           14300         68.4813         48.3136         77.7522         4.71071
           14301         68.2242         48.0230         77.4263         4.89040
           14302         67.6355         48.0209         76.5483         5.31765
           14303         69.5782         48.0711         79.3958         3.79660
           14304         69.6287         48.0661         79.5042         3.57489
           14305         68.8375         47.7498         78.4700         3.99743
           14306         68.7890         47.7675         78.3531         4.23137
           14307         69.9473         48.7520         79.9613         2.60384
           14308         69.8449         48.3108         79.8171         3.14288
           14309         70.5356         48.8508         80.6806         2.63452
           14310         71.9097         53.1526         81.8222     9.93615E-03
           14311         71.0398         51.9068         80.9557     470.374E-03
           14312         71.7162         51.5309         81.8861     838.244E-03
           14313         72.5705         52.7743         82.7539     378.161E-03
           14314         70.1499         50.6043         80.0487         1.03717
           14315         70.3195         52.1421         79.9759     12.6871E-03
           14316         69.4106         50.8368         79.0704     579.738E-03
           14317         73.4063         53.9666         83.5889    -3.06489E-03
           14318         73.8864         53.3870         84.3242    -303.460E-03
           14319         72.9253         52.0939         83.3294    -705.239E-03
           14320         72.4313         52.6714         82.5948    -403.962E-03
           14321         74.3351         52.7070         85.0170    -512.245E-03
           14322         74.7783         52.2416         85.6501    -624.260E-03
           14323         73.8636         51.2428         84.6417        -1.01152
           14324         73.4138         51.7075         84.0079    -898.990E-03
           14325         75.1656         51.6783         86.2173    -671.467E-03
           14326         75.5474         51.3273         86.7400    -637.517E-03
           14327         74.7363         50.6448         85.8121    -972.775E-03
           14328         74.3537         50.9942         85.2895        -1.00581
           14329         72.9942         49.0782         83.7936        -1.87593
           14330         72.4500         48.9422         83.1078        -2.17856
           14331         72.5432         48.9961         83.2197        -2.14670
           14332         73.0841         49.1319         83.9004        -1.84786
           14333         71.8540         49.0699         82.3474        -2.22337
           14334         72.4777         49.1051         83.1593        -1.80543
           14335         72.4116         49.2417         83.0723        -1.66418
           14336         71.7766         49.2062         82.2483        -2.08002
           14337         69.7272         50.3794         79.4024        -2.53617
           14338         70.4797         49.9029         80.4770        -2.35040
           14339         71.0506         50.0844         81.2444        -1.64956
           14340         70.2854         50.5605         80.1685        -1.82942
           14341         67.0632         51.0611         75.2807        -4.72483
           14342         67.7072         51.2614         76.3224        -3.82211
           14343         67.0227         51.9603         75.1397        -4.10165
           14344         66.0081         53.5587         73.1927        -4.14216
           14345         66.4896         53.5469         74.0635        -3.37006
           14346         66.0452         54.2952         73.1618        -3.35103
           14347         65.5780         54.3065         72.2942        -4.11815
           14348         63.7291         58.5429         67.2558        -4.00569
           14349         63.9396         57.6022         68.0467        -4.45504
           14350         64.0587         57.8912         68.3064        -3.68330
           14351         63.1714         61.0489         64.7868        -2.67647
           14352         63.4137         60.3360         65.8131        -2.60799
           14353         63.6004         60.3506         66.3175        -1.53819
           14354         63.3429         61.0604         65.2909        -1.60643
           14355         62.7381         63.4625         61.4047        -3.41224
           14356         62.7163         63.7920         61.2511        -2.55301
           14357         62.7240         64.7130         59.9329        -3.31686
           14358         62.7643         64.3815         60.0904        -4.17230
           14359         63.3795         69.3881         54.8415    -60.1148E-03
           14360         63.1275         68.5121         55.8104    -137.247E-03
           14361         63.0953         68.4634         55.7423     981.629E-03
           14362         63.3503         69.3374         54.7718         1.05994
           14363         64.0864         71.2326         52.9793    -115.310E-03
           14364         64.5345         72.1944         52.0843    -181.971E-03
           14365         64.6112         72.2117         52.2130        -1.19434
           14366         64.1620         71.2487         53.1079        -1.12622
           14367         64.9624         73.1009         50.8796         1.52489
           14368         65.4498         73.9910         50.0916         1.43378
           14369         65.4739         74.0296         50.2647     572.630E-03
           14370         64.9808         73.1333         51.0515     666.396E-03
           14371         69.2197         79.6112         45.4866         1.37082
           14372         68.5643         78.7333         46.1360         1.41816
           14373         68.7251         78.9131         45.7465         2.09159
           14374         69.3729         79.7735         45.0999         2.04695
           14375         73.0121         84.2867         42.3633     918.060E-03
           14376         72.3541         83.5295         43.1592     309.051E-03
           14377         71.6324         82.6541         43.4324     998.756E-03
           14378         72.2896         83.4041         42.6314         1.60533
           14379         74.4009         85.8663         41.2839     999.773E-03
           14380         75.0973         86.6007         40.5084         1.53269
           14381         75.7454         87.3505         40.2940         1.05604
           14382         77.7489         89.4504         38.6522         1.52512
           14383         77.2021         88.8176         38.7575         1.98348
           14384         77.9440         89.5276         37.9680         2.42860
           14385         78.4929         90.1655         37.8626         1.97003
           14386         78.8216         90.6638         38.5086     668.655E-03
           14387         78.3122         90.0883         38.5439         1.09935
           14388         78.9728         90.7307         37.8673         1.46470
           14389         79.4799         91.3065         37.8310         1.03394
           14390         81.7982         93.5893         36.0241         1.38225
           14391         81.1577         92.9892         36.6346         1.17114
           14392         80.8115         92.5730         36.5197         1.61114
           14393         81.4554         93.1737         35.9093         1.82277
           14394         83.8775         95.7771         35.4501     514.449E-03
           14395         83.4591         95.4094         35.9638     346.002E-03
           14396         83.6327         95.4879         35.3233     751.953E-03
           14397         85.3493         97.0402         33.6822     761.340E-03
           14398         84.9737         96.7149         34.0933     759.895E-03
           14399         84.9466         96.6425         33.8923     983.399E-03
           14400         85.3231         96.9679         33.4822     983.786E-03
           14401         85.5662         97.3206         33.9000    -273.164E-03
           14402         85.5551         97.2811         33.7589    -410.986E-03
           14403         85.3624         97.1375         34.0940    -387.410E-03
           14404         85.3733         97.1762         34.2354    -250.146E-03
           14405         84.2423         96.0718         34.8876    -714.845E-03
           14406         84.5280         96.3684         34.8099    -564.901E-03
           14407         84.7341         96.5073         34.3651    -759.432E-03
           14408         84.4486         96.2110         34.4430    -909.471E-03
           14409         83.8852         95.7063         35.0140    -839.733E-03
           14410         84.1181         95.8653         34.5337        -1.11170
           14411         83.7113         95.4476         34.6867        -1.28118
           14412         80.4983         92.2895         36.8794        -1.42755
           14413         81.1418         92.9612         36.5800        -1.24139
           14414         81.3318         93.0724         36.0855        -1.71240
           14415         80.6882         92.4006         36.3845        -1.90027
           14416         79.8367         91.5995         37.2134        -1.56138
           14417         79.7413         91.5686         37.6291        -1.08806
           14418         76.8626         88.5604         39.5470        -1.04009
           14419         77.6357         89.3715         38.9521        -1.15217
           14420         77.4770         89.1396         38.7162        -1.73327
           14421         76.7010         88.3298         39.3115        -1.62105
           14422         73.1667         84.4620         42.2122    -997.855E-03
           14423         72.6697         83.9009         42.8475    -435.144E-03
           14424         73.2285         84.5552         42.6932     135.101E-03
           14425         73.7227         85.1215         42.0582    -425.380E-03
           14426         71.8430         82.8035         42.6754        -2.41325
           14427         71.2775         82.1958         43.4982        -1.59196
           14428         72.0347         83.1388         43.1510    -904.384E-03
           14429         72.5869         83.7437         42.3387        -1.72077
           14430         68.2241         78.2749         46.6083        -1.07961
           14431         68.4078         78.5167         46.7345    -168.881E-03
           14432         69.2257         79.6330         45.7319    -617.098E-03
           14433         69.0671         79.4023         45.5934        -1.52851
           14434         65.2535         73.5202         50.9856     759.893E-03
           14435         65.6136         74.1092         50.5479         1.14822
           14436         65.7701         74.4843         50.0686     291.164E-03
           14437         65.4116         73.8920         50.4964    -108.466E-03
           14438         64.1377         71.2068         53.1298         1.10421
           14439         64.4706         71.8311         52.6134         1.61868
           14440         64.6429         72.3363         52.0478     843.417E-03
           14441         64.3132         71.7090         52.5644     333.534E-03
           14442         63.4102         69.5267         54.5849    -910.875E-03
           14443         63.7006         70.3371         53.7720    -632.293E-03
           14444         63.7716         70.5230         53.4118        -1.55617
           14445         63.4810         69.7100         54.2239        -1.83274
           14446         62.9548         62.1739         63.5002         2.12114
           14447         62.8178         62.7578         62.4892         2.84753
           14448         62.7796         63.2103         62.1136         2.14920
           14449         62.9226         62.6245         63.1212         1.42382
           14450         63.0308         61.6356         64.0026         2.73465
           14451         63.1829         61.7048         64.4932         1.25903
           14452         63.2491         61.1637         64.9932         1.87575
           14453         63.8251         58.3126         67.5961         3.90554
           14454         64.1652         58.3160         68.4430         2.78605
           14455         64.5318         57.4778         69.5179         2.80756
           14456         64.1592         57.4739         68.6458         3.92669
           14457         64.9813         56.5121         70.6931         2.96947
           14458         64.8929         56.9540         70.4131         2.55879
           14459         65.4564         56.5242         71.5998         1.83961
           14460         65.5339         56.0716         71.8678         2.26810
           14461         66.2654         52.9961         73.7298         4.23558
           14462         66.1071         52.6336         73.4774         4.77191
           14463         65.6126         53.0432         72.5019         5.18437
           14464         65.7614         53.4050         72.7539         4.64622
           14465         68.0705         51.2111         76.8930         3.47665
           14466         67.7134         50.9188         76.3510         4.10765
           14467         67.0384         51.3867         75.2179         4.51017
           14468         67.3833         51.6797         75.7625         3.87901
           14469         70.3482         49.9053         80.2971         2.44580
           14470         71.2271         49.6195         81.5048         2.03343
           14471         70.7091         49.3086         80.8168         2.71095
           14472         69.8466         49.5916         79.6111         3.12710
           14473         71.5517         48.9468         81.9550         2.49447
           14474         72.5102         49.0314         83.1942         1.95853
           14475         72.2619         48.8841         82.8748         2.24782
           14476         71.3097         48.8007         81.6341         2.78361
           14477         71.3698         48.8183         81.7230         2.66779
           14478         71.7098         48.7787         82.1611         2.59542
           14479         72.5683         49.1814         83.2322         2.09962
           14480         72.2259         49.2219         82.7945         2.17177
           14481         74.2633         51.3750         85.1266     912.493E-03
           14482         73.4387         50.6684         84.1794         1.29234
           14483         73.8940         50.3136         84.7949         1.29376
           14484         74.7171         51.0204         85.7417     913.558E-03
           14485         74.8091         54.5922         85.2717     4.95553E-03
           14486         74.0064         53.4476         84.4664     289.913E-03
           14487         74.5626         52.7871         85.2918     486.231E-03
           14488         75.3536         53.9296         86.0980     201.909E-03
           14489         73.1840         52.2533         83.6313     660.014E-03
           14490         73.4065         53.9706         83.5882     7.36885E-03
           14491         76.1183         55.0171         86.8704     2.13832E-03
           14492         76.5180         54.2270         87.5249    -119.497E-03
           14493         75.6552         53.1227         86.6185    -330.690E-03
           14494         75.2467         53.9092         85.9655    -208.731E-03
           14495         76.8895         53.3042         88.1413    -154.933E-03
           14496         77.2066         52.5992         88.6357    -140.363E-03
           14497         76.3601         51.8577         87.6829    -363.084E-03
           14498         76.0399         52.5606         87.1875    -376.461E-03
           14499         76.4133         50.3244         87.9259    -320.538E-03
           14500         75.8314         50.1537         87.2296    -546.052E-03
           14501         75.9608         50.5871         87.3411    -533.831E-03
           14502         76.5465         50.7537         88.0437    -304.073E-03
           14503         73.9891         49.3481         85.0693    -354.804E-03
           14504         73.9213         49.2772         84.9877    -624.878E-03
           14505         74.8179         49.2207         86.0971    -184.071E-03
           14506         74.8949         49.2854         86.1849     89.5145E-03
           14507         72.4238         49.9844         83.0475    -564.461E-03
           14508         73.3081         49.6819         84.1930    -248.024E-03
           14509         73.7229         49.8557         84.6805     406.571E-03
           14510         72.8272         50.1598         83.5331     90.1069E-03
           14511         70.0126         52.2486         79.5499    -92.7391E-03
           14512         69.2298         52.8331         78.3675    -343.512E-03
           14513         68.7511         52.6130         77.7474        -1.21906
           14514         69.5187         52.0298         78.9271    -969.652E-03
           14515         67.7466         54.0450         75.9761    -911.966E-03
           14516         67.3733         53.8173         75.4669        -1.73485
           14517         68.0478         53.2208         76.6076        -1.46518
           14518         68.4321         53.4496         77.1141    -641.939E-03
           14519         66.5986         55.5445         73.8065    -881.181E-03
           14520         65.9647         56.2171         72.5682        -1.21236
           14521         65.6621         55.8959         72.1482        -2.20507
           14522         66.2791         55.2229         73.3848        -1.87529
           14523         64.6030         58.5618         69.2579        -1.04537
           14524         64.4181         58.2869         69.0164        -1.98501
           14525         64.8846         57.6263         70.1749        -1.69504
           14526         65.0765         57.9025         70.4086    -757.146E-03
           14527         63.0407         63.3699         62.5795         1.61757
           14528         62.9048         63.3959         62.3942     395.474E-03
           14529         63.1754         62.5050         63.8101     572.026E-03
           14530         63.3349         62.4860         64.0032         1.79877
           14531         62.7280         65.8259         58.9709         1.41383
           14532         62.7300         65.1961         59.8278         1.37769
           14533         62.8218         65.2923         59.6628         2.54072
           14534         62.8162         65.9185         58.7835         2.58477
           14535         62.7775         66.8185         57.7281     599.184E-03
           14536         62.9115         67.6082         56.7775     801.190E-03
           14537         62.9363         67.7305         56.6752    -195.713E-03
           14538         62.8085         66.9399         57.6302    -397.727E-03
           14539         64.1771         71.2322         52.2210         3.53380
           14540         64.1042         71.2805         52.4810         2.24049
           14541         63.6921         70.2410         53.5724         2.29906
           14542         63.7648         70.1939         53.3148         3.59029
           14543         65.1247         73.1717         50.1999         3.66560
           14544         64.6797         72.4388         51.1402         2.90410
           14545         64.5534         72.0640         51.3503         3.53895
           14546         64.9876         72.7662         50.4053         4.30396
           14547         69.9473         80.3883         44.1532         3.17535
           14548         70.0945         80.6691         44.2433         2.40434
           14549         69.2023         79.4765         45.0169         2.81188
           14550         71.2874         81.7878         42.3613         4.57547
           14551         71.8546         82.5563         42.0024         4.11893
           14552         71.2496         81.9697         42.8174         3.36037
           14553         70.6722         81.1932         43.2020         3.80906
           14554         75.1217         86.4134         39.6615         3.17548
           14555         74.2168         85.4166         40.3747         3.19811
           14556         74.4303         85.4994         39.8099         4.02528
           14557         75.3460         86.4996         39.0884         4.00296
           14558         77.5348         88.7344         37.2146         4.28714
           14559         78.5060         89.7990         36.6534         3.97114
           14560         78.0876         89.4974         37.2930         3.40308
           14561         77.1194         88.4352         37.8569         3.71269
           14562         81.8585         93.3569         34.8549         2.85013
           14563         80.9717         92.4902         35.4940         2.88685
           14564         80.9941         92.4182         35.1900         3.30591
           14565         81.8750         93.2756         34.5469         3.26911
           14566         82.6272         94.1819         34.5692         2.43519
           14567         81.9210         93.5123         35.1263         2.40722
           14568         82.5690         94.0284         34.2950         2.87838
           14569         85.0142         96.4847         32.9604         1.99170
           14570         84.6287         96.1626         33.3831         1.87452
           14571         84.3139         95.8050         33.4012         2.20630
           14572         84.7042         96.1312         32.9787         2.32879
           14573         85.7356         97.3371         33.1051     909.426E-03
           14574         85.3458         96.9420         33.2671         1.21733
           14575         85.7583         97.3104         32.8886         1.14357
           14576         86.2738         97.8671         32.8210     165.995E-03
           14577         86.0341         97.6908         33.2176     63.1637E-03
           14578         85.8279         97.5216         33.4826     222.363E-03
           14579         86.0652         97.6963         33.0852     325.453E-03
           14580         86.0591         97.6789         33.0341    -401.684E-03
           14581         85.8120         97.4835         33.3846    -435.949E-03
           14582         85.7504         97.4595         33.5907    -244.843E-03
           14583         85.9962         97.6543         33.2406    -209.704E-03
           14584         85.4118         97.0824         33.5570    -797.797E-03
           14585         85.7348         97.3400         33.1209    -891.291E-03
           14586         85.5930         97.1671         33.0550        -1.14735
           14587         85.2695         96.9098         33.4906        -1.05349
           14588         84.0066         95.6631         34.1877        -1.56804
           14589         84.3978         96.0706         34.0531        -1.33074
           14590         84.7386         96.3283         33.5415        -1.57511
           14591         84.3473         95.9208         33.6765        -1.81104
           14592         81.6065         93.2653         35.5706        -2.11621
           14593         82.0367         93.6016         34.9625        -2.51173
           14594         81.3877         92.8926         35.1703        -2.88838
           14595         80.9607         92.5621         35.7822        -2.49001
           14596         79.0499         90.3979         36.3707        -3.74655
           14597         79.6814         90.9719         35.7453        -3.97226
           14598         79.2358         90.4084         35.8064        -4.46189
           14599         78.5873         89.8186         36.4388        -4.23003
           14600         77.7606         89.0265         37.1891        -4.03226
           14601         76.9037         88.2038         37.9945        -3.73902
           14602         77.2671         88.7182         38.1051        -3.04957
           14603         78.1153         89.5373         37.3019        -3.34373
           14604         73.6247         84.6404         40.5628        -3.85169
           14605         74.5479         85.5936         39.6336        -4.19120
           14606         74.3758         85.2748         39.5222        -4.76851
           14607         73.4521         84.3271         40.4546        -4.43470
           14608         70.2897         80.5787         43.3419        -4.53265
           14609         69.6195         79.7813         44.0946        -4.29740
           14610         69.7443         80.0689         44.2082        -3.58556
           14611         70.4061         80.8615         43.4520        -3.82762
           14612         69.0024         78.9756         44.7683        -4.30492
           14613         69.8344         79.8376         43.6064        -5.25097
           14614         69.2049         79.0221         44.2746        -5.26814
           14615         64.6943         72.3799         51.0951        -3.36912
           14616         64.3301         71.7699         51.9493        -2.38772
           14617         64.7195         72.6271         51.3486        -1.47700
           14618         65.0609         73.2317         50.4972        -2.45397
           14619         63.6548         69.2304         53.9790        -5.23876
           14620         63.4172         68.9275         54.6482        -4.12623
           14621         63.6477         69.8079         53.7131        -3.75886
           14622         63.8945         70.1223         53.0488        -4.86822
           14623         62.9948         68.0114         56.2819    -991.339E-03
           14624         63.1958         68.8354         55.3214        -1.00284
           14625         63.2061         68.7870         55.2422        -1.96636
           14626         63.0036         67.9635         56.2010        -1.95628
           14627         62.8259         64.2204         61.2533        -1.23536
           14628         62.7838         64.8092         60.3909        -1.67257
           14629         62.9302         64.4273         60.9604        -2.62494
           14630         62.9715         63.8483         61.8176        -2.18591
           14631         62.8849         63.0278         62.7173     701.316E-03
           14632         63.0971         62.5375         63.6419    -92.4439E-03
           14633         63.1228         62.1345         64.0487     629.370E-03
           14634         63.6874         60.2230         66.5847         1.37595
           14635         64.1079         59.9227         67.5979     295.245E-03
           14636         64.2318         59.3363         68.1768     858.366E-03
           14637         63.8214         59.6380         67.1605         1.93802
           14638         64.3655         58.7829         68.7029         1.40945
           14639         64.7440         59.0369         69.2385    -169.358E-03
           14640         64.8685         58.4840         69.7662     379.352E-03
           14641         66.5019         55.8407         73.5549     672.874E-03
           14642         66.4482         55.5514         73.5681         1.14762
           14643         65.9371         55.9027         72.6226         1.66782
           14644         65.9765         56.1906         72.5986         1.19884
           14645         68.3443         53.1658         77.0539         1.10609
           14646         67.5888         53.6347         75.8361         1.62176
           14647         67.8715         53.9429         76.1855     843.458E-03
           14648         68.6462         53.4719         77.4070     326.198E-03
           14649         69.1920         51.0049         78.5895         2.46088
           14650         69.5631         51.2344         79.0982         1.83407
           14651         70.3224         50.7798         80.2003         1.54042
           14652         69.9445         50.5518         79.6959         2.16688
           14653         71.6145         49.8475         82.0100         1.43807
           14654         72.5326         49.6150         83.2163         1.02513
           14655         72.1335         49.3857         82.7116         1.61881
           14656         72.7790         49.1135         83.5471         1.61339
           14657         73.7290         49.1708         84.7413         1.14123
           14658         73.4514         49.0873         84.3876         1.48750
           14659         73.7664         49.4618         84.7298         1.50226
           14660         74.0763         49.3118         85.1410         1.30554
           14661         74.9554         49.6524         86.2013     891.850E-03
           14662         74.6408         49.8021         85.7903         1.08882
           14663         75.1282         50.5803         86.3091     849.206E-03
           14664         75.9435         51.2387         87.2434     526.271E-03
           14665         75.5327         51.6785         86.6763     590.939E-03
           14666         77.3370         55.2435         88.3847    -123.093E-06
           14667         76.6135         54.2241         87.6463     112.067E-03
           14668         77.0745         53.3232         88.3698     132.434E-03
           14669         77.7889         54.3398         89.1093     20.5132E-03
           14670         75.8586         53.1399         86.8721     310.943E-03
           14671         76.1188         55.0162         86.8712     2.50790E-03
           14672         78.4678         55.2755         89.8122     8.02847E-03
           14673         78.7968         54.2161         90.3883     65.7866E-03
           14674         78.0379         53.2606         89.5779     27.1507E-03
           14675         77.7013         54.3173         89.0029    -31.0940E-03
           14676         79.1279         53.1336         90.9383     213.618E-03
           14677         79.4884         52.3383         91.4642     404.162E-03
           14678         78.6650         51.5588         90.5416     322.966E-03
           14679         78.3037         52.3460         90.0192     132.715E-03
           14680         78.5621         50.4942         90.5075     529.044E-03
           14681         78.9163         50.1723         90.9489     800.581E-03
           14682         78.2414         49.8222         90.1696     674.083E-03
           14683         77.8870         50.1477         89.7253     404.285E-03
           14684         76.2483         49.2398         87.8275     252.499E-03
           14685         76.5538         49.1829         88.1911     670.695E-03
           14686         75.7577         49.1810         87.2377     400.958E-03
           14687         75.4580         49.2290         86.8744    -20.6281E-03
           14688         75.9974         49.2079         87.5133     805.235E-03
           14689         75.1280         49.3087         86.4603     489.977E-03
           14690         75.9061         49.7097         87.2347         2.39399
           14691         75.1452         50.0635         86.2796         2.29051
           14692         74.6643         50.0336         85.7490         1.71609
           14693         75.4299         49.6934         86.7132         1.83826
           14694         71.3336         51.8238         81.3352     905.799E-03
           14695         72.1520         51.3102         82.4670         1.12100
           14696         72.6299         51.4167         83.0036         1.78935
           14697         71.7942         51.9124         81.8655         1.56865
           14698         70.8281         53.6772         80.0421         2.89123
           14699         69.7912         53.8502         78.7558         1.77979
           14700         70.4398         53.1285         79.8276         1.61251
           14701         71.4908         52.9554         81.1171         2.72412
           14702         69.3319         54.5514         77.8920         2.08228
           14703         70.0928         54.5133         78.7846         3.11419
           14704         69.3739         55.2954         77.5325         3.21719
           14705         68.6222         55.3326         76.6400         2.18385
           14706         67.6889         56.9815         74.5073         3.11441
           14707         68.2606         57.1387         74.9678         4.39960
           14708         67.3303         57.9801         73.2631         4.16313
           14709         66.7758         57.8242         72.8026         2.88082
           14710         65.9922         58.6296         71.2265         2.60130
           14711         66.4492         58.7617         71.5615         3.94059
           14712         65.7021         59.5366         69.9796         3.71292
           14713         65.2626         59.4070         69.6462         2.37309
           14714         63.9759         61.7106         65.5696         3.24979
           14715         63.5903         62.4596         64.2263         3.11251
           14716         63.7072         61.7359         65.3479         1.93625
           14717         63.3162         64.2699         60.9575         5.17144
           14718         63.5350         63.7169         61.8907         5.47338
           14719         63.7243         63.8230         61.5009         6.58835
           14720         63.5080         64.3867         60.5785         6.27984
           14721         62.9266         65.7947         58.7901         3.76881
           14722         62.9906         66.5022         57.7729         4.06542
           14723         62.8655         66.6270         57.7627         2.88290
           14724         64.6936         69.9744         52.0252         8.61499
           14725         65.3773         70.3211         50.9404         10.2696
           14726         65.6864         71.7529         49.5668         9.41496
           14727         65.0182         71.3901         50.6566         7.76970
           14728         67.3286         75.2801         46.2798         8.33038
           14729         66.7303         74.7178         47.2272         7.49413
           14730         66.4030         73.8286         47.8272         8.21108
           14731         67.0019         74.3849         46.8827         9.04643
           14732         70.2005         78.8614         42.3126         9.22799
           14733         71.4134         80.0411         40.7781         9.90556
           14734         71.6639         80.8209         40.6692         8.88133
           14735         70.4594         79.6395         42.1847         8.20766
           14736         74.0893         83.7828         38.3292         8.40379
           14737         73.8831         83.9154         38.8394         7.47521
           14738         72.6685         82.6185         40.0896         7.29972
           14739         72.8654         82.4904         39.5839         8.22795
           14740         75.1845         85.3067         37.6330         7.51858
           14741         74.8000         85.2091         38.3408         6.61856
           14742         73.5165         83.8209         39.5469         6.57357
           14743         79.0312         89.7338         35.0332         6.05833
           14744         78.4658         89.3550         35.8153         5.48053
           14745         77.5613         88.3726         36.4264         5.72271
           14746         78.1185         88.7481         35.6444         6.30151
           14747         81.2247         92.4610         34.5334         4.03572
           14748         81.6764         92.9773         34.4057         3.71731
           14749         80.5398         91.9025         35.3264         3.61536
           14750         84.4936         95.7166         32.4952         3.26031
           14751         84.0173         95.3609         33.0996         2.94556
           14752         83.3358         94.6442         33.3956         3.30454
           14753         83.8156         95.0012         32.7822         3.62911
           14754         86.0579         97.3754         31.9381         2.15631
           14755         86.0583         97.3080         31.7423         2.47508
           14756         86.5541         97.7720         31.4049         2.34560
           14757         86.5525         97.8372         31.6010         2.02800
           14758         86.4736         97.8193         31.8189         1.74479
           14759         87.0224         98.2783         31.2894         1.85411
           14760         86.9445         98.2611         31.5088         1.57065
           14761         87.6138         98.9257         31.1832     878.771E-03
           14762         87.4424         98.8023         31.4143     642.055E-03
           14763         87.0693         98.4604         31.6819     871.252E-03
           14764         87.2411         98.5836         31.4512         1.10778
           14765         87.6208         98.9549         31.2470    -581.685E-03
           14766         87.2680         98.6463         31.5534    -736.143E-03
           14767         87.1113         98.5326         31.7646    -432.441E-03
           14768         87.4644         98.8410         31.4585    -278.157E-03
           14769         86.4144         97.8533         32.1528        -1.24277
           14770         86.0067         97.5089         32.5818        -1.23928
           14771         86.0645         97.6092         32.7141    -916.150E-03
           14772         86.4729         97.9552         32.2857    -919.550E-03
           14773         84.6957         96.1774         33.1662        -2.08966
           14774         84.2262         95.6956         33.3734        -2.33141
           14775         83.8771         95.4383         33.8842        -2.05099
           14776         83.1141         94.4817         33.6920        -3.12449
           14777         82.7620         94.0865         33.7834        -3.39237
           14778         82.1272         93.5568         34.4748        -3.10091
           14779         82.4847         93.9605         34.3948        -2.82274
           14780         80.6482         91.8074         34.7498        -4.40758
           14781         79.9811         91.1375         35.2144        -4.48064
           14782         80.3465         91.6443         35.2901        -3.90032
           14783         77.3313         88.2058         36.7357        -5.49737
           14784         78.4736         89.3669         35.8131        -5.46482
           14785         78.7817         89.4359         35.1495        -6.21599
           14786         77.6289         88.2713         36.0759        -6.25609
           14787         74.7045         84.6953         37.9677        -7.78031
           14788         75.9309         85.9513         36.7669        -7.87902
           14789         76.0757         85.6622         36.2063        -8.94638
           14790         74.8385         84.4012         37.4104        -8.85393
           14791         72.6561         82.1976         39.7599        -8.36245
           14792         72.7131         82.5713         39.9578        -7.56996
           14793         73.6610         83.5416         38.9296        -7.82045
           14794         73.6049         83.1638         38.7313        -8.60989
           14795         67.5307         76.5488         46.2096        -5.84948
           14796         66.7636         75.5182         47.3158        -5.44044
           14797         66.8001         75.8423         47.4691        -4.36099
           14798         67.5516         76.8738         46.3624        -4.76852
           14799         65.3230         73.4116         49.7716        -4.25961
           14800         65.1555         72.7056         50.0635        -5.55782
           14801         64.4954         71.6694         51.3955        -4.65986
           14802         65.1463         70.6401         50.9370        -9.26702
           14803         65.0892         69.3993         52.0757        -10.3679
           14804         64.4070         68.8060         53.3510        -8.91706
           14805         64.4799         70.0351         52.2110        -7.81794
           14806         63.3862         66.9079         56.6969        -6.32655
           14807         63.1304         66.7278         57.3067        -4.92395
           14808         63.2157         67.9476         55.7901        -4.38258
           14809         63.4685         68.1418         55.1760        -5.78372
           14810         63.2862         63.3177         62.7434        -3.26825
           14811         63.3437         62.7902         63.5740        -2.58107
           14812         63.0416         63.3196         62.6516        -1.49671
           14813         63.8258         62.2001         64.7422        -3.66503
           14814         63.7062         62.7579         63.6590        -4.56678
           14815         64.3691         62.1421         64.8727        -5.90464
           14816         64.4673         61.5878         65.9533        -5.00196
           14817         68.1573         57.0748         74.9307        -4.08004
           14818         67.9534         56.7038         75.0030        -3.15413
           14819         66.9556         57.2585         73.4488        -2.26230
           14820         67.1274         57.6241         73.3684        -3.18425
           14821         70.7330         54.3670         79.5630        -3.77364
           14822         70.3511         54.1947         79.2437        -3.01242
           14823         69.7467         54.6123         78.3421        -2.77225
           14824         70.1126         54.7804         78.6494        -3.54017
           14825         69.8138         53.2214         79.0224    -928.664E-03
           14826         70.2052         53.4866         79.4053        -1.81441
           14827         71.1116         52.9616         80.6836        -2.25198
           14828         70.7003         52.6994         80.2946        -1.36173
           14829         72.4298         50.7775         82.9311    -629.866E-03
           14830         73.3246         50.5341         84.0629        -1.19252
           14831         73.3189         50.2984         84.1091    -804.188E-03
           14832         72.4115         50.5383         82.9551    -236.721E-03
           14833         75.1882         49.4584         86.5001        -1.00416
           14834         74.2301         49.6079         85.3341    -410.632E-03
           14835         74.1852         49.7645         85.2523    -711.318E-03
           14836         75.1545         49.6103         86.4264        -1.30755
           14837         76.9233         49.1977         88.6347    -657.429E-03
           14838         76.0651         49.2162         87.6068    -356.385E-03
           14839         76.3301         49.1417         87.9224    -751.163E-03
           14840         77.1949         49.1220         88.9505        -1.05208
           14841         77.4980         49.4496         89.3076    -590.210E-03
           14842         78.3099         49.6385         90.2590    -836.422E-03
           14843         78.0483         49.9282         89.9337    -539.076E-03
           14844         77.2409         49.7397         88.9821    -292.793E-03
           14845         78.2283         51.2981         90.0375    -243.690E-03
           14846         78.5428         50.6823         90.4701    -473.983E-03
           14847         79.2808         51.1373         91.3186    -608.935E-03
           14848         78.9654         51.7526         90.8867    -378.531E-03
           14849         79.5122         55.1279         91.1476    -5.88153E-03
           14850         78.8839         54.2807         90.4875    -70.7198E-03
           14851         79.2834         53.2064         91.1208    -225.536E-03
           14852         79.9042         54.0498         91.7827    -161.157E-03
           14853         79.6471         52.3784         91.6529    -425.515E-03
           14854         78.5992         52.5810         90.3542    -178.800E-03
           14855         80.4788         54.8066         92.3957     10.9200E-03
           14856         80.7996         53.7219         92.9206     235.088E-03
           14857         80.1635         52.9588         92.2234     379.432E-03
           14858         79.8361         54.0417         91.6997     159.075E-03
           14859         80.5192         52.1570         92.7263     618.166E-03
           14860         81.1205         52.6582         93.4117     515.725E-03
           14861         81.4595         51.8453         93.8773     789.179E-03
           14862         80.8607         51.3444         93.1917     892.345E-03
           14863         80.2423         50.9593         92.4771     918.119E-03
           14864         79.5904         50.4898         91.7308     883.099E-03
           14865         79.1946         51.0687         91.2205     607.637E-03
           14866         79.8473         51.5378         91.9674     643.870E-03
           14867         78.9162         49.2838         90.9817         1.30669
           14868         79.2425         49.0722         91.3568         1.66456
           14869         78.4696         49.0189         90.4533         1.49933
           14870         78.1481         49.2309         90.0789         1.14168
           14871         80.6132         48.2471         92.8293         3.27495
           14872         79.7972         48.4354         91.8787         3.16696
           14873         79.4991         48.5772         91.5784         2.73144
           14874         80.3167         48.3892         92.5353         2.83973
           14875         76.7471         49.3969         88.2542         2.62952
           14876         77.0480         49.4950         88.5251         3.24025
           14877         76.2087         49.8065         87.5161         2.99345
           14878         77.7245         49.3943         89.2411         3.88724
           14879         78.6176         49.2250         90.1839         4.61085
           14880         77.7477         49.6748         89.1085         4.59170
           14881         76.8466         49.8446         88.1450         3.86932
           14882         72.8265         53.3330         82.3197         4.93688
           14883         73.8506         53.0773         83.4566         5.81286
           14884         73.2968         53.7678         82.4727         6.16659
           14885         72.2768         54.0265         81.3361         5.28549
           14886         71.5180         55.5246         79.4652         6.56743
           14887         71.5642         54.9624         79.9792         5.76602
           14888         73.3414         54.1689         82.2003         6.84334
           14889         73.3075         54.7277         81.6976         7.64831
           14890         72.4863         56.2353         79.4745         9.03570
           14891         73.2419         56.3750         79.7650         10.3365
           14892         72.0521         57.0735         77.9925         10.0432
           14893         71.3111         56.9345         77.7089         8.74428
           14894         67.5518         58.9651         72.1396         6.73187
           14895         66.7174         59.6734         70.4753         6.55836
           14896         66.1603         59.6082         70.2222         5.12208
           14897         66.9840         58.8987         71.8869         5.29527
           14898         67.1540         60.6895         67.3455         11.2278
           14899         66.3765         61.4029         65.5768         10.9818
           14900         65.6548         61.5656         65.6432         9.17555
           14901         66.4185         60.8546         67.4097         9.42099
           14902         64.1326         63.0693         62.8214         7.09045
           14903         64.4912         63.2280         62.1580         8.71492
           14904         64.0694         63.9948         60.8357         8.20034
           14905         64.5003         65.3187         57.8786         10.3984
           14906         64.8656         66.2360         56.1467         11.3551
           14907         64.2971         66.9423         55.6073         9.71515
           14908         63.9639         66.0263         57.3357         8.75940
           14909         66.5307         71.3910         48.8850         11.9703
           14910         65.5839         69.2694         51.6320         11.7423
           14911         66.7906         70.3371         49.5659         13.4564
           14912         70.2735         75.2902         42.8512         14.8301
           14913         69.9431         75.9560         42.8603         13.4315
           14914         68.6490         74.5164         44.8644         12.7844
           14915         68.9670         73.8476         44.8590         14.1819
           14916         73.6561         81.1169         37.7730         12.6821
           14917         72.1595         79.4342         39.6584         12.5783
           14918         72.6971         79.1512         38.9799         13.9742
           14919         74.2033         80.8335         37.0945         14.0779
           14920         76.3788         84.7201         34.9937         11.4940
           14921         76.0333         84.9280         35.6630         10.4121
           14922         74.4741         83.2703         37.2986         10.4424
           14923         74.8138         83.0630         36.6311         11.5252
           14924         77.1754         86.5946         34.9507         9.35241
           14925         75.6951         85.0405         36.3797         9.45391
           14926         77.5223         86.4844         34.2347         10.3103
           14927         80.9646         90.9220         32.2872         7.78039
           14928         82.3543         92.4095         31.3993         7.26613
           14929         81.6903         92.0384         32.3840         6.68551
           14930         80.3032         90.5495         33.2798         7.19532
           14931         83.9579         94.5572         31.3299         5.43930
           14932         84.8852         95.4231         30.6324         5.31117
           14933         85.0391         95.7604         30.9503         4.74347
           14934         84.1167         94.9001         31.6426         4.87243
           14935         87.7675         98.7967         30.3399         2.53733
           14936         87.8573         98.8057         30.0892         2.82603
           14937         88.4031         99.3642         29.8974         2.49901
           14938         88.3168         99.3561         30.1468         2.21104
           14939         88.1992         99.2993         30.3502         1.94659
           14940         88.7915         99.8409         29.9958         1.89618
           14941         88.6771         99.7848         30.1978         1.63250
           14942         88.8487         100.054         30.3879     305.206E-03
           14943         89.0903         100.275         30.2659     546.504E-03
           14944         89.3804         100.557         30.1563     260.655E-03
           14945         89.1419         100.337         30.2768     19.3673E-03
           14946         87.9227         98.7683         29.7823        -3.15104
           14947         87.2417         98.0833         30.0833        -3.48552
           14948         87.1194         98.0753         30.4385        -3.15164
           14949         87.8034         98.7611         30.1371        -2.81731
           14950         86.7020         97.2238         29.5422        -4.62724
           14951         85.8673         96.3793         29.9817        -4.99797
           14952         85.7591         96.4455         30.4642        -4.58105
           14953         86.5971         97.2907         30.0243        -4.21153
           14954         82.8814         93.1924         31.4599        -6.49607
           14955         82.8223         92.8425         30.9897        -7.22464
           14956         81.3931         91.4775         32.1487        -7.39448
           14957         81.4567         91.8308         32.6052        -6.66766
           14958         77.4739         87.0879         34.8664        -8.91963
           14959         77.2271         87.2163         35.5408        -8.04001
           14960         78.6114         88.6290         34.3230        -7.92863
           14961         78.8624         88.4995         33.6485        -8.80841
           14962         74.8438         83.3798         36.7263        -10.9972
           14963         74.9860         82.8141         36.3326        -12.2952
           14964         73.1023         80.9460         38.4948        -11.9142
           14965         72.9768         81.5151         38.8675        -10.6224
           14966         69.9644         77.3264         42.5106        -11.4846
           14967         70.5027         77.0072         41.9617        -13.0523
           14968         69.1405         75.3825         43.9355        -12.6429
           14969         68.6298         75.7032         44.4837        -11.0731
           14970         68.3346         73.2849         45.8074        -13.6336
           14971         68.9094         72.5916         45.8165        -15.3375
           14972         67.6317         71.0990         48.0841        -14.4410
           14973         67.0875         71.7922         48.0736        -12.7391
           14974         66.0826         70.6009         49.9452        -11.7485
           14975         66.4702         69.6751         50.4872        -13.3217
           14976         65.4319         68.4671         52.6178        -11.9379
           14977         65.8304         63.5330         60.2732        -12.8281
           14978         66.0937         64.4125         58.1233        -13.9637
           14979         67.4030         63.4880         59.0510        -16.0671
           14980         67.1028         62.6115         61.1991        -14.9335
           14981         64.7848         62.7973         62.8830        -9.09548
           14982         65.7938         62.0980         64.0082        -10.8072
           14983         65.9525         61.4592         65.6732        -9.92883
           14984         64.9654         62.1595         64.5473        -8.21732
           14985         66.5545         60.3052         68.9179        -8.14888
           14986         65.4954         60.8764         67.6272        -6.51075
           14987         65.1587         61.5154         66.0151        -7.40416
           14988         66.2347         60.9364         67.3001        -9.04640
           14989         66.5337         59.7676         70.1799        -6.42468
           14990         67.2693         59.6683         70.6594        -7.92099
           14991         68.4724         58.8828         72.7357        -8.43973
           14992         67.6711         58.9712         72.2290        -6.93261
           14993         72.3858         55.2818         80.4273        -7.33130
           14994         71.3487         56.2683         78.5677        -7.58292
           14995         73.2897         55.8537         80.5149        -9.41903
           14996         74.3607         54.8676         82.3867        -9.16245
           14997         70.7592         54.8900         79.2479        -4.60572
           14998         71.7158         54.7361         80.2986        -5.61199
           14999         72.2767         54.1239         81.2725        -5.41892
           15000         71.3185         54.2847         80.2226        -4.42314
           15001         73.8790         51.3926         84.3992        -3.22318
           15002         72.9765         51.8703         83.2257        -2.91383
           15003         73.4377         52.0198         83.6523        -3.69225
           15004         74.3555         51.5401         84.8318        -4.00653
           15005         75.3500         50.9781         86.1088        -4.23472
           15006         76.1721         50.4823         87.1686        -4.31412
           15007         75.5434         50.5165         86.5213        -3.63771
           15008         74.7317         51.0052         85.4660        -3.56231
           15009         77.2935         49.1722         88.9261        -2.65929
           15010         76.2394         49.4782         87.6836        -2.18859
           15011         76.3891         49.5983         87.7922        -2.71853
           15012         77.4553         49.2933         89.0386        -3.19526
           15013         79.6470         48.5371         91.7641        -2.65189
           15014         80.5025         48.4376         92.7638        -2.74382
           15015         80.2383         48.6232         92.4901        -2.35978
           15016         79.3876         48.7212         91.4922        -2.26753
           15017         80.9052         49.2198         93.2997        -1.86372
           15018         81.4080         49.3074         93.8858        -1.89406
           15019         81.1412         49.7901         93.5768        -1.57146
           15020         80.6405         49.6947         92.9916        -1.53573
           15021         80.2688         50.8456         92.5150    -957.983E-03
           15022         80.4443         50.1680         92.7522        -1.24856
           15023         81.2061         50.3776         93.6420        -1.31195
           15024         81.0277         51.0548         93.4055        -1.01668
           15025         81.2339         52.5010         93.5613    -561.710E-03
           15026         81.7380         53.1588         94.1174    -325.124E-03
           15027         81.3676         54.3240         93.5499    -10.8770E-03
           15028         80.8557         53.6645         92.9953    -248.789E-03
           15029         79.9999         51.4962         92.1534    -689.955E-03
           15030         80.6408         52.0306         92.8825    -665.691E-03
           15031         80.2903         52.9134         92.3822    -400.906E-03
           15032         82.9367         52.9974         95.5780     14.2018E-03
           15033         83.2314         52.0164         95.9922     373.307E-03
           15034         82.7901         51.7059         95.4777     698.768E-03
           15035         82.4908         52.6865         95.0636     342.251E-03
           15036         83.6238         52.1957         96.4516     14.3420E-03
           15037         83.9057         51.2876         96.8260     385.669E-03
           15038         83.5172         51.1082         96.3667     742.123E-03
           15039         82.8331         49.2351         95.5510         1.97355
           15040         83.3065         49.3701         96.1143         1.80570
           15041         83.6642         48.8483         96.5155         2.07512
           15042         83.1914         48.7133         95.9525         2.24341
           15043         82.4874         48.1825         95.0786         2.81719
           15044         83.0597         48.1878         95.7593         2.67323
           15045         83.4880         47.7947         96.2173         2.99008
           15046         82.9155         47.7905         95.5370         3.13506
           15047         81.4940         48.0088         93.8615         3.29759
           15048         81.8625         47.8132         94.2256         3.74746
           15049         80.9764         48.0499         93.1912         3.72467
           15050         80.1244         48.3681         92.1169         4.10063
           15051         80.7414         48.2458         92.7246         4.73395
           15052         79.6117         48.7246         91.3895         4.64756
           15053         79.0016         48.8465         90.7814         4.01494
           15054         81.6902         48.8337         93.0346         7.66704
           15055         80.4090         49.4446         91.5765         7.36097
           15056         80.2427         49.2473         91.5814         6.74752
           15057         81.5225         48.6298         93.0402         7.04997
           15058         75.5985         52.4337         85.4676         6.89233
           15059         76.2387         51.7190         86.5186         6.49798
           15060         77.5555         51.3437         87.9108         7.39437
           15061         76.9072         52.0626         86.8526         7.80174
           15062         75.6026         54.8030         83.3685         10.5026
           15063         75.1439         54.4350         83.4246         9.39851
           15064         76.6333         53.7652         85.1971         10.0673
           15065         77.1144         54.1276         85.1531         11.1791
           15066         74.2632         55.7765         81.2784         10.5078
           15067         75.1730         55.8007         81.7836         11.7231
           15068         74.1464         56.3974         80.2743         11.5516
           15069         73.2164         57.4854         77.3822         13.1200
           15070         72.1671         58.0552         75.5176         13.1525
           15071         70.9457         58.2475         74.8846         11.4697
           15072         71.9923         57.6753         76.7527         11.4340
           15073         68.1293         60.4317         67.3495         13.2123
           15074         68.0638         60.0206         69.2944         11.3664
           15075         69.0430         59.7644         69.2977         13.3481
           15076         67.8911         63.3400         58.9072         16.9152
           15077         67.0304         62.9923         60.4759         15.0247
           15078         68.2243         61.9035         62.0914         16.4403
           15079         69.1292         62.2528         60.5242         18.3309
           15080         67.4516         65.1871         55.7010         16.6207
           15081         66.6261         64.4465         57.7087         14.9945
           15082         68.7642         64.0733         56.8992         18.5412
           15083         69.7838         69.9355         47.6246         18.6311
           15084         68.3943         68.4560         50.3765         17.3430
           15085         69.7383         67.4813         50.7148         19.6640
           15086         71.1723         68.9588         47.9653         20.9534
           15087         75.0803         77.9562         37.0901         18.9351
           15088         74.0771         78.3820         37.7390         17.1027
           15089         72.4187         76.4358         40.2491         16.9167
           15090         73.4178         76.0094         39.6012         18.7488
           15091         77.4588         84.4517         33.2715         13.7916
           15092         78.2147         84.3900         32.1981         15.0151
           15093         79.8526         86.2406         30.4057         14.5682
           15094         79.0995         86.3024         31.4781         13.3465
           15095         76.8701         84.6072         34.1375         12.5637
           15096         78.4636         86.3255         32.5213         12.3050
           15097         77.9693         86.4380         33.3780         11.2356
           15098         79.4999         88.0634         31.9641         10.9275
           15099         79.0502         88.1103         32.8209         10.0025
           15100         81.4600         91.0751         31.3990         8.46242
           15101         81.9880         91.2153         30.3906         9.13446
           15102         83.4375         92.7217         29.3053         8.62021
           15103         82.8991         92.5747         30.3170         7.95101
           15104         84.3160         94.0041         29.2908         7.48164
           15105         83.7673         93.8437         30.3886         6.79778
           15106         82.9471         93.6697         32.2489         5.38376
           15107         82.5393         93.0259         32.0400         6.13469
           15108         83.5575         93.9179         31.1029         6.19189
           15109         86.7006         97.2231         29.5447         4.62575
           15110         86.6424         97.3348         29.9974         4.19499
           15111         85.8235         96.5164         30.4441         4.53721
           15112         85.8863         96.4063         29.9902         4.97033
           15113         86.5701         97.5218         30.6942         3.41991
           15114         85.8356         96.8107         31.1282         3.65211
           15115         85.8476         96.6972         30.8089         4.05850
           15116         86.5803         97.4077         30.3733         3.82733
           15117         87.1404         98.2581         30.8536         2.48165
           15118         87.1110         98.3033         31.0734         2.14899
           15119         86.5856         97.7274         31.1847         2.67879
           15120         89.2816         100.437         30.1283    -788.035E-03
           15121         88.9285         100.088         30.2506        -1.04860
           15122         88.7327         99.9254         30.3952    -769.741E-03
           15123         89.0891         100.276         30.2709    -509.555E-03
           15124         88.0522         99.3497         30.9566     117.935E-03
           15125         88.2963         99.5589         30.7488    -171.822E-03
           15126         87.9956         99.2935         30.9818    -384.440E-03
           15127         87.7504         99.0843         31.1895    -94.5341E-03
           15128         88.1388         99.2526         30.4104        -1.90482
           15129         88.6560         99.7694         30.2207        -1.60804
           15130         88.7914         99.8403         29.9943        -1.89827
           15131         88.2777         99.3245         30.1821        -2.19599
           15132         88.4962         99.6581         30.3996        -1.32566
           15133         89.0849         100.198         30.0735        -1.33041
           15134         87.6743         98.7208         30.4256        -2.51098
           15135         88.4030         99.3634         29.8956        -2.50198
           15136         84.9302         95.4343         30.5281        -5.38162
           15137         85.9730         96.2744         29.4346        -5.47735
           15138         85.0387         95.3287         29.9781        -5.86259
           15139         85.1758         95.2064         29.3497        -6.41685
           15140         84.0906         94.1131         30.0625        -6.81862
           15141         83.9466         94.2316         30.6928        -6.26156
           15142         84.3216         94.0197         29.3076        -7.46063
           15143         83.0534         92.7474         30.2314        -7.86824
           15144         81.6791         91.3538         31.3087        -8.28447
           15145         83.4253         92.7123         29.3134        -8.61497
           15146         82.0542         91.3231         30.3896        -9.03198
           15147         80.6030         89.8278         31.6183        -9.45680
           15148         82.5046         91.2870         29.4035        -9.88733
           15149         81.0503         89.7890         30.6314        -10.3145
           15150         78.3851         86.3621         32.6706        -12.1098
           15151         80.0369         88.1196         31.0113        -11.7168
           15152         80.6822         88.0529         29.9205        -12.8538
           15153         79.0292         86.2947         31.5799        -13.2504
           15154         74.4851         75.3408         39.3320        -20.7211
           15155         76.3651         77.6425         36.1879        -20.8441
           15156         78.2328         77.3791         35.0975        -23.2151
           15157         76.3421         75.0750         38.2436        -23.0970
           15158         73.6973         78.1654         38.1898        -16.8138
           15159         74.8472         77.8147         37.3707        -18.7828
           15160         73.0900         75.7932         40.0084        -18.5224
           15161         71.9599         76.1456         40.8250        -16.5534
           15162         68.7080         65.7317         54.0296        -18.5507
           15163         69.8010         67.1916         51.0786        -19.8368
           15164         71.7504         66.2004         51.5011        -22.5289
           15165         70.6028         64.7423         54.4508        -21.2412
           15166         70.5478         60.0097         66.0440        -18.0490
           15167         70.8492         60.5112         63.7408        -19.5972
           15168         73.4081         59.2813         65.5504        -22.0872
           15169         73.0541         58.7806         67.8534        -20.5436
           15170         73.8282         57.6451         76.3987        -15.2195
           15171         72.9628         58.0197         74.5706        -15.5249
           15172         74.6207         57.4965         75.8799        -17.0046
           15173         75.5083         57.1358         77.7263        -16.6992
           15174         74.7293         56.6472         80.0520        -12.9352
           15175         73.6405         57.2302         78.2162        -12.9896
           15176         75.3587         56.8290         79.6669        -14.4910
           15177         76.4761         56.2460         81.5106        -14.4412
           15178         72.3322         56.6473         78.7928        -9.62845
           15179         74.0848         56.3095         80.3891        -11.2851
           15180         75.0621         55.5180         82.1147        -11.0770
           15181         80.2359         51.7564         89.6762        -10.9326
           15182         78.9509         51.8533         88.6381        -9.72880
           15183         77.5943         52.7917         86.8036        -9.68781
           15184         78.8677         52.6981         87.8421        -10.8918
           15185         80.3063         49.8938         91.1828        -8.05946
           15186         81.7273         49.0852         92.8853        -8.19773
           15187         80.9662         49.0340         92.3082        -7.22550
           15188         79.5527         49.8419         90.6079        -7.08757
           15189         82.8798         47.7030         94.7892        -6.58839
           15190         82.2801         47.7485         94.2930        -5.80983
           15191         80.9749         48.3811         92.7887        -5.64749
           15192         81.5661         48.3313         93.2823        -6.42888
           15193         82.0365         47.6591         94.2622        -4.67875
           15194         82.9544         47.2927         95.2945        -4.84873
           15195         83.0185         47.2750         95.4513        -4.42161
           15196         82.1096         47.6461         94.4285        -4.25180
           15197         81.2010         48.2789         93.5722        -2.86018
           15198         80.5390         48.2954         92.7717        -3.05193
           15199         81.2346         48.1303         93.5745        -3.16885
           15200         81.7623         50.2635         94.2992        -1.42863
           15201         82.3139         49.7632         94.9520        -1.67715
           15202         82.5840         50.2165         95.2685        -1.45787
           15203         82.0389         50.7232         94.6171        -1.21578
           15204         82.9144         51.5869         95.6315    -714.843E-03
           15205         83.2945         51.9608         96.0704    -373.176E-03
           15206         82.9363         52.9923         95.5780    -12.1977E-03
           15207         82.5508         52.6168         95.1404    -358.079E-03
           15208         82.5288         51.2592         95.1822    -969.498E-03
           15209         82.1125         52.0643         94.6478    -669.093E-03
           15210         81.6173         51.5203         94.0838    -913.939E-03
           15211         84.2481         51.3490         97.2301     13.7803E-03
           15212         84.5156         50.5228         97.5665     384.675E-03
           15213         84.1766         50.4608         97.1628     754.225E-03
           15214         84.8087         50.4946         97.9125     12.9287E-03
           15215         85.0583         49.7607         98.2112     370.757E-03
           15216         84.7682         49.7879         97.8658     740.157E-03
           15217         84.4425         49.0539         97.4519         1.60909
           15218         84.7565         49.1092         97.8318         1.33293
           15219         85.0657         48.5402         98.1734         1.56628
           15220         84.7529         48.4851         97.7936         1.84265
           15221         84.7717         47.0350         97.6510         3.22691
           15222         85.2357         46.7121         98.1533         3.36564
           15223         85.0006         46.6393         97.8326         3.72003
           15224         84.5274         46.9552         97.3208         3.58103
           15225         84.0189         47.0076         96.6989         3.84574
           15226         84.6061         46.6511         97.2930         4.27236
           15227         83.8109         46.9177         96.3414         4.52586
           15228         83.2244         47.2710         95.7467         4.09712
           15229         84.6293         46.7086         96.8604         6.39574
           15230         85.1140         46.6621         97.2356         7.05891
           15231         83.9537         47.3148         95.8727         7.16808
           15232         83.4641         47.3601         95.4935         6.50229
           15233         84.3716         47.3863         96.1361         7.88440
           15234         83.1017         48.0924         94.6543         7.86823
           15235         82.6833         48.0220         94.3920         7.15231
           15236         82.5217         49.6666         93.0622         10.0758
           15237         82.1436         49.3639         93.0054         9.16315
           15238         83.9280         48.4371         95.0323         9.48157
           15239         84.3038         48.7397         95.0895         10.3954
           15240         79.7687         52.9533         88.2170         12.2221
           15241         81.4748         51.9985         90.3310         12.5392
           15242         82.6342         52.0557         91.0552         13.7539
           15243         80.9151         53.0086         88.9303         13.4514
           15244         84.0324         54.1725         88.6996         18.8347
           15245         82.0434         54.5555         87.1848         17.4169
           15246         83.9548         53.5248         89.9857         17.3449
           15247         85.9628         53.1440         91.5185         18.7381
           15248         74.7139         57.2170         78.3042         14.8005
           15249         76.4959         56.7578         79.2738         16.7854
           15250         75.3981         57.2323         77.1134         17.0904
           15251         73.6067         57.6943         76.1367         15.1127
           15252         80.3735         55.5635         79.7535         21.9344
           15253         77.5766         56.4914         78.0480         19.5312
           15254         78.6885         56.1955         80.7199         18.7469
           15255         81.4647         55.2738         82.4208         21.1647
           15256         82.7878         54.8584         73.2890         28.8306
           15257         81.9631         56.2285         67.8388         30.3791
           15258         77.3307         57.7045         67.4604         25.7687
           15259         78.3226         56.3490         72.8357         24.2101
           15260         71.4169         66.3262         51.4946         22.0980
           15261         73.7852         65.1665         52.0175         25.0436
           15262         75.5449         66.9216         48.5007         26.5955
           15263         73.1258         68.0797         47.9695         23.6447
           15264         76.6740         63.6175         53.4642         28.1339
           15265         81.1767         62.3506         53.7441         32.4787
           15266         83.7155         64.8076         48.4543         34.6441
           15267         79.1149         66.0271         48.2724         30.3131
           15268         74.8470         69.9794         44.6523         24.7377
           15269         72.8595         70.8577         44.6464         22.0449
           15270         78.6549         74.6784         37.3061         25.8453
           15271         76.4273         75.1333         38.1369         23.1447
           15272         74.5687         72.8126         41.5823         22.7848
           15273         76.7913         72.3528         40.7584         25.4932
           15274         76.4793         77.7149         36.0530         20.9087
           15275         78.2384         79.8690         33.3822         20.7688
           15276         76.8444         80.1084         34.4207         18.7999
           15277         85.3031         49.6723         98.4983     11.5191E-03
           15278         85.5330         49.0352         98.7618     345.417E-03
           15279         85.2911         49.1224         98.4756     702.206E-03
           15280         85.7267         48.9218         98.9864     10.1493E-03
           15281         85.9348         48.3834         99.2169     312.057E-03
           15282         85.7439         48.4950         98.9934     644.797E-03
           15283         85.4039         47.5018         98.4933         2.24204
           15284         85.0858         47.9844         98.1546         2.05361
           15285         85.3634         48.0047         98.4946         1.77638
           15286         85.6807         47.5220         98.8333         1.96464
           15287         86.3825         46.3007         99.5144         2.74714
           15288         86.1390         46.3136         99.2076         3.02754
           15289         85.8070         46.6765         98.8640         2.86822
           15290         86.0490         46.6658         99.1686         2.58819
           15291         86.5789         45.5349         99.4239         4.64141
           15292         85.9233         45.9507         98.7453         4.40129
           15293         86.4026         45.7437         99.3478         3.97805
           15294         87.0587         45.3296         100.026         4.21528
           15295         89.0259         44.4787         101.669         6.65091
           15296         88.1116         45.1019         100.545         7.18724
           15297         87.2740         45.4082         99.7451         6.70848
           15298         88.1887         44.7908         100.868         6.18116
           15299         86.3448         46.5925         98.1695         8.58829
           15300         87.7988         45.6722         99.8886         8.30811
           15301         88.6806         45.5843         100.593         9.17925
           15302         87.2289         46.5071         98.8725         9.45969
           15303         87.0205         47.8442         97.7441         11.6343
           15304         89.2301         46.5292         100.319         11.5598
           15305         90.2805         46.6932         100.955         12.8112
           15306         88.0776         48.0111         98.3755         12.8836
           15307         95.9517         45.3788         106.042         15.4347
           15308         97.5597         45.7678         106.880         17.2380
           15309         94.5068         47.5952         103.217         17.5601
           15310         92.8698         47.1978         102.391         15.7677
           15311         92.1227         49.9443         99.3385         19.0211
           15312         90.8867         49.3470         99.1307         17.2257
           15313         95.7179         48.1951         103.434         19.3693
           15314         94.7034         50.8011         93.4212         28.3217
           15315         101.848         47.9595         99.9298         30.9818
           15316         102.118         46.8097         96.1497         34.1219
           15317         94.9724         49.7007         89.5813         31.5016
           15318         114.502         40.5366         98.7820         43.6425
           15319         104.068         45.4812         90.3585         39.6086
           15320         112.544         41.9070         104.710         38.0085
           15321         88.6566         52.3907         85.1886         27.8160
           15322         95.0017         49.4156         85.0298         34.4245
           15323         88.5870         52.1304         80.6086         30.7381
           15324         105.652         45.8521         83.6975         44.3187
           15325         96.4557         49.7742         78.4510         39.0577
           15326         88.3713         52.6782         75.6683         33.1404
           15327         98.1292         51.1996         71.6019         43.0004
           15328         89.7440         54.0846         68.8718         37.0154
           15329         91.9605         56.1667         62.1276         40.5451
           15330         83.7656         58.2389         61.1580         33.8938
           15331         86.0737         48.2806         99.3761     7.94075E-03
           15332         86.2583         47.8452         99.5759     259.017E-03
           15333         86.1222         47.9466         99.4183     559.706E-03
           15334         86.2628         47.4838         99.5505         1.04913
           15335         86.5572         47.0003         99.8607         1.21621
           15336         86.4042         47.0191         99.6706         1.53685
           15337         86.1094         47.5015         99.3610         1.36811
           15338         86.5155         46.6050         99.7465         2.01826
           15339         86.2134         47.0509         99.4345         1.84606
           15340         86.7065         46.5739         99.9839         1.70870
           15341         87.8732         45.2230         101.196         2.02264
           15342         88.2689         44.8735         101.614         2.01180
           15343         88.3340         44.7247         101.637         2.46227
           15344         87.9279         45.0770         101.209         2.46870
           15345         89.8169         43.5940         103.076         3.44170
           15346         89.7995         43.6191         102.992         3.93071
           15347         89.2610         43.9686         102.427         3.93945
           15348         89.2750         43.9386         102.508         3.44794
           15349         90.1398         43.4594         103.274         4.43833
           15350         90.4092         43.2325         103.673         3.59553
           15351         90.7710         43.0651         103.981         4.10715
           15352         91.3333         43.7207         103.815         7.99232
           15353         92.3601         42.8953         105.113         7.08321
           15354         93.8314         42.4307         106.502         7.75246
           15355         92.8012         43.2552         105.196         8.66221
           15356         92.9842         43.9783         104.855         10.4684
           15357         94.5796         43.8039         106.155         11.6576
           15358         92.6793         45.1590         103.816         12.3895
           15359         91.0711         45.3278         102.518         11.1992
           15360         100.803         43.6932         110.894         16.3289
           15361         103.127         43.9964         112.381         18.3883
           15362         99.9299         46.0852         108.346         19.2905
           15363         110.002         44.4537         117.167         23.1280
           15364         115.051         41.2294         124.131         20.3816
           15365         121.681         41.3383         129.786         23.2250
           15366         116.192         44.5127         122.310         25.8434
           15367         133.433         36.1649         135.718         31.5452
           15368         121.322         40.3217         120.738         33.5849
           15369         118.133         44.6481         122.272         28.6961
           15370         130.309         40.8454         137.033         26.6541
           15371         109.093         46.9657         111.047         29.3225
           15372         106.890         47.4345         111.110         26.4600
           15373         86.5213         47.4479         99.8650     2.62299E-03
           15374         86.6326         47.2397         99.9841     76.0743E-03
           15375         86.6056         47.2474         99.9526     255.919E-03
           15376         86.4931         47.4599         99.8327     182.011E-03
           15377         86.8998         46.7471         100.262     499.948E-03
           15378         87.1012         46.4995         100.481     276.053E-03
           15379         87.3221         46.1704         100.710     478.332E-03
           15380         87.1180         46.4171         100.488     706.659E-03
           15381         87.4516         46.0272         100.852     229.420E-03
           15382         87.7164         45.6765         101.126     361.509E-03
           15383         87.5859         45.8202         100.984     612.786E-03
           15384         88.2492         44.9497         101.627         1.57474
           15385         87.7934         45.4407         101.159         1.46736
           15386         87.8719         45.4312         101.266         1.03851
           15387         88.3252         44.9384         101.733         1.14472
           15388         91.4846         42.4996         104.882         2.60753
           15389         91.5854         42.3658         105.042         1.77004
           15390         92.4980         41.8459         105.960         1.93637
           15391         92.3992         41.9822         105.800         2.77626
           15392         97.2157         39.3977         110.728    -402.329E-03
           15393         97.9520         39.2044         111.462         1.09208
           15394         96.4206         39.8808         109.931         1.39464
           15395         95.6737         40.0673         109.193    -87.2613E-03
           15396         98.3603         40.2074         111.305         6.94262
           15397         101.409         39.2459         114.285         7.47442
           15398         100.799         40.2352         113.225         9.61560
           15399         97.7454         41.1815         110.246         9.02142
           15400         123.420         37.4785         134.246         16.7063
           15401         116.955         38.6080         127.560         16.7457
           15402         116.337         36.4741         128.388         11.5914
           15403         122.866         35.3221         135.027         11.3359
           15404         146.134         47.4132         162.710         10.7598
           15405         141.163         41.8751         154.115         17.0827
           15406         139.622         36.5450         152.706         11.8310
           15407         145.718         41.4208         161.576         5.88370
           15408         129.760         40.8575         138.728         23.0245
           15409         141.360         41.7747         152.827         20.5400
           15410         86.6142         47.3421         99.9669    -4.57345E-03
           15411         86.6303         47.3178         99.9842    -100.093E-03
           15412         86.6953         47.1653         100.052    -111.640E-03
           15413         86.6769         47.1929         100.033    -17.0531E-03
           15414         87.1376         46.4235         100.515    -526.869E-03
           15415         87.0174         46.6365         100.393    -343.448E-03
           15416         86.8291         46.9136         100.190    -453.802E-03
           15417         86.9494         46.6980         100.313    -639.412E-03
           15418         87.5112         45.9352         100.913    -261.397E-03
           15419         87.3756         46.1319         100.773    -91.9217E-03
           15420         87.1860         46.3859         100.572    -221.394E-03
           15421         87.3214         46.1900         100.712    -391.044E-03
           15422         89.1486         43.9838         102.564        -1.25889
           15423         89.5189         43.7064         102.963    -856.859E-03
           15424         89.0488         44.1809         102.493    -632.962E-03
           15425         88.6810         44.4577         102.096        -1.03548
           15426         93.5483         40.9974         106.996        -1.72223
           15427         93.9493         40.8288         107.443    -869.113E-03
           15428         92.9716         41.3585         106.464    -764.198E-03
           15429         92.5710         41.5282         106.017        -1.61792
           15430         95.1190         40.2786         108.612        -1.05590
           15431         94.3983         40.5858         107.846        -1.83216
           15432         95.3028         40.1724         108.724        -2.28321
           15433         96.0152         39.8557         109.486        -1.51110
           15434         104.012         37.1246         117.472     728.283E-03
           15435         101.615         37.8118         115.083        -1.02782
           15436         103.452         37.2711         116.797        -2.87744
           15437         105.790         36.5749         119.206        -1.11831
           15438         115.990         34.3434         129.244         1.72307
           15439         111.313         35.2071         124.632        -1.37128
           15440         114.274         34.7421         127.307        -4.74412
           15441         118.780         33.8091         131.983        -1.67890
           15442         128.633         34.0095         141.355         8.48331
           15443         136.205         33.8673         149.766         3.96937
           15444         132.242         36.9227         143.727         16.0625
           15445         142.811         35.9482         156.893        -6.50720
           15446         131.453         34.9730         143.178        -13.7064
           15447         133.869         31.4500         142.809        -18.5102
           15448         145.075         32.0533         157.202        -10.7341
           15449         148.300         43.1659         165.041         2.25919
           15450         139.452         34.3657         153.351        -2.48670
           15451         86.3370         48.0053         99.6709    -13.0652E-03
           15452         86.2785         48.0250         99.6031    -279.162E-03
           15453         86.4401         47.6160         99.7739    -453.701E-03
           15454         86.4975         47.5999         99.8420    -188.091E-03
           15455         86.1801         48.0292         99.4851    -608.476E-03
           15456         86.1283         47.9175         99.4135    -929.859E-03
           15457         86.4364         47.3171         99.7415        -1.07377
           15458         86.4816         47.4307         99.8082    -752.090E-03
           15459         86.3199         46.6861         99.5269        -2.03753
           15460         86.7467         46.1768         99.9861        -2.04188
           15461         86.7027         46.4805         99.9725        -1.75132
           15462         86.2819         46.9910         99.5171        -1.74765
           15463         87.6022         44.9015         100.817        -2.62664
           15464         87.4041         45.2432         100.642        -2.38906
           15465         86.9550         45.5331         100.138        -2.57172
           15466         87.1551         45.1908         100.317        -2.81296
           15467         87.8162         44.6214         101.015        -2.82845
           15468         88.2542         44.3563         101.506        -2.59857
           15469         88.0525         44.6382         101.323        -2.39367
           15470         91.8917         41.7996         105.123        -3.65514
           15471         91.9013         41.8196         105.211        -3.02685
           15472         91.0639         42.2779         104.341        -3.13134
           15473         91.0429         42.2654         104.239        -3.75535
           15474         93.1164         41.1893         106.355        -3.80762
           15475         93.4728         41.0756         106.595        -4.68728
           15476         94.7596         40.4792         107.958        -4.31820
           15477         94.4000         40.5931         107.704        -3.43953
           15478         98.6767         39.0115         111.856        -4.73169
           15479         96.6909         39.7582         109.830        -4.91444
           15480         96.7156         39.9340         109.627        -6.29770
           15481         98.7040         39.1947         111.671        -6.12897
           15482         100.633         38.9671         113.211        -8.23348
           15483         101.447         38.2361         114.433        -6.05771
           15484         97.9637         39.9236         110.497        -8.26164
           15485         111.022         38.8818         119.642        -19.5930
           15486         105.006         40.7663         114.200        -18.0576
           15487         99.7565         42.7456         107.653        -19.4648
           15488         105.470         41.1476         113.061        -20.8180
           15489         118.586         37.5799         127.667        -19.5683
           15490         122.705         35.9531         133.384        -16.0001
           15491         114.376         37.5282         124.822        -16.0976
           15492         118.032         27.6771         102.510        -42.7954
           15493         113.943         30.1652         106.611        -36.1625
           15494         100.968         36.5422         96.2013        -32.2488
           15495         104.882         34.1181         92.1464        -38.6824
           15496         80.3031         45.7141         80.4030        -22.8744
           15497         85.3316         43.5511         84.1151        -25.6433
           15498         85.3556         44.3464         86.7200        -23.4117
           15499         80.4229         46.4862         82.9995        -20.6259
           15500         71.5645         50.0405         76.3350        -14.2623
           15501         69.7528         50.8420         75.0943        -12.3739
           15502         68.9896         50.8610         73.4933        -13.0307
           15503         70.8340         50.0538         74.7363        -14.9153
           15504         64.5636         52.8870         70.1758        -7.26092
           15505         63.6166         53.3523         68.9589        -6.43923
           15506         63.6802         53.2214         68.4139        -7.81609
           15507         64.6831         52.7603         69.6539        -8.63219
           15508         61.5563         54.5696         66.0768        -4.12200
           15509         61.3792         54.6339         65.2329        -5.51193
           15510         62.4754         53.9168         66.7986        -6.72471
           15511         62.5929         53.8578         67.6367        -5.33072
           15512         59.9752         56.0203         63.1469        -1.70481
           15513         60.3822         55.5582         63.8060        -3.31804
           15514         60.8507         55.0741         64.9979        -2.86511
           15515         60.4563         55.5273         64.3387        -1.26153
           15516         59.9625         56.3610         62.7467         2.46695
           15517         60.2409         55.9146         63.4372         2.90440
           15518         60.1024         56.2727         62.6875         3.81025
           15519         59.8201         56.7196         61.9972         3.37322
           15520         60.4400         55.8818         62.3535         6.49835
           15521         60.4741         55.7537         62.8003         5.94756
           15522         60.6790         55.2852         63.3348         6.20942
           15523         60.6450         55.4147         62.8876         6.75929
           15524         60.1717         57.4727         59.7167         7.82118
           15525         60.1226         58.1734         58.8233         8.00720
           15526         59.9443         58.3146         58.9630         7.17615
           15527         60.0048         57.6152         59.8632         6.98789
           15528         60.7532         59.6763         56.2148         10.3967
           15529         60.5978         58.9333         57.0756         10.0829
           15530         60.7141         58.5143         57.1008         10.6926
           15531         60.8700         59.2577         56.2400         11.0061
           15532         61.3991         59.7632         54.6843         12.5956
           15533         61.3736         60.2560         54.6409         12.1484
           15534         61.1427         59.5483         55.4359         11.8378
           15535         61.1702         59.0524         55.4789         12.2864
           15536         62.0247         60.3854         52.5559         14.2847
           15537         61.8456         59.8821         52.9860         14.1940
           15538         61.7954         59.5177         52.8994         14.4502
           15539         61.9699         60.0220         52.4607         14.5408
           15540         61.7313         59.0402         52.4797         14.9365
           15541         61.9016         59.5355         52.0589         15.0172
           15542         61.9658         59.8588         52.2175         14.7840
           15543         61.7930         59.3610         52.6417         14.7011
           15544         61.8439         59.3127         49.7800         16.1370
           15545         62.2320         60.2793         49.9039         15.8851
           15546         61.9981         59.6273         50.5581         15.7784
           15547         61.6220         58.6633         50.4340         16.0305
           15548         60.7206         59.1048         45.4030         16.4896
           15549         61.1995         59.7708         45.7540         16.4737
           15550         60.9622         59.0687         46.0952         16.5860
           15551         60.4868         58.4027         45.7431         16.6019
           15552         60.9200         60.7526         44.0195         15.8844
           15553         60.4801         60.6253         43.3961         15.6002
           15554         61.2659         62.1483         43.4678         15.3091
           15555         61.6937         62.2729         44.0845         15.5994
           15556         59.5703         60.5579         42.1418         14.8037
           15557         58.7679         59.1107         41.8941         15.0650
           15558         58.1504         58.8655         41.2522         14.6390
           15559         58.9644         60.3107         41.5023         14.3761
           15560         57.4211         61.0076         39.8452         11.8107
           15561         56.5522         59.8238         39.2496         11.9275
           15562         56.3002         60.0846         39.0210         11.2764
           15563         57.1801         61.2709         39.6171         11.1549
           15564         54.6534         58.9494         37.7890         10.1914
           15565         55.0439         59.8145         38.0679         9.65928
           15566         55.7483         60.3470         38.5959         10.0932
           15567         55.3717         59.4890         38.3318         10.6158
           15568         55.6870         61.7825         38.7573         7.66712
           15569         54.8516         60.4227         37.9693         8.37325
           15570         53.8869         59.8073         37.2709         7.45751
           15571         54.7622         61.1684         38.0588         6.75401
           15572         56.9355         64.9432         41.3281     25.2232E-03
           15573         57.9629         66.0233         42.2370         1.32753
           15574         56.8575         64.7185         40.7865         2.60754
           15575         55.7460         63.6408         39.8773         1.30245
           15576         54.7339         61.8856         38.3101         4.80113
           15577         55.7659         62.6649         39.1043         5.89547
           15578         53.6802         60.3930         37.2583         5.66287
           15579         61.3452         69.5907         46.2443     18.0344E-03
           15580         62.2928         70.6361         46.9263         1.08801
           15581         61.1638         69.4111         45.2945         2.26985
           15582         60.1558         68.3684         44.6115         1.19923
           15583         59.3133         66.9645         42.5877         4.89809
           15584         60.7538         68.4756         43.7822         5.26781
           15585         60.4894         67.8049         43.1127         6.48099
           15586         59.0342         66.2912         41.9261         6.11148
           15587         65.5462         73.9622         50.8913     14.2769E-03
           15588         66.3572         74.9165         51.2649         1.04772
           15589         65.2238         73.7698         49.5310         2.06062
           15590         64.3598         72.8149         49.1550         1.02939
           15591         70.7743         79.5788         51.5378         6.36079
           15592         69.9131         78.4370         50.3066         7.08583
           15593         69.4914         78.1038         50.5976         6.34020
           15594         70.3779         79.2394         51.8335         5.61902
           15595         70.4306         78.6881         49.6112         8.39012
           15596         70.1859         78.5965         50.0323         7.69804
           15597         70.9326         79.5944         50.8519         7.25208
           15598         71.1637         79.6897         50.4320         7.94450
           15599         75.0096         84.2344         51.2029         8.60842
           15600         75.5219         84.9504         51.6491         8.30594
           15601         75.6424         85.0604         51.2868         8.53696
           15602         75.1226         84.3333         50.8353         8.83541
           15603         76.1401         85.6716         50.1434         8.92949
           15604         76.6833         86.4569         50.7944         8.50474
           15605         77.0134         86.9364         50.6273         8.39382
           15606         76.4698         86.1523         49.9781         8.81919
           15607         77.2008         87.7556         47.5026         7.55074
           15608         77.1404         87.5802         47.7866         7.78797
           15609         77.7114         88.3569         48.2116         7.47398
           15610         77.7748         88.5316         47.9304         7.23668
           15611         78.1825         89.5065         46.5964         5.78929
           15612         77.8780         89.1765         46.1657         5.72009
           15613         77.3927         88.4934         46.0601         6.13811
           15614         77.7020         88.8275         46.4905         6.20588
           15615         76.8530         88.2363         44.1872         4.73061
           15616         77.1302         88.5361         44.5254         4.83113
           15617         77.4056         88.9391         44.3907         4.43482
           15618         77.1323         88.6408         44.0525         4.33670
           15619         76.0824         87.6938         40.6201         1.86715
           15620         76.3993         88.0686         40.8343         1.78490
           15621         76.4036         88.0772         40.5165         1.51795
           15622         76.0862         87.7028         40.3015         1.60016
           15623         76.3857         88.0283         39.2905     487.464E-03
           15624         76.1645         87.7562         38.9500     543.366E-03
           15625         76.1656         87.7725         39.2719     796.254E-03
           15626         76.3894         88.0471         39.6129     744.300E-03
           15627         75.9540         87.4389         37.8311    -240.324E-03
           15628         75.9651         87.4360         37.6446    -74.9562E-03
           15629         76.0836         87.6054         38.0871    -59.4190E-03
           15630         76.0752         87.6103         38.2733    -226.277E-03
           15631         75.5728         86.8685         36.2488    -71.9378E-03
           15632         75.5339         86.8689         36.6819    -193.951E-03
           15633         75.3720         86.6873         36.6497    -185.381E-03
           15634         75.4160         86.6925         36.2146    -60.0527E-03
           15635         73.7498         84.8595         36.3043     474.341E-03
           15636         73.5164         84.5695         36.0617     803.357E-03
           15637         73.9490         84.9840         35.4981     971.547E-03
           15638         74.1787         85.2736         35.7410     642.478E-03
           15639         74.1407         85.0122         34.3581         1.83839
           15640         73.5366         84.4310         35.0023         1.74736
           15641         73.3699         84.1787         34.7297         2.19376
           15642         73.9770         84.7595         34.0849         2.28505
           15643         73.1803         83.7677         34.0452         3.22137
           15644         72.3135         82.9012         34.8352         3.21582
           15645         72.3671         82.8442         34.4352         3.68827
           15646         73.2275         83.6970         33.6396         3.69640
           15647         71.6251         81.5722         33.8992         5.54397
           15648         71.0613         80.8412         34.1518         6.02569
           15649         71.8600         81.4667         33.0930         6.52859
           15650         72.4239         82.1962         32.8373         6.05012
           15651         71.4176         79.3593         31.7374         10.2301
           15652         71.0489         79.4175         32.4516         9.39731
           15653         69.9200         78.2029         33.6229         9.52239
           15654         70.2813         78.1430         32.9081         10.3558
           15655         69.3253         72.8734         33.7198         16.4895
           15656         70.6848         72.8174         32.3186         18.2833
           15657         72.5210         74.9027         29.7625         18.1876
           15658         71.1430         74.9631         31.1604         16.3989
           15659         68.6953         68.1484         36.9929         20.2268
           15660         70.6341         67.9884         35.6635         22.5061
           15661         72.4780         70.3414         32.4417         22.6177
           15662         70.5111         70.5004         33.7769         20.3464
           15663         68.4908         58.7015         47.9617         24.2227
           15664         70.4093         60.2230         44.7910         25.9607
           15665         68.5347         61.3257         44.2948         23.7385
           15666         66.6926         59.8136         47.4740         22.0306
           15667         69.4658         54.2676         55.2381         24.6774
           15668         68.3679         55.8261         52.9475         23.8749
           15669         65.4374         55.8243         54.8936         20.1394
           15670         66.5034         54.3153         57.1707         20.8910
           15671         82.3060         44.4561         75.8161         28.4039
           15672         81.3311         45.4531         70.3220         30.5500
           15673         76.2193         47.4464         70.0420         25.6617
           15674         77.4911         46.4638         75.4731         23.4986
           15675         92.1120         44.8950         63.7518         41.9003
           15676         82.9115         47.3562         63.0841         34.8307
           15677         89.9123         42.9140         71.0715         37.6006
           15678         76.3120         49.1928         62.6179         29.2284
           15679         86.2537         49.9062         55.7041         39.2688
           15680         79.1122         51.6709         55.3161         33.6017
           15681         85.7242         49.3031         98.9856    -16.9695E-03
           15682         85.5779         49.2817         98.8137    -387.855E-03
           15683         85.8251         48.5741         99.0857    -714.473E-03
           15684         85.9686         48.5960         99.2584    -346.352E-03
           15685         85.5335         48.3304         98.7195        -1.38501
           15686         85.3331         48.2091         98.4701        -1.67468
           15687         85.7273         47.4689         98.8894        -1.90868
           15688         85.9261         47.5908         99.1399        -1.61692
           15689         85.9946         46.9987         99.1673        -2.06252
           15690         85.4572         47.4826         98.5647        -2.11637
           15691         85.7321         47.0052         98.8508        -2.27486
           15692         86.8477         45.8901         100.065        -2.28224
           15693         86.4321         46.2361         99.6072        -2.35084
           15694         86.5328         45.8806         99.6755        -2.63768
           15695         86.9248         44.5666         99.8428        -4.11549
           15696         86.1184         45.0001         98.9739        -4.05696
           15697         86.0410         44.8536         98.8079        -4.47581
           15698         86.8463         44.4209         99.6743        -4.53570
           15699         89.6542         42.9141         102.614        -4.83776
           15700         89.4198         43.0905         102.453        -4.37139
           15701         88.5414         43.5314         101.494        -4.53899
           15702         88.7820         43.3522         101.660        -5.01019
           15703         88.5214         43.7914         100.551        -8.38875
           15704         90.2250         43.0800         102.350        -8.53059
           15705         90.0154         42.9844         102.360        -7.69063
           15706         88.3040         43.7021         100.555        -7.54795
           15707         91.5780         44.1090         102.038        -13.2901
           15708         88.9438         44.8496         99.5750        -12.2505
           15709         87.0710         45.8120         97.2321        -12.6878
           15710         89.6705         45.0810         99.6825        -13.7319
           15711         88.2300         46.2927         95.6717        -17.4866
           15712         88.4911         45.9524         94.8336        -19.0041
           15713         95.1802         43.9743         101.482        -20.7331
           15714         94.8891         44.2952         102.317        -19.1949
           15715         80.6653         47.0503         84.7780        -19.1022
           15716         84.8071         45.7074         88.4995        -20.9443
           15717         84.5639         46.5079         89.7650        -19.1928
           15718         80.4910         47.8596         86.0450        -17.3454
           15719         90.3396         43.5868         93.3871        -23.1713
           15720         96.1543         41.6866         98.8941        -24.8351
           15721         95.1102         43.1245         99.8451        -22.5311
           15722         89.3201         45.0957         94.2816        -20.8737
           15723         104.781         38.3369         107.589        -26.1952
           15724         99.1611         38.6146         98.6345        -28.4125
           15725         107.618         35.4118         107.139        -29.6798
           15726         84.8188         50.9866         97.9122    -16.7061E-03
           15727         84.5781         50.8494         97.6307    -411.222E-03
           15728         84.8770         49.9079         97.9887    -802.399E-03
           15729         85.1127         50.0441         98.2707    -410.270E-03
           15730         84.2968         50.6241         97.2980    -791.163E-03
           15731         83.9967         50.4144         96.9410        -1.07945
           15732         84.3357         49.5363         97.3365        -1.41055
           15733         84.6322         49.7458         97.6936        -1.12135
           15734         83.6542         50.1185         96.5348        -1.33770
           15735         83.2885         49.8997         96.1020        -1.51297
           15736         83.6191         49.1750         96.4823        -1.79469
           15737         83.9832         49.3916         96.9153        -1.62040
           15738         83.7086         47.0614         96.4697        -2.94138
           15739         84.0806         46.8225         96.8787        -3.04561
           15740         84.1615         46.9939         96.9909        -2.91396
           15741         83.7905         47.2300         96.5816        -2.81237
           15742         83.8571         45.8936         96.4512        -4.05991
           15743         83.8080         46.0645         96.4372        -3.83110
           15744         83.1095         46.2925         95.6591        -3.73398
           15745         83.1643         46.1192         95.6814        -3.96408
           15746         82.8238         45.8610         95.1159        -4.88588
           15747         81.6596         46.2463         93.7906        -4.84257
           15748         82.2085         46.0200         94.3040        -5.38604
           15749         83.3792         45.6328         95.6315        -5.42522
           15750         85.5360         45.6527         96.5902        -10.2009
           15751         87.6450         44.9121         98.7254        -10.8292
           15752         88.3061         44.3846         99.7344        -10.1275
           15753         86.1850         45.1269         97.5954        -9.49969
           15754         84.5601         46.2495         95.2635        -10.6793
           15755         83.5444         46.8183         93.9017        -11.0528
           15756         85.5570         46.1920         95.8899        -11.8430
           15757         86.5800         45.6202         97.2368        -11.4873
           15758         79.3392         48.8048         86.7182        -14.4340
           15759         80.3085         48.2810         86.8278        -16.0360
           15760         83.8150         47.3653         90.3607        -17.2856
           15761         82.8057         47.8576         90.2611        -15.6954
           15762         71.5103         50.8000         78.6868        -10.6264
           15763         73.0743         50.3666         80.1032        -11.8471
           15764         73.6839         50.2965         81.2491        -11.3243
           15765         72.1301         50.7297         79.8310        -10.1003
           15766         77.3182         49.3007         84.6080        -13.6660
           15767         75.1390         49.8994         82.5212        -12.4357
           15768         75.0802         49.7436         81.8856        -13.2995
           15769         77.2532         49.1549         83.9383        -14.5166
           15770         83.6518         52.7475         96.4515    -14.1311E-03
           15771         83.3146         52.4039         96.0680    -376.560E-03
           15772         83.6492         51.3093         96.5136    -757.707E-03
           15773         83.9798         51.6507         96.8978    -397.781E-03
           15774         82.9238         51.8976         95.6252    -714.568E-03
           15775         82.5240         51.4426         95.1670    -955.288E-03
           15776         82.9098         50.5611         95.6508        -1.25730
           15777         83.3035         51.0141         96.1084        -1.01550
           15778         82.0447         49.1311         94.6455        -1.80173
           15779         81.6518         49.3992         94.1909        -1.61007
           15780         81.3317         48.8788         93.8191        -1.77456
           15781         81.7304         48.6082         94.2771        -1.96434
           15782         80.2236         46.9070         92.4111        -3.18700
           15783         80.8486         46.8808         93.1335        -3.21476
           15784         80.3505         47.1562         92.6120        -2.75310
           15785         79.7170         47.1739         91.8769        -2.72371
           15786         80.0680         46.7327         92.0736        -4.17282
           15787         79.5966         46.8745         91.6226        -3.58043
           15788         78.4253         47.1587         90.2723        -3.39677
           15789         78.8917         47.0205         90.7254        -3.99294
           15790         81.8291         46.1836         93.7361        -5.93548
           15791         80.9587         46.5293         92.7274        -5.93028
           15792         81.5085         46.3858         93.2412        -6.40681
           15793         82.3826         46.0501         94.2500        -6.41445
           15794         78.0938         47.9321         89.0321        -6.87839
           15795         76.5841         48.5035         87.2712        -6.56323
           15796         77.4616         48.4381         87.9870        -7.62143
           15797         79.0031         47.8630         89.7664        -7.93935
           15798         78.2884         48.6889         88.1111        -9.74558
           15799         77.7458         49.0835         87.0451        -10.5017
           15800         80.7826         48.2150         90.1254        -11.8877
           15801         81.2949         47.8204         91.1727        -11.0985
           15802         76.2347         49.6733         84.1644        -12.1294
           15803         74.7733         50.0711         82.8742        -11.0362
           15804         66.5554         52.2565         73.1945        -7.44604
           15805         65.9567         52.3763         72.0812        -7.88793
           15806         67.0790         51.9405         73.0484        -9.30736
           15807         67.6572         51.8220         74.1575        -8.86262
           15808         82.2317         54.2765         94.6112    -12.7683E-03
           15809         81.7673         53.5696         94.1147    -315.814E-03
           15810         82.1234         52.3449         94.6412    -656.418E-03
           15811         82.5761         53.0505         95.1376    -355.342E-03
           15812         81.2478         52.7535         93.5566    -537.462E-03
           15813         80.6397         52.1336         92.8739    -618.286E-03
           15814         81.0058         51.0160         93.3845    -957.791E-03
           15815         81.6080         51.6307         94.0668    -878.886E-03
           15816         80.3956         49.8643         92.7164        -1.14147
           15817         79.7357         49.5950         91.9534        -1.01956
           15818         79.9149         49.0062         92.1803        -1.28746
           15819         80.5733         49.2746         92.9391        -1.40679
           15820         80.1018         47.7106         92.3812        -2.10337
           15821         79.2117         47.6526         91.3551        -1.93824
           15822         79.4351         47.3790         91.5904        -2.29618
           15823         80.3307         47.4313         92.6182        -2.46078
           15824         78.6044         47.4159         90.6322        -2.12901
           15825         78.8823         47.2091         90.9192        -2.55851
           15826         75.0168         47.8464         86.3627        -1.98879
           15827         76.1003         47.6465         87.6204        -2.48604
           15828         76.0579         47.5863         87.6212        -2.03630
           15829         74.9820         47.7841         86.3638        -1.53834
           15830         75.4479         47.9815         86.7265        -3.15879
           15831         74.5912         48.2836         85.6839        -3.05207
           15832         75.4105         48.1977         86.5434        -3.87969
           15833         76.2788         47.8911         87.5910        -3.98059
           15834         73.3534         48.9123         84.0570        -3.37344
           15835         72.2643         49.1862         82.7778        -2.72079
           15836         72.2319         49.4135         82.6081        -3.34721
           15837         73.3343         49.1380         83.8890        -4.00659
           15838         72.1993         49.6381         82.4217        -3.94591
           15839         72.2924         49.8147         82.3568        -4.64117
           15840         73.6399         49.4420         83.9045        -5.37776
           15841         73.5298         49.2647         83.9675        -4.68023
           15842         71.1934         50.9798         79.3500        -8.53187
           15843         71.0240         50.9814         79.4883        -7.73165
           15844         69.4237         51.4138         77.6212        -6.88039
           15845         69.5603         51.4112         77.4671        -7.68224
           15846         80.5364         55.3317         92.3954    -9.38954E-03
           15847         79.9434         54.4175         91.7838    -142.703E-03
           15848         80.3091         53.1464         92.3815    -367.796E-03
           15849         80.8905         54.0565         92.9943    -234.135E-03
           15850         79.6525         52.4642         91.6518    -369.225E-03
           15851         79.3075         53.4183         91.1254    -186.264E-03
           15852         78.6144         52.6500         90.3654    -117.081E-03
           15853         78.9642         51.6955         90.8920    -299.670E-03
           15854         79.2624         50.9591         91.3136    -510.822E-03
           15855         79.5126         50.1827         91.6630    -759.822E-03
           15856         80.2387         50.6777         92.4940    -869.601E-03
           15857         79.9878         51.4523         92.1444    -619.255E-03
           15858         78.4655         48.5345         90.5064    -913.434E-03
           15859         77.6859         48.3531         89.6001    -668.305E-03
           15860         77.9217         48.0445         89.8829    -993.008E-03
           15861         78.7054         48.2259         90.7886        -1.23774
           15862         74.3602         47.7309         85.6673     656.852E-03
           15863         74.5895         47.6786         85.9554     281.844E-03
           15864         75.4219         47.7631         86.9488    -52.6048E-03
           15865         75.1836         47.8170         86.6573     322.005E-03
           15866         75.0045         47.6967         86.4236        -1.12151
           15867         74.0485         47.8246         85.2859    -598.211E-03
           15868         74.0191         47.9121         85.2264        -1.01700
           15869         72.1677         48.1759         82.9732     82.9008E-03
           15870         71.3243         48.2535         81.9126     740.568E-03
           15871         70.8005         48.5413         81.2311     583.924E-03
           15872         71.6386         48.4667         82.2876    -75.6843E-03
           15873         70.6031         49.1897         80.8864    -670.193E-03
           15874         71.7076         48.8988         82.2766        -1.24928
           15875         71.4765         48.6959         82.0512    -499.302E-03
           15876         70.3901         48.9869         80.6625     80.3007E-03
           15877         68.4058         51.0280         77.5328        -2.61473
           15878         67.2593         51.3332         76.0616        -1.61719
           15879         66.9964         51.6295         75.5539        -2.26017
           15880         68.1588         51.3257         77.0246        -3.25842
           15881         65.5285         52.2685         73.4079        -1.84312
           15882         66.6688         51.9419         74.9134        -2.93802
           15883         65.8778         51.9587         74.0523        -1.16827
           15884         62.7998         53.6871         69.0023        -1.25393
           15885         62.0746         54.1235         67.7573    -192.800E-03
           15886         61.7110         54.4072         67.0124        -1.06330
           15887         62.4636         53.9734         68.2579        -2.12458
           15888         63.7536         53.2616         70.4527        -2.34947
           15889         63.3439         53.4876         69.5732        -3.28652
           15890         64.5547         53.0049         71.1853        -4.60472
           15891         64.9262         52.7797         72.0612        -3.66356
           15892         77.3968         55.6538         88.3847     251.874E-06
           15893         76.6569         54.4859         87.6556     134.610E-03
           15894         77.1063         53.4778         88.3861     176.673E-03
           15895         77.8331         54.6426         89.1163     42.8186E-03
           15896         76.1742         55.3766         86.8709     3.08363E-03
           15897         75.3984         54.1510         86.1138     222.605E-03
           15898         75.8950         53.2628         86.8974     353.484E-03
           15899         75.5472         49.8323         86.9066     840.411E-03
           15900         75.1920         50.2423         86.4231     948.347E-03
           15901         74.3929         49.6332         85.4922         1.31444
           15902         74.7472         49.2230         85.9759         1.20701
           15903         74.4984         48.2853         85.7619         1.22251
           15904         74.2495         48.4648         85.4303         1.43601
           15905         73.4394         48.1143         84.4463         1.84989
           15906         73.6837         47.9351         84.7781         1.63663
           15907         74.1208         47.7502         85.3612         1.04673
           15908         73.2961         47.6478         84.3511         1.41937
           15909         73.5302         47.6312         84.6594         1.02973
           15910         71.4093         47.8410         82.0167         1.58612
           15911         72.2194         47.7559         83.0443         1.22774
           15912         72.0410         47.6336         82.8082         1.65255
           15913         71.2419         47.7188         81.7861         2.00714
           15914         67.6611         49.5206         76.9541         2.20692
           15915         68.7013         49.2350         78.4229         1.50422
           15916         68.4909         48.9327         78.1268         2.29147
           15917         67.4777         49.2115         76.6642         2.99050
           15918         65.0858         51.6310         73.0324         1.57135
           15919         65.3358         51.3174         73.4376         1.90088
           15920         64.8114         51.4726         72.5768         2.54398
           15921         64.5606         51.7863         72.1748         2.21454
           15922         63.4466         52.8094         70.2848         1.67210
           15923         62.8935         53.2190         69.2898         1.80653
           15924         63.1820         53.2228         69.8090     690.098E-03
           15925         63.7464         52.8214         70.7969     547.967E-03
           15926         61.0341         54.8578         65.3449         3.18861
           15927         61.2070         54.5986         65.6558         3.62025
           15928         60.9387         54.9173         64.8372         4.25952
           15929         60.7550         55.1751         64.5189         3.83088
           15930         61.7322         54.2571         67.0850         1.46860
           15931         61.9540         53.9934         67.4997         1.94433
           15932         61.5753         54.2723         66.6155         2.81564
           15933         61.3426         54.5369         66.2013         2.34068
           15934         74.8586         54.8997         85.2713     5.55831E-03
           15935         74.0453         53.6184         84.4826     309.894E-03
           15936         74.6005         52.8720         85.3242     526.163E-03
           15937         73.4485         54.2229         83.5878     8.02760E-03
           15938         72.6027         52.8911         82.7712     397.582E-03
           15939         73.2166         52.2886         83.6650     698.745E-03
           15940         73.5135         50.4135         84.3046         1.35973
           15941         72.9776         50.7434         83.5915         1.29187
           15942         72.1798         49.8705         82.6905         1.72763
           15943         72.7206         49.5404         83.4040         1.79569
           15944         71.6461         47.4827         82.1959         2.90274
           15945         70.9003         47.2144         81.2371         3.35386
           15946         71.1265         47.2286         81.5436         3.17632
           15947         71.8775         47.4946         82.5035         2.72589
           15948         70.3798         47.0978         80.5627         3.60988
           15949         70.6089         47.1844         80.8803         3.36228
           15950         71.3639         47.3143         81.8645         2.92791
           15951         70.7508         47.4673         81.1104         2.81257
           15952         71.2024         47.5749         81.7199         2.31484
           15953         71.6887         47.5194         82.3371         2.18954
           15954         71.2202         47.4144         81.7133         2.67806
           15955         68.0205         48.3635         77.3949         3.69126
           15956         67.7300         48.6869         77.0002         3.50288
           15957         68.3485         48.7189         77.9070         2.83044
           15958         68.6345         48.3983         78.2959         3.02394
           15959         65.0952         49.5439         72.7698         5.55693
           15960         64.9727         49.2585         72.4856         6.09445
           15961         64.3920         49.5877         71.4194         6.53647
           15962         64.5091         49.8739         71.7114         6.00070
           15963         64.2899         51.2527         71.5927         4.08905
           15964         63.8181         51.4911         70.7041         4.58188
           15965         63.7006         51.8236         70.5656         4.06367
           15966         64.1766         51.5895         71.4497         3.56638
           15967         63.3338         51.8701         69.7674         4.89977
           15968         62.9831         52.2488         69.1174         4.86572
           15969         63.3495         52.2028         69.9278         4.02296
           15970         60.8482         55.0110         64.4088         4.86473
           15971         60.7597         55.1619         63.8797         5.53804
           15972         60.5161         55.5882         63.3214         5.24302
           15973         60.6021         55.4368         63.8443         4.56795
           15974         71.9431         53.3487         81.8218     10.5463E-03
           15975         71.0602         51.9611         80.9702     491.998E-03
           15976         71.7391         51.5063         81.9182     878.749E-03
           15977         70.3437         52.2820         79.9757     13.4314E-03
           15978         69.4223         50.8263         79.0869     606.081E-03
           15979         70.1620         50.5082         80.0799         1.08452
           15980         71.2246         48.1471         81.6238         2.72606
           15981         71.9498         48.8534         82.4934         2.23962
           15982         71.4000         48.9570         81.7973         2.22989
           15983         70.6735         48.2513         80.9276         2.71658
           15984         69.7378         46.8334         79.7181         4.02019
           15985         70.3322         47.1865         80.4989         3.57918
           15986         69.9539         47.1274         80.0227         3.65998
           15987         69.3603         46.7753         79.2395         4.10204
           15988         68.6844         46.6036         78.2410         4.84135
           15989         67.9509         46.5047         77.1843         5.37452
           15990         68.0470         46.7310         77.3162         5.22390
           15991         68.7850         46.8314         78.3746         4.69080
           15992         65.6332         46.6935         73.5397         7.14544
           15993         65.8558         47.0109         73.8899         6.85254
           15994         66.3175         46.8360         74.6571         6.51543
           15995         66.0905         46.5220         74.3064         6.80929
           15996         66.2540         47.9199         74.5916         5.88199
           15997         65.7371         47.8633         73.7045         6.47719
           15998         65.4569         48.3050         73.2535         6.42041
           15999         65.9629         48.3664         74.1321         5.82308
           16000         64.0766         49.4866         70.7512         7.12716
           16001         64.5189         49.0294         71.5904         6.91988
           16002         64.0804         48.8138         70.6765         7.71000
           16003         63.6627         49.2703         69.8507         7.91252
           16004         63.3978         50.8526         69.5503         6.65504
           16005         63.7949         50.4108         70.3612         6.44999
           16006         63.4868         50.3277         69.6241         7.16924
           16007         63.1018         50.7534         68.8134         7.37476
           16008         61.5943         53.7024         65.9061         5.93315
           16009         61.4552         53.7755         65.2522         6.73458
           16010         61.1604         54.2961         64.5170         6.66121
           16011         61.2911         54.2234         65.1700         5.86015
           16012         60.4487         56.8858         59.7195         9.10719
           16013         60.4746         56.3893         60.5787         8.63387
           16014         60.6163         55.8807         60.7859         9.19274
           16015         60.5848         56.3724         59.9184         9.66444
           16016         60.5020         55.8354         62.0649         7.21723
           16017         60.8014         55.0180         63.1611         7.19958
           16018         60.6546         55.4345         62.3326         7.65998
           16019         68.6526         51.0304         78.0519     16.2643E-03
           16020         67.6889         49.5154         77.1157     731.383E-03
           16021         68.4870         49.3134         78.1484         1.32296
           16022         68.4549         48.0579         78.2151         2.43298
           16023         67.7666         47.1379         77.3879         3.12764
           16024         68.6247         47.3060         78.4161         3.26371
           16025         69.3057         48.2287         79.2407         2.57258
           16026         68.8204         46.8761         78.6135         3.82508
           16027         69.3714         47.5096         79.3245         3.24236
           16028         68.0756         46.6708         77.7069         3.84721
           16029         66.4012         45.3212         75.3125         5.66846
           16030         65.8772         45.0821         74.5271         6.13648
           16031         66.2518         45.3194         74.9340         6.22651
           16032         66.7785         45.5339         75.7271         5.76162
           16033         65.0021         45.3586         72.7639         7.61024
           16034         65.4740         45.3661         73.5776         7.14202
           16035         65.1212         45.0522         73.1197         7.27493
           16036         64.6538         45.0472         72.3052         7.74512
           16037         64.8877         46.0596         72.3595         7.87154
           16038         65.3257         46.3917         73.0469         7.48732
           16039         65.8188         46.1635         73.9160         7.06356
           16040         65.3665         45.8325         73.2280         7.43950
           16041         63.8251         47.9653         70.1332         8.52988
           16042         64.2352         47.5872         70.9689         8.21049
           16043         63.9176         47.2358         70.3687         8.68719
           16044         63.5256         47.6100         69.5454         9.00520
           16045         63.2125         49.2785         68.8022         8.64440
           16046         63.3606         48.6511         69.1339         8.78591
           16047         62.7962         48.7371         67.8050         9.57711
           16048         62.6617         49.3651         67.4819         9.43434
           16049         61.6159         52.2764         64.6254         9.40982
           16050         61.7648         52.4691         65.3326         8.59233
           16051         62.2134         51.6267         66.6008         8.32473
           16052         62.0391         51.4362         65.8932         9.13867
           16053         60.8710         54.7553         61.9329         9.35608
           16054         60.9289         54.6031         62.5345         8.84781
           16055         61.0713         54.0585         63.0111         9.00479
           16056         61.0069         54.2196         62.4077         9.50563
           16057         60.6920         55.9379         59.9293         10.2514
           16058         60.6796         56.6446         58.9109         10.6443
           16059         60.5730         57.0816         58.9039         10.0573
           16060         65.0025         48.0074         73.9716     20.8055E-03
           16061         64.0044         46.5561         72.9641     867.318E-03
           16062         64.9353         46.6176         74.0828         1.70205
           16063         65.8936         48.0720         75.0907     855.407E-03
           16064         64.7775         45.4234         73.8578         3.30342
           16065         63.5423         44.4258         72.3498         3.81573
           16066         63.9198         44.3009         72.6674         4.54053
           16067         65.1317         45.2829         74.1754         4.01993
           16068         63.0111         43.6532         71.5178         4.89845
           16069         63.1958         43.5794         71.5707         5.51319
           16070         64.0921         44.2224         72.7191         5.16121
           16071         65.3367         44.7363         73.8793         6.17724
           16072         65.6787         44.9666         74.5081         5.49615
           16073         64.8027         44.4915         73.4169         5.66545
           16074         64.4711         44.2512         72.7909         6.34897
           16075         62.9910         44.2177         69.7280         8.82935
           16076         63.1066         43.9326         70.1928         8.34846
           16077         62.2719         43.4638         68.9547         8.77438
           16078         62.1759         43.7516         68.4929         9.25640
           16079         62.9866         45.2709         69.1238         9.47016
           16080         62.3817         44.8534         68.1323         9.89293
           16081         62.1084         45.2585         67.3588         10.3355
           16082         62.6971         45.6785         68.3512         9.91129
           16083         61.6955         46.2831         65.9358         11.0815
           16084         62.2309         46.6707         66.9643         10.5763
           16085         62.4339         46.1501         67.6244         10.2627
           16086         61.8816         45.7622         66.5975         10.7638
           16087         61.9176         47.6904         65.8632         10.9924
           16088         61.9380         48.2095         65.7654         10.9176
           16089         62.4125         48.0592         66.9755         10.3069
           16090         62.4006         47.5388         67.0735         10.3865
           16091         61.4301         50.4598         63.6985         11.3163
           16092         61.1803         50.4657         62.7298         11.9292
           16093         61.1227         51.1019         62.3125         11.9165
           16094         61.3515         51.0908         63.2679         11.3036
           16095         60.9133         56.9745         57.1085         12.3381
           16096         60.9342         56.5248         56.9453         12.8320
           16097         61.0544         57.3667         56.0800         13.0238
           16098         61.0337         57.8167         56.2401         12.5301
           16099         60.7546         56.2093         58.8726         11.1780
           16100         60.7752         55.5061         59.7639         10.9275
           16101         60.8176         55.1759         59.6361         11.3785
           16102         60.7987         55.8727         58.7477         11.6308
           16103         61.0277         44.3775         69.5950     17.9194E-03
           16104         60.0149         43.0455         68.5299     901.293E-03
           16105         61.0664         43.5474         69.7071         1.75252
           16106         62.0401         44.8782         70.7729     871.246E-03
           16107         59.7469         41.4279         67.7663         4.78041
           16108         60.3202         42.0990         68.6160         3.94616
           16109         59.3250         41.4498         67.5699         3.48512
           16110         58.7331         40.7853         66.7160         4.32599
           16111         61.1795         42.2932         69.2208         5.48526
           16112         61.7936         42.8714         70.1057         4.87226
           16113         61.1522         42.5173         69.4619         4.48118
           16114         60.5284         41.9338         68.5798         5.09454
           16115         61.9001         42.6570         69.8492         6.12766
           16116         61.2714         42.2481         69.0779         6.21662
           16117         61.2069         42.2004         68.7784         6.76807
           16118         61.8367         42.5933         69.5591         6.68023
           16119         59.9597         42.1182         65.4928         9.83788
           16120         60.7460         42.5800         66.6802         9.48716
           16121         60.6338         42.2369         66.8770         9.03038
           16122         59.8348         41.7745         65.6892         9.38355
           16123         59.2417         43.3247         62.5417         11.9818
           16124         59.9109         43.4525         63.9452         11.4133
           16125         59.4842         42.7142         63.7277         11.1763
           16126         58.7988         42.5814         62.3192         11.7485
           16127         60.6173         46.5930         63.1101         12.3983
           16128         60.5571         45.7900         63.5306         12.1569
           16129         60.0115         45.6493         62.2703         12.6823
           16130         60.0951         46.4523         61.8522         12.9239
           16131         60.2494         48.2377         60.8906         13.3251
           16132         59.8368         48.0030         59.7609         13.8262
           16133         59.8572         48.7840         59.1008         14.0627
           16134         60.2494         49.0175         60.2343         13.5603
           16135         60.5469         50.7534         59.9821         13.3724
           16136         60.6696         51.2814         60.1233         13.1582
           16137         60.7881         50.7907         60.9778         12.8362
           16138         60.6756         50.2677         60.8607         13.0382
           16139         60.7138         53.4537         58.4671         13.3634
           16140         60.7759         54.3616         58.1247         13.1630
           16141         60.8199         53.9866         59.1348         12.6500
           16142         60.7753         53.0823         59.4853         12.8455
           16143         61.0021         56.3009         55.0936         14.3524
           16144         61.2047         57.3117         54.4310         14.3547
           16145         61.2059         57.4799         54.8675         13.9709
           16146         61.0107         56.4694         55.5329         13.9705
           16147         60.9358         56.1759         56.5859         13.3447
           16148         60.8647         55.8639         57.5675         12.7234
           16149         60.8626         55.5121         57.2089         13.2361
           16150         56.7757         40.2090         64.9476     23.1491E-03
           16151         55.8086         39.0210         63.8836         1.10174
           16152         57.0198         39.8920         65.1658         2.07398
           16153         57.9316         41.0771         66.2289     994.565E-03
           16154         54.9072         37.9328         62.7966         2.20159
           16155         53.9754         36.9929         61.5793         3.20735
           16156         55.3520         38.0232         62.8881         4.25729
           16157         56.2235         38.9601         64.1020         3.24283
           16158         52.8399         36.0030         59.0054         6.79628
           16159         53.9641         36.9279         59.9131         7.55738
           16160         54.5638         37.3409         61.0636         6.69007
           16161         53.4799         36.4177         60.1574         5.93672
           16162         55.9940         39.1973         60.4426         10.2433
           16163         54.9117         38.3040         59.2802         10.0768
           16164         54.7486         38.4460         58.6051         10.6126
           16165         55.8318         39.3312         59.7716         10.7778
           16166         57.3592         42.9310         58.4694         13.3977
           16167         57.7902         43.7602         58.5556         13.6430
           16168         58.3882         43.8642         59.9318         13.1929
           16169         57.9742         43.0374         59.8452         12.9477
           16170         58.7027         44.6566         59.8785         13.4205
           16171         58.2146         44.5834         58.7010         13.8148
           16172         58.4801         45.3926         58.5030         14.0527
           16173         58.9494         45.4685         59.6801         13.6565
           16174         59.1600         47.8405         57.7837         14.5675
           16175         59.2821         48.6931         57.2060         14.7915
           16176         59.5443         48.7497         58.0377         14.4906
           16177         59.4457         47.9115         58.6231         14.2634
           16178         59.5498         50.0405         56.5413         14.9952
           16179         59.2231         49.1171         56.4874         15.0395
           16180         59.0977         49.6236         55.3389         15.4247
           16181         59.4375         50.5404         55.3889         15.3831
           16182         60.2924         53.4765         54.9155         15.2361
           16183         60.0096         52.6971         54.6605         15.4579
           16184         60.0529         53.1729         53.9684         15.6638
           16185         60.3454         53.9560         54.2319         15.4418
           16186         61.4809         58.1636         51.1443         15.8734
           16187         61.1052         57.1779         51.0994         16.0742
           16188         61.2346         57.6783         50.3887         16.2296
           16189         52.2988         35.6086         60.0439     22.8804E-03
           16190         51.3409         34.6227         58.9420         1.11546
           16191         52.7069         35.8789         60.3405         2.21342
           16192         53.5978         36.8652         61.4402         1.12307
           16193         51.0390         34.3220         58.0213         4.15991
           16194         50.3019         33.7674         56.8603         5.06548
           16195         51.6225         34.9164         58.0016         5.96507
           16196         52.3110         35.4700         59.1604         5.05922
           16197         50.9867         34.5435         56.8220         6.84307
           16198         52.2461         35.6322         57.8254         7.67400
           16199         54.0927         38.9125         56.1464         12.1685
           16200         54.2937         38.7367         56.9514         11.6894
           16201         53.5641         38.0592         56.2613         11.4969
           16202         53.3637         38.2152         55.4633         11.9812
           16203         56.1378         42.6850         55.7416         14.1616
           16204         56.8813         43.2780         56.8422         14.0414
           16205         56.8562         42.7876         57.3965         13.7035
           16206         56.1016         42.1927         56.2980         13.8211
           16207         55.6401         43.9673         52.7483         15.2699
           16208         56.3532         44.6235         53.7249         15.2255
           16209         56.2411         43.8913         54.4059         14.8835
           16210         55.5200         43.2405         53.4287         14.9264
           16211         57.7104         47.4785         53.6935         15.7330
           16212         57.2625         46.4833         53.7278         15.5892
           16213         56.8941         46.3906         52.8003         15.7736
           16214         57.3577         47.3882         52.7671         15.9210
           16215         58.7116         50.8129         52.1070         16.3061
           16216         58.2639         49.6852         52.2945         16.2236
           16217         57.9421         49.7666         51.1126         16.4497
           16218         58.4114         50.9007         50.9299         16.5279
           16219         60.1168         53.9966         52.6360         16.0209
           16220         59.9934         54.0159         51.8854         16.2484
           16221         60.3325         55.0592         51.4686         16.2614
           16222         60.4401         55.0396         52.2192         16.0304
           16223         61.3869         58.2793         49.6065         16.3514
           16224         60.6908         56.4192         50.2779         16.4217
           16225         60.8241         57.0159         49.4902         16.5450
           16226         60.7525         56.2123         51.2092         16.1992
           16227         60.2490         55.2591         50.5295         16.4859
           16228         47.6568         30.6970         54.9015     21.6726E-03
           16229         46.7504         29.9698         53.8208         1.11609
           16230         48.2219         31.5893         55.3216         2.20265
           16231         49.0562         32.3172         56.4018         1.10985
           16232         45.9507         29.3990         52.7544         2.24097
           16233         45.2617         28.9927         51.7314         3.25284
           16234         46.8405         30.6196         53.2309         4.19738
           16235         47.4685         31.0268         54.2538         3.18552
           16236         44.7104         28.7797         50.7446         4.32618
           16237         44.3102         28.7206         49.8808         5.26103
           16238         45.9323         30.2826         51.3799         6.02110
           16239         46.2892         30.3465         52.2458         5.08697
           16240         46.8082         32.5885         49.2863         10.1000
           16241         47.4303         32.9529         50.1827         9.98491
           16242         46.6536         32.0979         49.7915         9.40380
           16243         46.0200         31.7321         48.8929         9.51959
           16244         48.8517         35.3038         49.4721         12.0995
           16245         50.3051         36.6796         50.6137         12.6485
           16246         50.5324         36.2858         51.8267         11.9921
           16247         49.1038         34.9367         50.6834         11.4384
           16248         51.7714         39.1229         50.2875         14.0028
           16249         52.8101         40.0923         51.2753         14.2372
           16250         52.7175         39.4618         51.9979         13.7846
           16251         51.6804         38.4901         51.0071         13.5514
           16252         54.7325         42.4860         52.5128         14.8778
           16253         53.8837         41.6144         51.6536         14.7551
           16254         53.9539         42.2611         50.9295         15.0947
           16255         54.8071         43.1329         51.7926         15.2191
           16256         55.0962         45.7599         48.9146         16.1999
           16257         55.5933         45.6648         50.2978         16.0449
           16258         54.7195         44.3765         49.8690         15.8224
           16259         54.2005         44.4692         48.4795         15.9768
           16260         57.7961         50.5117         49.5472         16.7007
           16261         57.5412         49.6406         50.0618         16.5903
           16262         57.0143         49.1174         49.2847         16.6320
           16263         57.2747         49.9882         48.7743         16.7410
           16264         59.9776         55.0030         49.7624         16.6610
           16265         59.4349         54.2121         49.0581         16.7969
           16266         59.7669         55.2706         48.4047         16.8283
           16267         60.3099         56.0604         49.1124         16.6907
           16268         60.3882         57.2706         47.1394         16.7769
           16269         60.9032         58.0598         47.6122         16.6901
           16270         60.5995         57.0862         48.2637         16.7259
           16271         60.0896         56.2962         47.7908         16.8125
           16272         61.3823         58.8645         47.9776         16.5839
           16273         61.8661         59.7871         48.2684         16.4206
           16274         61.5995         58.9658         48.9377         16.4143
           16275         61.1269         58.0442         48.6455         16.5788
           16276         42.9124         25.5950         49.5418     24.0247E-03
           16277         42.0421         25.2010         48.4716         1.22280
           16278         43.6397         27.1984         50.1110         2.34506
           16279         44.4148         27.5906         51.1823         1.14879
           16280         41.2824         25.0343         47.3723         2.53761
           16281         40.7567         25.0876         46.4104         3.74700
           16282         42.5744         27.0455         48.1597         4.62838
           16283         43.0194         26.9855         49.1220         3.41899
           16284         42.8654         28.2252         47.2435         6.88685
           16285         43.3999         29.0358         47.1927         7.82300
           16286         44.8049         30.1854         48.6806         8.08219
           16287         44.2731         29.3774         48.7354         7.15668
           16288         43.0775         29.2947         46.0297         8.70218
           16289         42.0794         28.7766         44.6485         8.83034
           16290         43.1621         30.0006         45.1095         9.68466
           16291         44.1407         30.5289         46.4929         9.55993
           16292         46.8696         34.8814         45.6985         12.7243
           16293         45.8402         34.1779         44.5248         12.5499
           16294         46.3286         34.9917         44.3843         12.9748
           16295         47.3500         35.6802         45.5567         13.1530
           16296         49.3247         37.8592         46.6427         14.0229
           16297         48.1897         36.5643         46.0355         13.5313
           16298         47.6076         36.5168         44.8832         13.6321
           16299         48.7688         37.8201         45.5010         14.1250
           16300         51.7283         41.9829         46.1944         15.4780
           16301         51.3210         42.1472         45.1199         15.5277
           16302         52.3870         43.4613         45.7040         15.8431
           16303         52.7827         43.2998         46.7808         15.7934
           16304         54.6560         45.8274         47.7480         16.2832
           16305         53.7712         44.5854         47.3234         16.0615
           16306         53.3645         44.7412         46.2040         16.1080
           16307         54.2645         45.9849         46.6290         16.3298
           16308         56.5549         49.3926         47.6700         16.7425
           16309         55.8189         48.3071         47.2777         16.6417
           16310         55.6082         48.5963         46.3911         16.6630
           16311         56.3549         49.6789         46.7834         16.7664
           16312         58.5245         54.4977         45.8536         16.8472
           16313         59.0554         55.0250         46.5598         16.8713
           16314         58.7635         54.1050         47.0392         16.9131
           16315         58.2264         53.5751         46.3380         16.8857
           16316         59.5592         57.3883         44.7555         16.5254
           16317         59.1825         56.4001         45.0551         16.6608
           16318         58.6868         55.8965         44.5452         16.5868
           16319         59.0660         56.8884         44.2462         16.4506
           16320         61.1925         58.9747         46.9899         16.6300
           16321         60.6836         58.1895         46.6156         16.6934
           16322         61.4812         59.8610         46.4705         16.5213
           16323         38.1251         20.4446         43.9867     33.7191E-03
           16324         37.2266         20.5343         42.8768         1.43615
           16325         38.9078         22.9455         44.5836         2.74593
           16326         39.6391         22.8516         45.6922         1.34474
           16327         36.4160         20.7342         41.6842         2.76493
           16328         35.5409         20.8013         40.3149         3.81970
           16329         37.7110         23.4382         42.1744         5.24670
           16330         38.4326         23.3769         43.5390         4.19325
           16331         36.5285         24.8754         38.4781         8.00289
           16332         37.2479         24.8285         39.9175         7.49740
           16333         35.5849         22.9205         38.7911         6.46265
           16334         34.7895         22.9671         37.3506         6.96638
           16335         39.3912         28.6033         39.3410         10.1830
           16336         41.0388         30.2201         40.3682         10.9737
           16337         41.4266         29.9566         41.5281         10.6180
           16338         39.8177         28.3381         40.5018         9.82769
           16339         45.2165         35.0789         41.9999         13.2076
           16340         45.6921         34.8991         43.2233         13.0387
           16341         44.3144         33.4031         42.4899         12.4083
           16342         43.8109         33.5863         41.2638         12.5772
           16343         46.9856         36.4200         43.7244         13.6851
           16344         46.4880         36.5188         42.6149         13.7565
           16345         47.7526         37.9695         43.2080         14.2861
           16346         48.2266         37.8734         44.3168         14.2110
           16347         46.6556         38.1513         40.8709         14.2604
           16348         47.2553         38.1786         41.9908         14.3223
           16349         46.0505         36.6634         41.5614         13.8187
           16350         45.4203         36.6237         40.4445         13.7499
           16351         51.7149         43.9446         43.7073         15.8501
           16352         51.2845         44.1330         42.6477         15.7663
           16353         52.2504         45.4000         43.0831         16.0080
           16354         52.6623         45.2101         44.1367         16.0908
           16355         52.9556         46.9432         42.7368         16.1286
           16356         53.2758         46.7814         43.5442         16.2355
           16357         51.9185         45.5705         42.2669         15.9006
           16358         58.2028         54.8147         44.7131         16.6792
           16359         58.8463         55.4399         45.4540         16.7651
           16360         57.8798         53.8768         45.1069         16.7626
           16361         58.0894         56.3452         42.9341         16.0768
           16362         57.8306         55.5183         43.2209         16.2644
           16363         57.0549         54.6738         42.6050         16.1269
           16364         57.3119         55.5080         42.3136         15.9355
           16365         59.9587         58.4042         44.4753         16.3654
           16366         60.4075         58.8645         44.9606         16.4232
           16367         60.0097         57.8428         45.2463         16.5863
           16368         33.3436         15.3946         38.2595     29.9151E-03
           16369         32.2396         15.6637         36.9999         1.23909
           16370         33.8205         18.3557         38.6962         2.56878
           16371         34.7307         18.0908         39.9518         1.36103
           16372         32.8734         18.4494         37.3178         3.47140
           16373         31.2572         16.0409         35.7274         2.33458
           16374         30.3341         16.2916         34.4348         3.16122
           16375         32.0816         18.7010         36.0248         4.29797
           16376         33.0875         21.0015         36.1431         5.95701
           16377         32.3945         21.2081         34.8447         6.44099
           16378         34.1751         23.1685         36.0506         7.45538
           16379         37.2082         27.2585         36.9413         9.72508
           16380         35.2413         25.3256         35.6286         8.82199
           16381         34.9109         25.8996         34.3988         9.23072
           16382         36.9437         27.8624         35.7232         10.1277
           16383         36.5571         29.1282         33.5954         10.6128
           16384         36.8290         28.6238         34.6392         10.4671
           16385         35.2980         27.2901         33.6064         9.81371
           16386         35.0192         27.7813         32.5387         9.99578
           16387         43.2133         35.9101         37.3196         13.2319
           16388         42.9245         35.0659         37.7749         13.0456
           16389         41.4147         33.8105         36.5768         12.5279
           16390         41.6893         34.6391         36.1237         12.7083
           16391         44.1256         38.7747         35.8458         13.5226
           16392         45.9601         40.2086         37.4229         14.1404
           16393         45.5936         39.1358         37.8823         14.0789
           16394         43.7433         37.6973         36.3010         13.4546
           16395         50.5534         46.4419         39.0530         15.1367
           16396         50.3154         45.5234         39.4848         15.2501
           16397         49.1104         44.5078         38.4632         14.8704
           16398         49.3534         45.4279         38.0313         14.7577
           16399         53.4788         50.3411         40.3937         15.5732
           16400         53.1074         49.2566         40.7117         15.7275
           16401         51.9963         48.3688         39.6904         15.3680
           16402         52.3731         49.4529         39.3717         15.2125
           16403         55.3772         51.6935         42.4159         16.2063
           16404         54.7710         50.3417         42.6105         16.2789
           16405         54.0117         49.9251         41.6544         16.0131
           16406         54.6364         51.2773         41.4635         15.9445
           16407         58.4910         57.8993         42.3149         15.5813
           16408         57.9511         57.6855         41.6786         15.2519
           16409         59.2963         59.3258         42.5281         15.3934
           16410         58.3449         57.0615         42.7409         15.9185
           16411         57.8623         56.7463         42.2187         15.7187
           16412         58.9620         58.1973         42.8338         15.7868
           16413         23.7217         10.2239         26.8865         1.84303
           16414         24.8997         9.21020         28.1341     959.238E-03
           16415         23.8139         6.43489         26.3701     15.6468E-03
           16416         22.4017         7.45156         25.1208     903.375E-03
           16417         22.8683         11.1944         25.8251         2.56941
           16418         24.6892         13.5758         27.6671         3.43468
           16419         25.3764         12.6060         28.7257         2.70827
           16420         26.2629         16.4887         28.6504         4.81057
           16421         26.1398         17.2531         28.0353         5.27058
           16422         27.8543         18.8011         29.5465         5.91300
           16423         27.9345         18.0404         30.1647         5.45144
           16424         29.4530         21.7085         29.6636         7.30852
           16425         28.8725         21.7786         28.6987         7.31929
           16426         29.9454         22.7531         29.4754         7.76489
           16427         30.5019         22.6888         30.4189         7.75543
           16428         34.2358         28.4663         30.5159         9.98692
           16429         35.4472         28.8949         32.0361         10.3433
           16430         33.7384         27.1517         31.1065         9.62708
           16431         32.5193         26.7252         29.5946         9.27985
           16432         39.2622         33.3332         33.5146         11.8931
           16433         40.4358         33.8381         34.9311         12.2728
           16434         39.3610         32.4189         34.6475         11.8475
           16435         38.1633         31.9130         33.2355         11.4607
           16436         42.5502         37.6780         34.4234         12.9476
           16437         41.6991         36.3606         34.3451         12.7272
           16438         40.1811         35.5356         32.7844         12.1372
           16439         41.0590         36.8608         32.8730         12.3588
           16440         48.0372         44.3482         36.9327         14.3142
           16441         48.2641         45.3120         36.4883         14.1209
           16442         49.5747         46.3919         37.5867         14.5648
           16443         49.8516         47.4120         37.2027         14.3423
           16444         51.1275         48.4530         38.2939         14.7802
           16445         50.8569         47.4322         38.6779         15.0023
           16446         53.0622         51.6399         38.7854         14.6911
           16447         51.8135         50.7121         37.6968         14.1840
           16448         52.3637         52.1244         37.5632         13.8078
           16449         53.5951         53.0493         38.6556         14.3131
           16450         55.5638         57.1637         39.0117         13.2639
           16451         54.1027         55.6465         37.9808         12.9297
           16452         54.2021         56.4734         37.8214         12.3026
           16453         55.6647         57.9818         38.8564         12.6467
           16454         57.3776         57.4745         41.0055         14.8795
           16455         56.7418         57.2184         40.3614         14.4459
           16456         57.5289         58.6104         40.5934         14.2099
           16457         21.1329         8.81963         23.8813         1.74356
           16458         21.3956         4.60915         23.3245     11.6764E-03
           16459         19.8372         5.98370         22.0825     857.926E-03
           16460         20.3728         10.2452         22.9468         2.49179
           16461         22.3093         12.6227         24.8884         3.32160
           16462         26.9704         19.3397         27.8259         6.25139
           16463         26.0989         19.0930         26.7468         6.10736
           16464         27.2593         20.3689         27.4384         6.68842
           16465         28.1169         20.6038         28.5291         6.82982
           16466         24.9294         20.7655         23.5775         6.42824
           16467         26.1111         21.1730         25.0115         6.76975
           16468         24.3409         19.1633         24.0736         5.97316
           16469         23.1274         18.7626         22.6343         5.63354
           16470         33.1140         28.1289         29.1007         9.60945
           16471         31.3901         26.4418         28.0893         8.94227
           16472         30.3488         26.2146         26.7008         8.58024
           16473         32.0898         27.9021         27.7103         9.24735
           16474         34.0194         31.3609         27.2860         9.74676
           16475         34.3561         32.3452         26.8783         9.67938
           16476         36.3907         33.9313         28.5090         10.4489
           16477         36.0625         32.9479         28.9161         10.5123
           16478         42.1819         39.1207         32.5783         12.4100
           16479         40.8729         38.3669         31.2860         11.8337
           16480         41.3926         39.3341         31.2493         11.8155
           16481         42.6519         40.0813         32.4898         12.3736
           16482         43.6993         43.2661         31.6210         11.6319
           16483         43.8661         44.2824         31.1965         11.1286
           16484         45.6569         45.7688         32.6446         11.8068
           16485         45.5080         44.7572         33.0639         12.3072
           16486         47.3458         47.1145         34.0212         12.4807
           16487         48.9070         48.3730         35.3040         13.0809
           16488         48.6841         47.3155         35.6507         13.5061
           16489         47.1088         46.0569         34.3678         12.9064
           16490         51.0414         51.9008         36.0789         12.6803
           16491         49.5036         50.6464         34.8582         12.0540
           16492         49.7635         51.7397         34.6865         11.4152
           16493         51.2808         52.9951         35.9060         12.0394
           16494         52.0856         56.1389         35.8637         9.80610
           16495         53.3060         57.1534         36.8306         10.3846
           16496         53.0233         56.1337         36.7455         11.1491
           16497         51.7818         55.1188         35.7802         10.5706
           16498         56.7744         59.3479         39.5674         12.6994
           16499         55.4320         58.4614         38.5245         11.8747
           16500         16.3789         1.69595         17.1609     2.64512E-03
           16501         14.5248         3.50943         15.9225     578.965E-03
           16502         15.7844         6.56990         17.8210         1.35152
           16503         17.2323         4.76095         19.0585     773.658E-03
           16504         13.7286     685.907E-03         14.0587    -6.13260E-03
           16505         11.7234         2.56563         12.7744     384.937E-03
           16506         12.9416         5.37913         14.6454     972.985E-03
           16507         21.1597         16.5147         21.4674         4.78457
           16508         20.0467         16.3767         19.9961         4.52037
           16509         22.0754         18.6291         21.1602         5.37652
           16510         21.2175         18.6003         19.8899         5.11736
           16511         23.1055         20.5381         20.9817         5.85217
           16512         23.9262         20.5623         22.2497         6.11316
           16513         27.5775         25.7815         22.7469         7.41304
           16514         26.6545         25.6178         21.4220         6.93000
           16515         28.4883         27.4040         22.5190         7.54119
           16516         29.4133         27.5701         23.8538         8.03497
           16517         31.8212         32.3481         22.8509         7.81467
           16518         33.9517         33.9204         24.7942         8.72546
           16519         33.3231         32.5918         25.0423         8.89302
           16520         31.1462         31.0151         23.0936         7.98094
           16521         37.8066         36.6055         28.2821         10.4048
           16522         37.0208         35.1401         28.3601         10.4562
           16523         35.1769         33.8954         26.7033         9.67074
           16524         35.9865         35.3557         26.6313         9.61505
           16525         37.4904         38.3326         26.4098         9.14737
           16526         39.6434         39.8661         28.3880         10.1347
           16527         38.9557         38.3736         28.5090         10.4282
           16528         36.7454         36.8349         26.5255         9.43185
           16529         46.2761         48.0761         32.1959         10.6684
           16530         46.6396         49.2560         32.0939         9.99821
           16531         48.2431         50.5402         33.4469         10.7208
           16532         47.9088         49.3607         33.5486         11.3908
           16533         50.0791         52.8858         34.6439         10.6923
           16534         50.4052         53.9886         34.6642         9.92952
           16535         51.4811         54.0166         35.7615         11.3334
           16536         51.3698         56.3756         35.1846         8.29147
           16537         50.0921         55.3996         34.1127         7.44445
           16538         50.7850         56.6919         34.6379         6.55870
           16539         52.0194         57.6681         35.7093         7.40595
           16540         54.3448         58.0034         37.6215         10.8897
           16541         53.6336         58.0995         37.0025         9.68945
           16542         10.9234     29.7255E-03         10.9382    -16.4397E-03
           16543         8.80691         2.01843         9.63409     198.004E-03
           16544         10.0627         4.53823         11.4732     604.095E-03
           16545         11.1298         8.34483         12.2928         1.37896
           16546         10.9725         9.62263         11.4473         1.51804
           16547         13.1446         11.6648         13.3190         2.21201
           16548         13.1999         10.3862         14.1587         2.07759
           16549         12.3076         12.6970         10.7429         1.93674
           16550         13.7521         13.8698         12.1807         2.40296
           16551         13.0706         12.4963         12.4810         2.22673
           16552         11.5710         11.2935         11.0480         1.73737
           16553         17.9242         18.4131         14.3024         3.69817
           16554         19.5795         19.4731         16.1911         4.37014
           16555         17.8945         17.1099         15.9628         3.90628
           16556         16.1622         16.0411         14.0771         3.24277
           16557         20.3318         22.5741         12.0080         3.19743
           16558         21.2171         23.8359         11.2405         2.80437
           16559         22.9646         25.5203         13.2979         3.58787
           16560         22.1937         24.2548         14.0632         3.98284
           16561         26.5394         28.6616         17.1668         5.16976
           16562         27.2931         29.8845         16.9212         4.87104
           16563         29.0039         31.2484         18.8499         5.72936
           16564         28.3197         30.0326         19.0906         6.02591
           16565         33.1297         36.8024         20.1895         5.11764
           16566         32.3739         35.4051         20.4225         5.78874
           16567         30.5880         33.9680         18.3219         4.77725
           16568         31.4448         35.3652         18.0885         4.10643
           16569         41.0208         43.8914         27.5894         8.28684
           16570         39.2115         42.4799         25.8599         7.36644
           16571         39.8310         43.8383         25.8142         6.58261
           16572         41.5779         45.2499         27.5434         7.50270
           16573         43.8411         47.9339         29.2070         7.55732
           16574         44.4325         49.2357         29.3594         6.67451
           16575         46.0102         50.5232         30.8575         7.55371
           16576         45.4723         49.2215         30.7049         8.43657
           16577         47.3227         53.1580         31.5674         5.63390
           16578         48.1297         54.5068         32.1529         4.62702
           16579         49.4764         55.6463         33.4705         5.58677
           16580         48.7288         54.2976         32.8848         6.59363
           16581         50.0312         57.4976         33.6102     20.9581E-03
           16582         51.1667         58.6702         34.9789         1.23005
           16583         50.0585         57.2807         33.8587         2.43690
           16584         48.8396         56.1082         32.4900         1.22894
           16585         52.3521         59.8085         36.2019         2.46903
           16586         52.3646         60.0399         36.2216     21.5660E-03
           16587         53.4683         61.1783         37.4450         1.26161
           16588         4.70732    -141.588E-03         4.63468    -27.9803E-03
           16589         2.82196         1.78359         3.24026    -142.686E-03
           16590         4.57631         3.74190         5.09916    -72.1708E-03
           16591         5.77706         1.84244         6.47344     20.7109E-03
           16592         4.71368         4.63666    -150.018E-03    -26.3751E-03
           16593         5.87204         6.52716         1.67394     18.6215E-03
           16594         4.59719         5.19052         3.54796    -74.7475E-03
           16595         2.84767         3.27356         1.75043    -139.090E-03
           16596         9.07384         10.4038         5.05016     614.171E-03
           16597         10.1645         11.4599         3.69397     474.469E-03
           16598         11.7077         13.3151         5.42804     929.244E-03
           16599         10.7911         12.2483         6.78512         1.07928
           16600         14.8700         16.5944         9.38446         2.11372
           16601         14.1121         15.4407         10.1606         2.18969
           16602         12.3990         13.8881         8.24128         1.56982
           16603         13.2782         15.0396         7.47236         1.49086
           16604         19.6388         22.1795         8.91434         2.00014
           16605         20.8591         23.5212         8.07148         1.47851
           16606         22.2681         25.1776         10.3973         2.28269
           16607         24.8437         28.1374         12.0586         2.54190
           16608         25.9447         29.4953         11.5448         1.86083
           16609         27.3577         31.0319         13.8810         2.80097
           16610         26.4006         29.6743         14.3947         3.48206
           16611         29.8594         33.9104         15.8296         3.04849
           16612         30.8990         35.3259         15.5932         2.20061
           16613         32.3534         36.7806         17.8527         3.25773
           16614         34.8360         39.6335         19.9458         3.43596
           16615         35.8145         41.0641         19.9682         2.42672
           16616         37.2909         42.4642         22.0526         3.53705
           16617         36.4298         41.0337         22.0297         4.54670
           16618         42.1076         48.0076         26.3610         3.60286
           16619         43.0521         49.4014         26.8318         2.48820
           16620         44.4538         50.6945         28.5392         3.58237
           16621         43.5982         49.3009         28.0681         4.69717
           16622         46.7638         53.3229         30.7322         3.54874
           16623         47.7474         54.7068         31.5106         2.44321
           16624         49.0397         55.8908         32.9315         3.52147
           16625         45.2993         52.2454         28.3224     22.5694E-03
           16626         46.4930         53.4975         29.9933         1.23695
           16627         45.4129         52.0812         29.1655         2.46480
           16628         44.1220         50.8295         27.4937         1.25143
           16629         64.7656         72.9245         47.2683         5.45661
           16630         64.0869         72.3226         47.1128         4.62856
           16631         65.0045         73.4417         48.3320         3.89474
           16632         65.6548         74.0469         48.4814         4.72822
           16633         69.5066         78.0445         55.2383     16.1462E-03
           16634         70.1670         78.9089         55.2724         1.03923
           16635         68.9967         77.8016         53.3029         2.10677
           16636         68.2781         76.9355         53.2692         1.08189
           16637         71.4614         80.4409         52.3168         5.98203
           16638         71.9451         81.0603         53.3319         5.29565
           16639         72.7012         81.9062         53.6435         5.56629
           16640         72.2174         81.2767         52.6277         6.24972
           16641         75.8690         85.5505         53.4661         7.13310
           16642         75.3372         84.8606         52.9001         7.41819
           16643         75.3353         84.9013         53.4175         7.04652
           16644         75.8731         85.5916         53.9850         6.75992
           16645         76.8630         86.7446         52.1900         7.88897
           16646         76.4373         86.1758         51.9690         8.04310
           16647         76.6839         86.5379         52.8168         7.58617
           16648         77.1117         87.1078         53.0422         7.42427
           16649         77.8137         88.0880         51.0375         7.88315
           16650         78.3359         88.8087         51.6832         7.49003
           16651         78.5360         89.1239         51.3774         7.39701
           16652         78.0141         88.4043         50.7325         7.79001
           16653         78.0988         88.8009         48.9054         7.41441
           16654         77.6703         88.1599         48.7824         7.77697
           16655         78.0558         88.6438         49.4119         7.60499
           16656         78.4921         89.2913         49.5358         7.24321
           16657         78.5812         89.9262         47.2980         5.90199
           16658         78.5824         89.8518         47.6128         6.13623
           16659         79.0797         90.4924         48.0863         5.88444
           16660         79.0797         90.5655         47.7717         5.65172
           16661         78.5024         90.1285         45.9495         4.81235
           16662         78.7748         90.4210         46.4164         4.90054
           16663         79.1701         90.9574         46.5792         4.53715
           16664         78.8957         90.6614         46.1117         4.44622
           16665         77.5715         89.2344         44.0132         3.86870
           16666         77.5233         89.2321         43.6393         3.51792
           16667         77.0788         88.6885         43.3991         3.69749
           16668         77.1296         88.6906         43.7715         4.04733
           16669         76.8253         88.5710         39.9854     87.6534E-03
           16670         77.0614         88.8627         40.4301     70.6350E-03
           16671         77.0171         88.8084         40.3746    -251.600E-03
           16672         76.7794         88.5150         39.9291    -232.602E-03
           16673         75.9534         87.4992         38.6847    -625.425E-03
           16674         76.1600         87.7585         39.1103    -692.682E-03
           16675         76.0355         87.6249         39.3173    -931.059E-03
           16676         75.8266         87.3650         38.8918    -864.715E-03
           16677         75.7425         87.1814         37.5827    -360.630E-03
           16678         75.5873         87.0278         37.8322    -506.063E-03
           16679         75.4288         86.8140         37.3677    -419.573E-03
           16680         75.5889         86.9705         37.1171    -276.363E-03
           16681         74.5577         85.8671         37.6477    -591.408E-03
           16682         74.7693         86.0725         37.2392    -399.521E-03
           16683         75.0287         86.3769         37.4612    -508.196E-03
           16684         74.8193         86.1723         37.8695    -700.276E-03
           16685         73.0532         84.1173         36.6755     580.761E-03
           16686         72.7587         83.7619         36.4867     946.485E-03
           16687         73.2257         84.2143         35.8730         1.16945
           16688         72.1129         82.9614         36.1522         1.81971
           16689         71.4989         82.3607         36.9411         1.48989
           16690         71.1492         81.9178         36.7961         1.99874
           16691         71.7701         82.5192         36.0060         2.32924
           16692         70.1956         80.3788         35.8159         4.57242
           16693         70.6286         80.9630         35.7427         4.07008
           16694         69.9005         80.2970         36.7113         3.58472
           16695         69.4653         79.7152         36.7844         4.08649
           16696         67.6500         76.1709         36.4008         8.60603
           16697         66.7280         75.1459         37.4784         8.51352
           16698         66.9594         75.0467         36.9721         9.29613
           16699         67.8917         76.0717         35.8895         9.38960
           16700         68.1178         74.8213         35.0117         12.0500
           16701         69.3746         76.0557         33.4815         12.2992
           16702         69.3511         76.6517         33.6892         11.2762
           16703         68.1065         75.4314         35.2169         11.0276
           16704         69.7678         78.6753         53.4037         3.01874
           16705         68.6763         77.4615         51.5576         4.15117
           16706         67.8538         76.5927         51.4469         3.23365
           16707         73.1908         81.8152         59.2541     13.7560E-03
           16708         73.7299         82.6096         59.0619     916.949E-03
           16709         72.5722         81.5926         57.0167         1.88073
           16710         71.9835         80.7981         57.2072     976.963E-03
           16711         75.3349         84.8050         58.2645         3.15303
           16712         75.9222         85.5394         58.1443         3.65433
           16713         75.0325         84.6099         56.3923         4.55676
           16714         74.4179         83.8748         56.5098         4.05917
           16715         77.0958         87.1158         54.5371         6.61684
           16716         76.4435         86.2911         53.9532         6.88455
           16717         76.5017         86.3816         54.8660         6.32106
           16718         77.1626         87.2079         55.4460         6.05299
           16719         78.2135         88.5751         53.4879         7.03669
           16720         78.4396         88.8927         53.1545         7.08280
           16721         77.8618         88.1138         52.2924         7.56319
           16722         77.6318         87.7960         52.6275         7.51410
           16723         79.0107         90.2404         48.7591         6.37592
           16724         78.9307         90.0504         49.0995         6.62451
           16725         79.5069         90.7977         49.7937         6.29470
           16726         79.5904         90.9895         49.4531         6.04551
           16727         80.0527         91.8733         48.4951         4.87771
           16728         80.2101         92.1189         48.4392         4.60383
           16729         79.9084         91.7627         47.9607         4.68105
           16730         79.7526         91.5183         48.0133         4.95615
           16731         78.5898         90.3377         45.5659         4.30203
           16732         79.2484         91.1347         46.2606         4.11023
           16733         78.9488         90.8154         45.7148         3.96827
           16734         78.5857         90.5853         44.0357         2.57308
           16735         78.9482         91.0250         44.4103         2.41114
           16736         78.8251         90.9131         43.9641         2.02324
           16737         78.4631         90.4759         43.5924         2.18648
           16738         78.0850         90.0973         42.1764     539.410E-03
           16739         77.9285         89.9110         41.8751     346.404E-03
           16740         77.7144         89.6533         41.6134     554.780E-03
           16741         77.8721         89.8395         41.9143     748.435E-03
           16742         77.2501         89.0934         40.7939    -302.736E-03
           16743         77.1768         89.0047         40.7875    -599.075E-03
           16744         76.9431         88.7198         40.3682    -547.495E-03
           16745         73.3453         84.5186         37.5954    -282.262E-03
           16746         73.0081         84.1717         38.1428    -571.161E-03
           16747         72.6514         83.7667         37.9672    -285.146E-03
           16748         72.9910         84.1126         37.4199     3.56469E-03
           16749         71.8426         82.8454         37.7565     362.685E-03
           16750         71.4088         82.3925         38.3993     3.29598E-03
           16751         70.9602         81.8806         38.3641     357.214E-03
           16752         71.3967         82.3333         37.7213     716.943E-03
           16753         69.5271         80.0797         37.7467         2.52932
           16754         70.0939         80.7695         37.6141         2.05707
           16755         69.5098         80.1850         38.4953         1.50889
           16756         68.9372         79.4930         38.6311         1.97796
           16757         66.7795         76.6561         39.2661         4.14330
           16758         66.6099         76.3163         39.1168         4.75489
           16759         67.3320         77.0859         38.2590         5.06099
           16760         67.4933         77.4239         38.4051         4.44996
           16761         66.1484         74.0594         37.9242         9.33107
           16762         65.8125         74.0972         38.5572         8.39082
           16763         64.9222         72.9730         39.6613         8.38678
           16764         65.2439         72.9298         39.0317         9.32940
           16765         65.5733         71.2319         38.4041         12.7357
           16766         64.2566         69.3697         40.5121         12.7258
           16767         65.2017         69.3441         39.3784         14.4068
           16768         66.5511         71.2130         37.2654         14.4087
           16769         72.1644         81.3316         55.0497         3.63680
           16770         72.8632         82.1304         55.0627         4.24500
           16771         71.2165         80.2655         53.3216         4.68759
           16772         76.5756         85.2641         62.9139     10.8411E-03
           16773         76.9894         85.9788         62.5134     799.938E-03
           16774         75.8581         85.0526         60.4397         1.64315
           16775         75.4019         84.3382         60.8387     853.973E-03
           16776         76.8649         86.7349         57.7089         4.48426
           16777         76.2645         86.0806         56.4480         5.13518
           16778         75.7732         85.4837         56.6073         4.78654
           16779         76.3909         86.1424         57.8653         4.13561
           16780         79.0220         89.4403         57.6178         5.11360
           16781         78.7325         89.0468         57.9147         4.91495
           16782         79.4251         89.7663         59.3688         4.28250
           16783         79.7107         90.1697         59.0862         4.46563
           16784         81.2881         92.7360         54.8861         5.32972
           16785         80.7276         92.0454         53.9552         5.76635
           16786         80.6885         91.9202         54.6249         5.73186
           16787         81.2558         92.6130         55.5544         5.29489
           16788         81.2700         92.9672         52.8399         5.23543
           16789         81.2950         93.0802         52.3139         5.08577
           16790         80.6866         92.3122         51.4048         5.52631
           16791         80.6617         92.2003         51.9301         5.67608
           16792         80.6326         92.4689         49.9680         4.99333
           16793         80.1153         91.8146         49.2776         5.31263
           16794         80.1641         91.8041         49.7470         5.49265
           16795         80.6807         92.4582         50.4370         5.17298
           16796         80.6232         92.8671         47.6496         3.18363
           16797         80.2950         92.5036         47.0098         3.11087
           16798         79.9616         92.0695         46.7398         3.45327
           16799         80.2903         92.4329         47.3790         3.52615
           16800         79.8143         92.0493         45.5727         2.25895
           16801         80.1622         92.4494         46.1671         2.29507
           16802         80.3389         92.6888         46.2264         1.90639
           16803         79.9944         92.2919         45.6307         1.87012
           16804         79.4434         91.6906         44.4135         1.12966
           16805         79.2383         91.4536         44.0501         1.01187
           16806         79.0567         91.2284         43.8989         1.29708
           16807         79.2663         91.4694         44.2630         1.41388
           16808         77.6829         89.6147         41.6033    -648.251E-03
           16809         77.9878         89.9796         42.0337    -608.660E-03
           16810         77.9793         89.9642         42.1709    -949.859E-03
           16811         77.6734         89.5981         41.7405    -988.704E-03
           16812         76.7496         88.4901         40.5143        -1.11174
           16813         76.6442         88.3645         40.6317        -1.35610
           16814         76.3981         88.0703         40.2545        -1.30397
           16815         76.5052         88.1965         40.1336        -1.05910
           16816         75.6594         87.2003         39.7299        -1.46555
           16817         75.4576         86.9573         39.2696        -1.28458
           16818         75.6722         87.1989         39.1148        -1.07184
           16819         75.8721         87.4430         39.5766        -1.25030
           16820         72.1136         83.1576         40.1307        -1.99018
           16821         71.9496         82.9429         40.5253        -2.32489
           16822         71.6005         82.5581         40.4893        -2.16952
           16823         71.7711         82.7790         40.0924        -1.83753
           16824         71.9498         83.0116         39.0410    -914.041E-03
           16825         71.6244         82.6410         39.5700        -1.26921
           16826         71.1695         82.1356         39.5363        -1.01119
           16827         71.4968         82.5062         39.0068    -655.845E-03
           16828         69.4948         80.2289         39.1838     623.034E-03
           16829         70.0256         80.8417         39.0764     284.698E-03
           16830         69.5872         80.3499         39.7866    -213.587E-03
           16831         69.0553         79.7378         39.8946     124.857E-03
           16832         67.0284         77.3348         40.9965     790.877E-03
           16833         67.5955         77.9990         40.2249         1.26157
           16834         68.0112         78.5078         40.1741     830.647E-03
           16835         67.4467         77.8423         40.9451     360.032E-03
           16836         64.8504         73.9315         40.6251         5.56121
           16837         65.6179         74.8000         39.6515         5.89802
           16838         65.7321         75.1605         39.8456         5.12333
           16839         64.9737         74.2909         40.8189         4.78676
           16840         63.6202         70.5617         41.2109         9.62881
           16841         62.8120         69.2910         42.4855         9.71164
           16842         63.5373         69.4256         41.3816         11.2187
           16843         64.3642         70.6933         40.1039         11.1351
           16844         63.4059         65.5198         43.5247         15.1085
           16845         62.9202         66.2263         43.4713         13.6895
           16846         61.8419         64.9552         45.5490         12.7694
           16847         62.3025         64.2553         45.6011         14.1835
           16848         65.2550         63.7626         43.5725         18.9057
           16849         67.0177         63.2789         42.8163         21.3173
           16850         68.8585         65.5818         39.1945         22.1717
           16851         67.0213         66.0539         39.9815         19.7582
           16852         65.6426         66.5201         40.7515         17.6460
           16853         67.2794         68.6055         37.7648         18.1154
           16854         76.3454         85.7466         60.1441         2.30790
           16855         74.8125         84.1108         58.5592         2.48768
           16856         79.6375         88.3771         66.1941     8.91648E-03
           16857         79.9037         89.0181         65.4776     765.010E-03
           16858         78.8030         88.1788         63.3601         1.51924
           16859         78.4934         87.5380         64.0736     765.171E-03
           16860         78.8328         89.0554         59.0327         4.32335
           16861         79.2606         89.3834         60.5603         3.57707
           16862         79.8563         90.0981         60.8922         3.54860
           16863         81.4265         92.4926         58.5061         4.61236
           16864         81.2096         92.1254         59.0958         4.46507
           16865         81.8739         92.7956         60.4932         3.93216
           16866         82.0780         93.1619         59.9042         4.07973
           16867         81.9097         93.5724         55.2317         4.86573
           16868         82.5445         94.3113         56.3733         4.38407
           16869         82.5434         94.4134         55.6494         4.34817
           16870         81.9142         93.6736         54.5090         4.83119
           16871         81.6842         93.7178         51.8858         4.46356
           16872         81.7960         93.7810         52.5561         4.55847
           16873         82.2891         94.3881         53.3067         4.17525
           16874         82.1752         94.3247         52.6363         4.08012
           16875         81.5177         93.7673         50.0774         3.68403
           16876         81.8404         94.1796         50.4558         3.37452
           16877         81.5878         93.9209         49.7750         3.30603
           16878         81.2659         93.5090         49.3974         3.61499
           16879         80.8667         93.2469         47.4873         2.41036
           16880         80.5854         92.8823         47.2329         2.77123
           16881         80.9436         93.2828         47.9518         2.82185
           16882         81.2244         93.6470         48.2064         2.46097
           16883         79.9737         92.3268         45.1447     723.445E-03
           16884         80.1540         92.5266         45.5182         1.03790
           16885         80.4663         92.8983         46.0011     828.480E-03
           16886         80.2886         92.6998         45.6264     514.997E-03
           16887         79.0258         91.2153         43.5817    -515.612E-03
           16888         78.8562         91.0184         43.2889    -177.425E-03
           16889         79.1896         91.4134         43.7868     9.24168E-03
           16890         79.3562         91.6087         44.0805    -329.244E-03
           16891         77.5754         89.4740         41.8249        -1.32447
           16892         77.2710         89.1122         41.3672        -1.27726
           16893         77.3709         89.2372         41.2836    -943.535E-03
           16894         76.0413         87.6423         40.7739        -2.00942
           16895         76.3571         88.0122         41.0040        -1.98189
           16896         76.2888         87.9149         41.3613        -2.34268
           16897         75.9741         87.5460         41.1326        -2.37144
           16898         74.6301         86.0007         40.3034        -2.25732
           16899         74.9841         86.4121         40.2782        -2.14093
           16900         75.1711         86.6134         40.6996        -2.41431
           16901         74.8204         86.2029         40.7212        -2.53206
           16902         71.4875         82.3884         40.8897        -2.54797
           16903         71.0413         81.8904         40.9199        -2.40402
           16904         71.1524         82.0576         40.5204        -2.02709
           16905         70.3708         81.2206         40.1351        -1.18956
           16906         70.1313         80.9103         40.6915        -1.68282
           16907         69.5660         80.2698         40.8347        -1.47278
           16908         69.8051         80.5802         40.2787    -978.965E-03
           16909         64.7585         74.3606         41.9541         2.81344
           16910         64.1414         73.5847         42.8559         2.33235
           16911         63.8644         73.1282         42.7690         3.12824
           16912         64.4901         73.8978         41.8692         3.61022
           16913         61.9760         69.8988         44.3389         5.43097
           16914         61.5971         69.5786         45.2585         4.23156
           16915         61.0058         68.4885         46.0822         4.60293
           16916         61.3866         68.8145         45.1612         5.80492
           16917         60.5702         65.9957         46.6929         8.45823
           16918         60.3649         66.1489         47.0056         7.48519
           16919         59.8638         65.1921         48.2158         7.12245
           16920         60.0459         65.0341         47.9151         8.08977
           16921         61.2139         63.1693         47.7288         12.8288
           16922         61.6703         62.2120         48.1972         14.2404
           16923         62.7916         63.3049         46.0662         15.5927
           16924         64.3882         57.0437         53.2985         19.0742
           16925         62.8755         56.7474         55.1921         16.5218
           16926         63.8967         55.5243         56.7699         17.5985
           16927         66.0530         61.5757         45.5039         20.8386
           16928         64.3742         60.8921         47.5779         18.8825
           16929         65.0233         59.1169         49.5606         20.0569
           16930         79.0917         88.7342         62.6959         2.17821
           16931         78.0963         87.8381         60.8927         2.84472
           16932         77.7750         87.2818         61.5584         2.18584
           16933         82.3606         91.1434         69.0861     10.8072E-03
           16934         82.4847         91.7129         68.0782     702.890E-03
           16935         81.3878         90.9740         65.7444         1.46259
           16936         81.2147         90.4035         66.7529     769.040E-03
           16937         82.1710         92.6072         63.5129         2.81903
           16938         81.3941         91.9480         61.7271         3.46499
           16939         81.0809         91.4169         62.3479         3.13357
           16940         81.8824         92.0789         64.1308         2.48610
           16941         83.0051         94.4072         59.9220         3.80998
           16942         83.0836         94.6348         59.1914         3.87668
           16943         82.4617         93.9859         57.8533         4.35770
           16944         82.3725         93.7584         58.5842         4.29130
           16945         83.1895         95.1477         56.8475         3.85938
           16946         83.1326         95.1929         56.0328         3.81164
           16947         82.4946         94.4598         54.8385         4.30076
           16948         82.9959         95.4729         52.9632         2.86957
           16949         82.7906         95.2902         52.2265         2.77701
           16950         82.4177         94.8374         51.6386         3.12332
           16951         82.6233         95.0224         52.3723         3.21633
           16952         81.9159         94.4044         49.7580         2.55219
           16953         82.2416         94.7466         50.6004         2.61916
           16954         82.5354         95.1158         50.9775         2.24705
           16955         82.2088         94.7733         50.1344         2.17996
           16956         81.3407         93.8571         47.9454         1.67289
           16957         81.5350         94.1039         48.1555         1.30117
           16958         81.1635         93.6827         47.4201         1.27082
           16959         80.9695         93.4360         47.2065         1.64417
           16960         79.9638         92.3200         45.0799    -516.170E-03
           16961         80.3834         92.8112         45.7875    -471.789E-03
           16962         80.4450         92.8693         45.9955    -945.049E-03
           16963         80.0233         92.3760         45.2880    -987.599E-03
           16964         78.9351         91.0619         43.9413        -1.73402
           16965         78.8462         90.9756         43.6322        -1.39853
           16966         79.2227         91.4261         44.1111        -1.24102
           16967         79.3125         91.5148         44.4147        -1.57594
           16968         77.7630         89.6324         42.9451        -2.45752
           16969         77.4328         89.2601         42.3915        -2.25883
           16970         77.7948         89.7153         42.4480        -1.78886
           16971         78.1263         90.0939         43.0044        -1.98862
           16972         75.4460         86.9019         41.3068        -2.80202
           16973         75.4861         86.9068         41.7774        -3.20169
           16974         74.9788         86.3135         41.6140        -3.26201
           16975         74.9354         86.3072         41.1443        -2.86250
           16976         70.4746         81.1843         41.4578        -2.75409
           16977         70.4712         81.0968         41.8774        -3.26105
           16978         69.9124         80.4442         42.0716        -3.20763
           16979         69.9130         80.5318         41.6516        -2.70022
           16980         67.2722         77.5153         42.3231        -1.45856
           16981         67.4636         77.8192         41.6888    -761.612E-03
           16982         68.2840         78.7905         41.2960        -1.02350
           16983         68.0874         78.4843         41.9269        -1.71659
           16984         61.1941         69.1221         47.1579     937.487E-03
           16985         61.5441         69.6860         46.8861     422.546E-03
           16986         61.1697         68.9292         47.8071    -306.023E-03
           16987         60.8292         68.3802         48.0887     202.270E-03
           16988         59.0210         64.2277         50.7200         3.80295
           16989         58.9031         63.9990         51.4164         2.62380
           16990         58.6895         63.1491         52.1689         3.13415
           16991         58.8191         63.3757         51.4744         4.31355
           16992         59.2261         61.2469         52.1900         8.74133
           16993         59.7113         61.7227         50.9696         10.0636
           16994         59.6221         62.5959         50.2157         9.27775
           16995         59.1527         62.1207         51.4327         7.95357
           16996         61.2174         56.0216         58.7294         12.2491
           16997         60.4643         57.1559         57.0225         11.4999
           16998         59.9281         57.0710         58.1798         9.48286
           16999         60.6600         55.9494         59.8898         10.2194
           17000         66.9483         52.7304         60.9836         19.9856
           17001         68.6996         51.8659         61.6929         21.7815
           17002         69.1002         52.5164         59.4649         23.1204
           17003         67.2877         53.3875         58.7634         21.3034
           17004         79.6359         46.6950         82.1936         20.3609
           17005         76.5745         48.0685         80.2096         18.0282
           17006         77.7704         48.3221         82.7647         16.9566
           17007         80.7729         46.9584         84.7375         19.3034
           17008         108.149         33.4873         86.6972         44.5783
           17009         97.7263         38.1666         81.1371         39.1886
           17010         96.2403         38.0548         88.0549         33.7207
           17011         106.493         33.3585         93.6964         39.0493
           17012         121.159         34.0184         126.632         24.4562
           17013         134.723         29.7339         142.368         20.2533
           17014         139.523         22.6458         141.880         26.0579
           17015         125.982         27.3427         125.880         30.1106
           17016         112.310         38.3126         122.310         17.0490
           17017         115.346         37.8891         124.330         19.3376
           17018         108.537         40.1191         116.494         20.6026
           17019         105.576         40.5767         114.565         18.4694
           17020         106.052         36.5603         119.353         3.10409
           17021         109.077         35.7651         122.337         3.04042
           17022         108.494         36.1632         121.524         5.47021
           17023         105.490         36.9552         118.540         5.51707
           17024         102.389         38.8199         115.319        -7.18045
           17025         103.206         38.1534         116.351        -5.69623
           17026         101.512         38.5044         114.763        -4.84924
           17027         100.674         39.1669         113.736        -6.32855
           17028         93.9267         42.5796         106.471        -8.29898
           17029         94.7269         41.8363         107.538        -7.24702
           17030         93.2822         42.3622         106.132        -6.80639
           17031         92.4968         43.0956         105.080        -7.85506
           17032         88.5474         44.7281         101.146        -6.67346
           17033         87.9685         44.8761         100.670        -5.99389
           17034         86.9354         45.5073         99.4620        -6.33537
           17035         87.4975         45.3690         99.9133        -7.01815
           17036         83.8582         46.9836         96.4615        -4.16453
           17037         83.0673         47.3195         95.5716        -4.06253
           17038         83.8095         46.9390         96.3408        -4.52209
           17039         83.6072         47.1355         95.8044        -5.93593
           17040         83.3071         47.1650         95.5981        -5.33609
           17041         81.9913         47.7687         94.0956        -5.21412
           17042         85.9082         46.2894         98.0882        -7.22649
           17043         86.4454         46.2802         98.4706        -7.99449
           17044         88.0415         45.3517         100.308        -7.78888
           17045         88.6028         45.9427         100.279        -9.84806
           17046         86.9033         47.0871         98.2186        -10.2132
           17047         88.2385         46.9138         99.3189        -11.2593
           17048         89.9363         45.7687         101.379        -10.8938
           17049         98.8364         42.0166         110.562        -11.8982
           17050         97.3129         43.5536         108.365        -13.5362
           17051         100.370         43.0636         111.034        -14.9752
           17052         101.878         41.5000         113.256        -13.2940
           17053         118.425         37.3653         129.687        -14.7826
           17054         117.694         36.0243         129.852        -11.1114
           17055         112.864         37.4556         124.795        -12.0533
           17056         113.727         38.8213         124.620        -15.6465
           17057         130.068         33.6433         142.523         9.44861
           17058         125.239         35.5362         136.448         14.7498
           17059         117.172         36.2145         128.227         14.3673
           17060         121.361         34.4006         133.748         9.26403
           17061         119.399         36.7057         127.219         21.5537
           17062         111.642         36.5146         115.491         25.8824
           17063         109.512         39.2832         115.948         22.8074
           17064         81.6430         91.5476         64.9497         2.01279
           17065         80.5903         90.7023         62.6859         2.83628
           17066         80.2946         90.1317         63.4719         2.28421
           17067         84.7282         93.5455         71.5881     8.52121E-03
           17068         84.7647         94.0449         70.4912     558.610E-03
           17069         83.7507         93.4284         68.2402         1.17913
           17070         83.6730         92.9296         69.3351     628.778E-03
           17071         84.1778         95.0468         64.5909         2.52908
           17072         84.2667         95.3556         63.7853         2.70279
           17073         83.5628         94.7539         62.1474         3.20637
           17074         83.4562         94.4449         62.9535         3.03286
           17075         84.3434         95.9964         61.2214         3.02644
           17076         84.3351         96.1407         60.4075         3.05070
           17077         83.7440         95.5776         58.9809         3.48728
           17078         83.7402         95.4335         59.7928         3.46046
           17079         84.3805         96.7328         57.4409         2.56885
           17080         83.9342         96.2551         56.5127         2.93537
           17081         84.0705         96.2903         57.4613         3.01055
           17082         84.5238         96.7660         58.4031         2.65400
           17083         83.4666         96.1006         53.3150         2.03814
           17084         83.1298         95.7016         52.7452         2.41664
           17085         83.4375         95.9744         53.8456         2.52871
           17086         83.7769         96.3743         54.4109         2.14716
           17087         82.7026         95.3885         50.7989         1.39663
           17088         82.8956         95.6255         51.0779     973.945E-03
           17089         82.5044         95.2059         50.1233     913.196E-03
           17090         82.3128         94.9700         49.8450         1.33646
           17091         81.6653         94.2841         48.2035    -568.258E-03
           17092         81.2795         93.8446         47.4467    -572.490E-03
           17093         81.2277         93.7917         47.2978    -200.684E-03
           17094         81.6122         94.2307         48.0549    -192.465E-03
           17095         80.7989         93.2363         46.9215        -1.69421
           17096         80.8580         93.3286         46.8657        -1.33106
           17097         81.2337         93.7582         47.5827        -1.35049
           17098         81.1732         93.6634         47.6382        -1.71358
           17099         78.7515         90.7668         44.3498        -2.69417
           17100         78.7366         90.7787         44.1013        -2.39627
           17101         79.0657         91.1693         44.5111        -2.33531
           17102         79.0822         91.1596         44.7527        -2.63078
           17103         73.6443         84.5821         42.4325        -4.39183
           17104         73.6973         84.7100         42.1222        -4.05813
           17105         74.1720         85.2537         42.2306        -4.09005
           17106         74.1185         85.1254         42.5417        -4.42690
           17107         71.8722         82.5073         42.4906        -4.41571
           17108         71.7375         82.4462         42.1220        -3.97598
           17109         72.2845         83.1254         41.8649        -3.76795
           17110         72.4126         83.1866         42.2338        -4.20926
           17111         66.7257         76.3593         44.2176        -3.77782
           17112         66.7717         76.2166         44.6007        -4.45625
           17113         66.0379         75.1859         45.2004        -4.59877
           17114         65.9697         75.3190         44.8166        -3.91869
           17115         65.3158         74.9063         44.1926        -2.04254
           17116         64.9869         74.3514         44.7782        -2.54256
           17117         64.4914         73.7607         44.9561        -2.11627
           17118         64.8249         74.3205         44.3612        -1.60904
           17119         62.6998         71.2824         46.3640        -1.34203
           17120         62.5120         71.1478         46.0899    -470.062E-03
           17121         63.0371         71.9702         45.4023    -265.118E-03
           17122         63.2072         72.0986         45.6717        -1.14105
           17123         59.1474         64.4510         51.7951    -4.26609E-03
           17124         59.1292         64.6315         51.2881         1.06454
           17125         59.4871         65.5759         50.4467     760.133E-03
           17126         59.5073         65.3960         50.9560    -308.329E-03
           17127         58.5509         62.3435         52.9126         3.67471
           17128         58.6434         62.9596         52.7883         2.00546
           17129         58.4874         62.1528         53.5268         2.55064
           17130         58.6754         59.8572         55.1212         6.35009
           17131         58.8557         58.9137         56.2958         6.84462
           17132         59.1491         59.0528         55.4368         8.40317
           17133         58.9582         59.9977         54.2606         7.90871
           17134         62.1344         55.0887         59.9681         13.3330
           17135         62.8493         55.4242         58.1619         15.4808
           17136         61.8845         56.3616         56.9528         14.3688
           17137         67.4727         51.1433         69.2878         15.0526
           17138         68.8038         50.6135         71.6483         14.8899
           17139         70.4614         49.7491         71.5523         17.6046
           17140         69.1837         50.2512         69.2087         17.7874
           17141         94.2715         44.1699         103.262         16.6754
           17142         94.9786         44.1913         103.085         18.2303
           17143         90.7727         45.5517         98.7233         17.4685
           17144         90.0410         45.5518         98.8694         15.9263
           17145         108.274         37.6075         120.043         11.7349
           17146         105.220         39.1347         116.366         13.5733
           17147         102.233         39.6059         113.748         12.2375
           17148         105.262         38.0917         117.369         10.4003
           17149         106.294         36.4278         119.699         1.16090
           17150         103.751         37.2156         117.063         3.27130
           17151         103.976         37.0815         117.406         1.34086
           17152         95.6196         40.0765         109.136     230.087E-03
           17153         96.4764         39.8130         109.991        -1.10260
           17154         97.3799         39.3985         110.898    -700.690E-03
           17155         96.5359         39.6681         110.044     650.311E-03
           17156         90.0263         43.6639         102.990        -5.42423
           17157         90.7734         43.2330         103.802        -5.27581
           17158         90.7069         43.1372         103.874        -4.39816
           17159         89.9745         43.5631         103.084        -4.54939
           17160         86.9872         45.3457         99.9199        -4.37823
           17161         87.7222         44.8899         100.711        -4.40667
           17162         87.7747         44.9203         100.856        -3.87474
           17163         87.0425         45.3776         100.069        -3.84862
           17164         83.2529         47.7176         95.9257        -3.14542
           17165         83.6973         47.4669         96.4182        -3.28312
           17166         83.8099         47.6037         96.5772        -3.06955
           17167         83.3679         47.8568         96.0859        -2.93215
           17168         83.1606         47.4010         95.7351        -3.72165
           17169         82.4559         47.6850         94.9447        -3.56126
           17170         82.3641         47.6035         94.7846        -3.90328
           17171         82.8169         92.7813         66.2062         1.79873
           17172         83.8854         93.9022         67.3426         1.60495
           17173         82.9829         93.2547         65.3085         2.22437
           17174         86.7319         95.5796         73.6903     5.85319E-03
           17175         86.6615         95.9863         72.4800     437.612E-03
           17176         85.7249         95.4695         70.3258     928.324E-03
           17177         85.7591         95.0630         71.5348     496.364E-03
           17178         86.4486         96.9419         68.9533         1.35865
           17179         86.3925         97.1799         67.9180         1.54302
           17180         85.6777         96.6876         66.1705         1.95888
           17181         85.7125         96.4496         67.2060         1.77455
           17182         85.4880         97.5483         61.3521         2.10050
           17183         85.0563         97.1656         60.2630         2.39908
           17184         85.2262         97.2045         61.2589         2.36517
           17185         85.6686         97.5890         62.3438         2.06652
           17186         84.9242         97.3240         58.4320         2.05644
           17187         85.2880         97.6513         59.4213         1.82133
           17188         85.1926         97.6343         58.7948         1.72031
           17189         84.8360         97.3081         57.8232         1.95135
           17190         83.2796         96.0226         52.1030         1.07882
           17191         83.0575         95.7580         51.7337         1.47202
           17192         83.4090         96.1099         52.7375         1.55944
           17193         83.6318         96.3743         53.1061         1.16633
           17194         82.1840         94.8539         49.3797    -903.444E-03
           17195         82.6234         95.3470         50.3228    -666.753E-03
           17196         82.8161         95.5315         50.9478        -1.10833
           17197         82.3752         95.0375         49.9956        -1.34746
           17198         80.7367         93.0793         47.3646        -2.57649
           17199         80.4719         92.7657         46.9539        -2.66411
           17200         80.4269         92.7456         46.6775        -2.38612
           17201         80.6948         93.0624         47.0911        -2.30108
           17202         78.9437         90.8661         45.3921        -3.63447
           17203         78.8067         90.6489         45.5377        -3.98042
           17204         78.4428         90.2306         45.0551        -3.96222
           17205         78.5793         90.4464         44.9100        -3.61457
           17206         77.3082         88.8575         44.1419        -4.27129
           17207         77.1819         88.6357         44.3939        -4.64888
           17208         76.7815         88.1696         44.0591        -4.65402
           17209         76.9077         88.3913         43.8068        -4.27701
           17210         75.5356         86.7607         43.0925        -4.47177
           17211         75.1598         86.3384         42.8412        -4.40223
           17212         75.3848         86.6761         42.5447        -3.98687
           17213         75.7625         87.1012         42.7995        -4.05917
           17214         72.5315         83.2168         42.6584        -4.68827
           17215         72.6310         83.2349         42.9746        -5.07897
           17216         72.0930         82.5466         43.1602        -5.27232
           17217         71.9933         82.5361         42.8444        -4.87798
           17218         68.8138         78.6517         43.8481        -5.01052
           17219         69.4780         79.4910         43.5481        -4.95347
           17220         69.5478         79.3677         43.9515        -5.60503
           17221         68.8909         78.5274         44.2513        -5.66187
           17222         63.2424         71.9626         46.1421        -2.03286
           17223         63.2643         71.7775         46.5669        -2.84854
           17224         62.6935         70.8723         47.2131        -2.86467
           17225         62.6552         71.0519         46.7878        -2.04645
           17226         60.0792         65.9345         51.0748        -2.65302
           17227         60.0005         66.1888         50.5965        -1.63421
           17228         60.4576         67.0946         49.8914        -1.97800
           17229         60.5401         66.8420         50.3699        -2.99740
           17230         58.8281         63.3923         52.8302     237.243E-03
           17231         59.2438         64.3544         52.1848        -1.06528
           17232         58.9299         63.3055         53.2168    -824.360E-03
           17233         58.4603         59.9298         56.8318     834.003E-03
           17234         58.5668         59.1204         57.9452     991.438E-03
           17235         58.5272         59.0197         57.7269         2.36204
           17236         58.4122         59.8283         56.6127         2.20649
           17237         59.2711         57.2044         59.5058         5.88162
           17238         59.7735         56.3602         60.9742         6.19288
           17239         60.0758         56.2117         60.4703         7.99652
           17240         59.5605         57.0560         59.0002         7.68881
           17241         65.1688         52.3954         69.1718         10.6653
           17242         64.1132         52.8883         67.3809         10.5957
           17243         63.3070         53.3773         67.2489         8.67555
           17244         64.3543         52.8830         69.0378         8.74767
           17245         72.0671         50.5298         78.7655         11.7814
           17246         70.8961         50.7336         77.0820         11.8514
           17247         69.7344         51.1907         76.3780         10.3060
           17248         70.8984         50.9836         78.0586         10.2278
           17249         79.9510         48.4974         86.7573         15.5009
           17250         82.8434         47.5268         89.1732         17.2286
           17251         81.8205         47.4176         87.2192         18.0250
           17252         78.9143         48.3866         84.8038         16.3083
           17253         95.5510         42.5742         106.216         13.6335
           17254         92.3611         43.8983         102.753         13.6148
           17255         91.3023         43.7488         102.273         12.0642
           17256         94.4829         42.4352         105.716         12.0629
           17257         93.5605         41.8482         105.702         9.18050
           17258         95.1292         41.4105         107.155         9.83066
           17259         93.7787         42.3135         105.365         10.9628
           17260         92.2388         42.7500         103.952         10.3012
           17261         93.5468         41.1554         107.060    -694.232E-03
           17262         92.7845         41.6028         106.280        -1.18346
           17263         93.3062         41.3867         106.783        -1.83189
           17264         94.0783         40.9456         107.581        -1.34838
           17265         87.6854         45.2176         100.927        -2.67319
           17266         87.9030         44.9929         101.129        -2.92107
           17267         88.3348         44.6882         101.613        -2.69314
           17268         88.1298         44.9147         101.425        -2.44283
           17269         87.0316         45.8154         100.240        -2.58088
           17270         86.9092         46.0938         100.147        -2.25300
           17271         86.4919         46.4439         99.6869        -2.32193
           17272         86.6085         46.1665         99.7742        -2.64701
           17273         83.6695         50.0022         96.5561        -1.32929
           17274         83.3152         49.8788         96.1331        -1.52280
           17275         83.6557         49.2400         96.5232        -1.80352
           17276         84.0094         49.3616         96.9467        -1.61077
           17277         83.9373         47.9534         96.7751        -2.65955
           17278         84.3357         47.8905         97.2437        -2.56453
           17279         84.1352         48.2518         97.0377        -2.34006
           17280         83.7343         48.3150         96.5653        -2.43511
           17281         85.7315         95.8394         69.2781         1.26611
           17282         84.8836         95.2862         67.2950         1.77299
           17283         84.8479         94.9163         68.3426         1.43531
           17284         88.3626         97.2365         75.3906     3.57470E-03
           17285         88.1918         97.5503         74.0818     327.778E-03
           17286         87.3356         97.1285         72.0282     704.072E-03
           17287         87.4741         96.8150         73.3359     379.730E-03
           17288         86.1944         97.5080         65.7462         1.81533
           17289         85.5661         97.0323         64.1876         2.19991
           17290         85.6456         96.8886         65.2237         2.08767
           17291         86.2912         97.3643         66.7825         1.70315
           17292         85.6615         97.7951         61.3222         1.88149
           17293         85.9085         98.0338         61.8204         1.66998
           17294         85.5328         97.7966         60.4308         1.80093
           17295         85.2942         97.5569         59.9602         2.00480
           17296         84.9705         97.6238         57.1232         1.01500
           17297         84.6445         97.3548         56.0023     926.807E-03
           17298         84.3334         97.0289         55.2933         1.31884
           17299         84.6522         97.2960         56.4057         1.40655
           17300         83.5416         96.3206         52.6176    -601.720E-03
           17301         83.9077         96.6933         53.6061    -465.697E-03
           17302         84.0146         96.7799         54.0217    -809.947E-03
           17303         83.6445         96.4045         53.0340    -947.369E-03
           17304         82.0966         94.6858         49.6571        -1.86583
           17305         81.9814         94.5207         49.6363        -2.21219
           17306         81.6382         94.1417         48.8720        -2.20249
           17307         81.7550         94.3078         48.8930        -1.85984
           17308         80.7053         92.9470         47.8897        -3.26551
           17309         80.6675         92.8395         48.1816        -3.64055
           17310         80.1259         92.1927         47.3765        -3.82587
           17311         80.1653         92.3033         47.0838        -3.44898
           17312         77.5461         88.9017         45.3810        -5.31943
           17313         77.5705         89.0205         45.0433        -4.94683
           17314         78.1597         89.7516         45.4740        -4.72843
           17315         78.1359         89.6376         45.8083        -5.10105
           17316         75.9410         86.9934         44.2662        -5.49411
           17317         76.4816         87.6259         44.6104        -5.47960
           17318         76.2987         87.2936         44.8853        -5.91100
           17319         75.7590         86.6616         44.5404        -5.92448
           17320         73.8593         84.5819         43.3916        -5.42855
           17321         73.8746         84.4422         43.8339        -5.97216
           17322         73.0402         83.3931         43.8724        -6.17327
           17323         73.0139         83.5331         43.4296        -5.62552
           17324         71.0013         80.6340         44.4999        -7.00734
           17325         71.6055         81.4582         44.3025        -6.78210
           17326         71.7627         81.4710         44.5763        -7.23390
           17327         71.1630         80.6433         44.7737        -7.45779
           17328         66.3554         74.6760         46.2471        -6.86284
           17329         66.3691         74.9693         45.9245        -6.28047
           17330         66.9731         75.7495         45.6152        -6.37662
           17331         66.9579         75.4593         45.9394        -6.96143
           17332         62.4186         69.6414         48.6149        -4.77331
           17333         61.8158         68.5931         49.3535        -4.68068
           17334         61.6163         68.7317         49.0021        -3.62008
           17335         62.2246         69.7780         48.2611        -3.71340
           17336         59.7035         65.1527         51.6977        -2.25285
           17337         60.1829         65.7067         51.4638        -3.54048
           17338         59.7995         64.9246         52.0835        -3.14047
           17339         58.5691         61.0210         55.7421    -587.222E-03
           17340         58.5846         60.1451         56.8666    -622.893E-03
           17341         58.4378         60.8047         55.6966     870.957E-03
           17342         58.7401         58.2128         58.9198         2.58251
           17343         58.7518         58.3143         59.1089         1.19104
           17344         59.0383         57.5529         60.3280         1.38645
           17345         59.0368         57.4515         60.1376         2.77700
           17346         62.2880         54.0462         67.0696         5.33305
           17347         61.4891         54.5796         65.5953         5.14440
           17348         61.2049         54.8022         65.5238         3.66211
           17349         61.9876         54.2682         66.9988         3.85084
           17350         66.9158         52.1656         73.8824         7.11761
           17351         67.6509         51.8418         74.2296         8.70311
           17352         66.5128         52.1570         72.5130         8.70894
           17353         65.7812         52.4812         72.1659         7.12572
           17354         74.0567         50.2186         81.8172         11.2127
           17355         74.9967         50.0146         83.2816         10.8401
           17356         76.6836         49.5617         84.7390         12.1535
           17357         75.7502         49.7710         83.2808         12.5196
           17358         81.7190         48.0950         90.6009         13.0868
           17359         83.5325         47.6206         92.1517         14.2166
           17360         81.6252         48.2440         89.7087         14.3231
           17361         79.8289         48.7185         88.1744         13.1678
           17362         90.5155         43.6783         101.884         10.8783
           17363         88.9924         43.9675         100.625         9.75218
           17364         90.6873         43.0531         102.649         9.18684
           17365         95.6877         40.1910         108.771         5.20371
           17366         97.4983         39.5530         110.538         5.62586
           17367         96.3166         40.2371         109.081         7.03119
           17368         94.5012         40.8662         107.310         6.59293
           17369         94.7165         40.4572         108.210     986.949E-03
           17370         94.1103         40.7968         107.625     113.113E-03
           17371         95.0155         40.4122         108.534    -647.569E-03
           17372         89.1978         44.1147         102.629        -1.26988
           17373         89.5435         43.8074         102.999    -871.311E-03
           17374         89.0722         44.2377         102.525    -584.557E-03
           17375         88.7265         44.5441         102.156    -981.959E-03
           17376         87.4774         45.4929         100.739        -2.39308
           17377         87.2427         45.5402         100.431        -2.86511
           17378         85.7837         47.1715         98.9175        -2.24402
           17379         85.6652         47.0261         98.7487        -2.55176
           17380         86.0404         46.6151         99.1496        -2.65926
           17381         86.1531         46.7606         99.3137        -2.34996
           17382         84.0024         50.1934         96.9541        -1.06190
           17383         83.6426         50.9875         96.5192    -746.197E-03
           17384         83.3075         50.7970         96.1220        -1.01310
           17385         84.3512         49.4190         97.3573        -1.38280
           17386         84.3729         48.6590         97.3492        -1.92774
           17387         84.7144         48.7172         97.7606        -1.69727
           17388         86.5265         96.6674         70.1219         1.10613
           17389         85.7104         96.1612         68.1740         1.55918
           17390         86.5753         96.3454         71.2262     812.914E-03
           17391         89.6144         98.5102         76.6878     1.68397E-03
           17392         89.3291         98.7332         75.2190     237.859E-03
           17393         88.5569         98.4118         73.2448     516.385E-03
           17394         88.8108         98.1891         74.7128     280.537E-03
           17395         86.5460         98.3160         64.4572         1.48561
           17396         86.8866         98.3981         65.9897         1.37879
           17397         87.3555         98.7405         67.1211         1.10061
           17398         87.0021         98.6619         65.5907         1.20409
           17399         86.1662         98.4746         61.4312     996.216E-03
           17400         86.6148         98.7232         63.1346     952.218E-03
           17401         86.8679         98.9319         63.7486     680.800E-03
           17402         86.4155         98.6904         62.0425     725.387E-03
           17403         86.0005         98.4806         60.2830    -323.898E-03
           17404         86.1257         98.5408         60.8432    -575.918E-03
           17405         85.6910         98.2262         59.3738    -677.924E-03
           17406         85.5719         98.1656         58.8120    -423.029E-03
           17407         83.3026         95.9758         52.6115        -1.77224
           17408         83.7380         96.4327         53.6957        -1.58825
           17409         83.7874         96.4355         54.1221        -1.88189
           17410         83.3497         95.9793         53.0275        -2.06339
           17411         81.3258         93.5029         49.9545        -3.93874
           17412         81.0654         93.1177         49.9468        -4.35632
           17413         80.6513         92.6493         49.1091        -4.43344
           17414         80.9111         93.0338         49.1164        -4.01590
           17415         79.7458         91.5850         47.6376        -4.65899
           17416         79.9613         91.9231         47.5392        -4.24001
           17417         80.4447         92.4941         48.2767        -4.11720
           17418         80.2269         92.1547         48.3750        -4.53525
           17419         77.4084         88.6280         45.6733        -5.74518
           17420         77.9761         89.3307         46.1122        -5.57352
           17421         77.8029         88.9881         46.4446        -6.06425
           17422         77.2370         88.2823         46.0043        -6.23847
           17423         72.4089         82.0985         44.8300        -7.60774
           17424         71.7408         81.2167         44.9213        -7.76824
           17425         72.4363         82.3491         44.4830        -7.07202
           17426         68.2084         76.4316         46.0258        -8.36758
           17427         67.4670         75.3846         46.4067        -8.44041
           17428         67.4492         75.7263         46.0826        -7.76700
           17429         68.2043         76.7749         45.7018        -7.69262
           17430         65.8376         73.9723         46.5574        -6.80815
           17431         65.2743         73.1197         47.0067        -6.87332
           17432         65.1602         73.3134         46.7050        -6.15736
           17433         65.7311         74.1619         46.2574        -6.09315
           17434         63.3073         70.3461         48.4669        -6.31551
           17435         63.7292         71.1902         47.8963        -6.02933
           17436         64.1024         71.4358         47.8741        -6.68425
           17437         63.6836         70.5894         48.4409        -6.96728
           17438         60.5287         64.9540         52.3871        -5.86074
           17439         60.8953         65.8356         51.6735        -5.93651
           17440         61.1857         65.7318         51.7976        -6.94690
           17441         60.8257         64.8540         52.5116        -6.87612
           17442         59.4958         63.0696         53.9995        -4.15342
           17443         59.5340         62.6065         54.5152        -4.68410
           17444         59.2855         62.0761         55.0174        -4.06949
           17445         59.2513         62.5362         54.5067        -3.54027
           17446         58.8024         59.1872         58.2962        -1.47689
           17447         58.9366         59.1668         58.3964        -2.43576
           17448         59.0686         58.4179         59.4397        -2.28812
           17449         58.9399         58.4346         59.3458        -1.32032
           17450         59.8698         56.1613         62.8563         1.77746
           17451         59.8441         56.2552         62.8725     453.503E-03
           17452         60.3593         55.6311         64.1561     705.134E-03
           17453         60.4023         55.5376         64.1387         2.02868
           17454         64.2328         53.0636          71.125         2.91511
           17455         64.6333         52.9309         71.4398         4.22342
           17456         63.7198         53.3492         69.9687         4.13250
           17457         63.3297         53.4832         69.6530         2.82409
           17458         71.4529         50.8496         80.0719         7.74488
           17459         71.5345         50.8796         79.8202         8.53258
           17460         69.5874         51.4041         77.5686         7.53824
           17461         69.5493         51.3706         77.8448         6.76462
           17462         73.7596         50.0323         83.1799         7.74657
           17463         75.2006         49.7394         84.4949         9.02705
           17464         73.9434         50.1990         82.7876         9.12416
           17465         72.5209         50.4917         81.4839         7.84230
           17466         82.3225         46.5001         93.5894         8.32012
           17467         82.4666         46.2830         93.9433         7.77294
           17468         83.9144         45.7386         95.5024         8.10416
           17469         83.7660         45.9568         95.1477         8.64726
           17470         89.1364         43.5223         101.212         8.41080
           17471         90.3727         42.8277         102.729         7.73356
           17472         91.9201         42.3468         104.166         8.49693
           17473         92.0865         41.7036         105.351         3.43963
           17474         93.3213         41.0965         106.585         3.64832
           17475         92.5527         41.4911         105.641         4.74904
           17476         91.3150         42.0930         104.403         4.51867
           17477         90.5484         42.9051         104.017     697.865E-03
           17478         89.8660         43.4438         103.325     654.755E-03
           17479         89.9285         43.4443         103.401     152.654E-03
           17480         90.6267         42.9024         104.111     189.495E-03
           17481         86.3641         46.8029         99.5863        -1.97929
           17482         86.7956         46.3223         100.053        -1.98309
           17483         86.7401         46.5577         100.024        -1.66945
           17484         86.3142         47.0386         99.5610        -1.66625
           17485         85.5498         48.2318         98.7405        -1.31787
           17486         85.3586         48.1801         98.5025        -1.62144
           17487         85.7619         47.5247         98.9348        -1.84912
           17488         85.9519         47.5767         99.1736        -1.54289
           17489         84.2939         50.3102         97.3032    -768.025E-03
           17490         84.5707         50.4371         97.6327    -395.998E-03
           17491         84.2471         51.3439         97.2291    -14.1915E-03
           17492         83.9661         51.2158         96.9000    -388.590E-03
           17493         87.8340         98.0439         71.4570     821.446E-03
           17494         87.0932         97.6292         69.6111         1.17231
           17495         87.2310         97.4031         70.8595     956.711E-03
           17496         87.9976         97.8175         72.7056     605.711E-03
           17497         90.7733         99.6935         77.8770     289.802E-06
           17498         90.2540         99.7758         75.9519     112.169E-03
           17499         89.5615         99.6116         73.8721     271.231E-03
           17500         90.0412         99.5285         75.8007     159.966E-03
           17501         87.3725         99.1714         65.6044     617.036E-03
           17502         87.1765         99.0017         65.2073     824.488E-03
           17503         87.8601         99.2636         67.7451     674.896E-03
           17504         88.0645         99.4330         68.1413     476.917E-03
           17505         85.4429         97.8568         59.4823        -1.54380
           17506         85.4452         97.9341         59.0868        -1.30995
           17507         85.8994         98.2652         60.6490        -1.16157
           17508         85.9040         98.1905         61.0397        -1.38999
           17509         82.7815         95.3013         52.0634        -2.68056
           17510         82.5077         95.0248         51.3023        -2.63760
           17511         82.7710         95.3670         51.5602        -2.22583
           17512         83.0384         95.6348         52.3278        -2.27498
           17513         80.1133         91.7433         49.6511        -5.51433
           17514         80.4748         92.2567         49.8240        -5.13387
           17515         80.7928         92.6073         50.5568        -5.07607
           17516         80.4309         92.0941         50.3867        -5.45623
           17517         79.1229         90.5771         48.0060        -5.77046
           17518         78.6906         90.0423         47.5003        -5.92606
           17519         78.8845         90.3670         47.3545        -5.57993
           17520         79.3157         90.8981         47.8621        -5.42550
           17521         75.3797         85.3849         46.3137        -8.18644
           17522         74.8833         84.6594         46.2575        -8.49855
           17523         74.6723         84.5016         45.9607        -8.30242
           17524         75.1679         85.2236         46.0063        -7.98730
           17525         73.7638         83.3725         45.6378        -8.41130
           17526         73.8941         83.6852         45.4345        -8.06270
           17527         74.4561         84.3941         45.5876        -7.96753
           17528         74.3228         84.0810         45.7975        -8.31771
           17529         66.8211         74.3905         46.8028        -8.60799
           17530         67.5750         75.1665         46.6191        -9.07799
           17531         66.9475         74.1800         47.0134        -9.24636
           17532         64.4923         70.9489         48.4146        -8.49506
           17533         64.1501         70.2294         48.8282        -8.71871
           17534         63.9246         70.1516         48.8376        -8.28714
           17535         64.2690         70.8670         48.4248        -8.06499
           17536         62.4132         66.9642         50.8521        -8.76612
           17537         62.0055         66.1272         51.4488        -8.69972
           17538         61.7827         66.3023         51.3606        -7.92727
           17539         62.1929         67.1377         50.7643        -7.99310
           17540         59.9476         62.7255         54.4152        -6.09439
           17541         60.1203         62.6195         54.4879        -6.74106
           17542         59.9228         61.9530         55.1430        -6.53431
           17543         59.7560         62.0603         55.0760        -5.88695
           17544         59.3737         59.1231         58.4332        -4.83051
           17545         59.1742         59.3525         58.2083        -3.89300
           17546         59.2299         60.1416         57.2001        -4.45073
           17547         59.4492         59.9143         57.4288        -5.39202
           17548         59.5954         57.0244         61.5977        -2.45783
           17549         59.7719         56.9142         61.7001        -3.56669
           17550         60.1197         56.1503         63.0127        -3.11483
           17551         59.9712         56.2685         62.9182        -2.00059
           17552         62.6970         53.5879         68.9395    -551.941E-03
           17553         62.8245         53.6056         69.1234     486.430E-03
           17554         62.1499         54.0710         67.8964     283.298E-03
           17555         62.0334         54.0556         67.7084    -757.614E-03
           17556         66.0578         52.2389         73.9731         2.99954
           17557         65.5060         52.2763         73.3766         1.82109
           17558         66.3997         51.8479         74.7346         1.85262
           17559         66.9597         51.8110         75.3295         3.03296
           17560         71.5064         50.6541         80.6487         6.53969
           17561         70.5425         50.7725         79.7622         5.35767
           17562         71.6437         50.3348         81.2466         5.40847
           17563         72.6168         50.2148         82.1320         6.58935
           17564         80.0500         47.6098         90.7622         8.65467
           17565         78.6379         48.0187         89.3198         7.93982
           17566         79.1275         47.6674         90.0757         7.50619
           17567         80.5435         47.2601         91.5218         8.22244
           17568         83.9817         45.4892         95.8934         7.07642
           17569         84.6094         45.1606         96.7391         6.57285
           17570         85.9305         44.6739         98.0769         7.08711
           17571         85.3252         45.0112         97.2548         7.60380
           17572         88.2042         44.7700         101.557         1.68488
           17573         87.7363         45.3196         101.080         1.58034
           17574         87.8423         45.3493         101.222         1.16741
           17575         88.3089         44.7986         101.699         1.27044
           17576         87.3196         46.1160         100.695    -865.148E-03
           17577         87.5177         45.8864         100.909    -725.922E-03
           17578         87.3175         46.1738         100.704    -554.562E-03
           17579         87.1190         46.4035         100.489    -695.763E-03
           17580         86.1864         47.8476         99.4895    -540.387E-03
           17581         86.1396         47.7764         99.4257    -850.885E-03
           17582         86.4511         47.2517         99.7601    -970.446E-03
           17583         86.4919         47.3249         99.8189    -659.164E-03
           17584         85.3934         48.9482         98.5921    -731.298E-03
           17585         85.5804         48.9491         98.8157    -360.452E-03
           17586         85.3017         49.6676         98.4968    -15.3214E-03
           17587         85.1110         49.6665         98.2727    -388.883E-03
           17588         88.2935         99.0964         70.2637     718.370E-03
           17589         87.8886         99.0735         68.5272     836.132E-03
           17590         87.7366         98.7635         68.8531     983.860E-03
           17591         91.0638         99.9873         78.1810     70.4043E-06
           17592         90.5461         99.9888         76.4570     1.61422E-03
           17593         89.9684         99.9353         74.5443     55.2796E-03
           17594         90.4535         99.9342         76.2670     51.6458E-03
           17595         87.9143         99.4373         67.4007    -378.713E-03
           17596         87.7110         99.3935         66.5388    -296.018E-03
           17597         88.0992         99.5452         67.9226    -193.928E-03
           17598         88.3115         99.5850         68.7876    -277.030E-03
           17599         86.2137         98.3818         62.1708        -1.30150
           17600         86.0687         98.1953         62.1000        -1.53070
           17601         85.7579         98.0017         60.9717        -1.61832
           17602         84.5154         96.9800         57.1086        -2.21521
           17603         84.1239         96.5700         56.2525        -2.51816
           17604         83.9481         96.4783         55.2763        -2.36056
           17605         84.3329         96.8865         56.1282        -2.05968
           17606         81.8982         93.9269         52.5729        -4.43995
           17607         81.5035         93.4961         51.6029        -4.58632
           17608         81.7977         93.9190         51.6721        -4.20587
           17609         82.1928         94.3483         52.6436        -4.06359
           17610         79.7691         91.2523         49.4934        -5.85694
           17611         79.9863         91.4809         50.0476        -5.85071
           17612         79.5709         90.9043         49.7581        -6.19928
           17613         79.3513         90.6723         49.2037        -6.20691
           17614         78.2158         89.1981         47.9765        -6.80883
           17615         77.7658         88.5229         47.9096        -7.23403
           17616         77.3495         88.0608         47.2633        -7.22188
           17617         77.7958         88.7307         47.3235        -6.79651
           17618         74.8251         84.4463         46.4818        -8.79909
           17619         74.3391         83.7741         46.3421        -8.99756
           17620         74.3938         83.9894         46.1185        -8.69436
           17621         71.1437         79.2774         46.1410        -10.0907
           17622         71.5947         80.0601         45.9977        -9.71200
           17623         71.9569         80.3606         46.1455        -9.98079
           17624         71.5095         79.5767         46.2891        -10.3605
           17625         67.7602         74.3745         47.1045        -10.7148
           17626         67.3097         73.7195         47.3137        -10.7299
           17627         67.4116         74.2659         47.0977        -10.1399
           17628         67.8889         74.9356         46.8884        -10.1431
           17629         65.9537         72.3920         47.8017        -9.74244
           17630         65.7348         72.3828         47.7577        -9.27047
           17631         66.2496         73.3349         47.3198        -8.98187
           17632         66.4597         73.3444         47.3618        -9.45304
           17633         63.1396         67.8590         50.2119        -9.44902
           17634         63.5737         68.8319         49.6445        -9.24365
           17635         64.0214         69.1093         49.4309        -9.92239
           17636         63.5857         68.1350         49.9911        -10.1292
           17637         61.5215         64.1889         52.7708        -9.43786
           17638         61.3917         63.3409         53.3521        -9.82838
           17639         61.1210         63.0554         53.6940        -9.35307
           17640         61.2501         63.9090         53.1046        -8.96252
           17641         59.9325         61.1394         55.9080        -6.98469
           17642         60.1376         60.9936         55.9195        -7.74718
           17643         59.9811         60.2765         56.7201        -7.44292
           17644         59.7817         60.4212         56.7045        -6.68044
           17645         59.7726         57.7145         60.1272        -5.67838
           17646         59.9567         57.4853         60.2062        -6.49198
           17647         60.0282         56.9095         61.1336        -5.95711
           17648         59.8548         57.1348         61.0485        -5.14099
           17649         61.5972         54.0806         66.4642        -3.93444
           17650         61.1489         54.6235         65.3536        -4.25091
           17651         61.2014         54.4425         65.2175        -5.12855
           17652         61.6348         53.8986         66.3264        -4.81332
           17653         64.6488         52.2738         72.2844    -390.201E-03
           17654         64.0052         52.7195         71.2118    -386.536E-03
           17655         63.6178         52.7225         70.5901        -1.44684
           17656         64.2522         52.2773         71.6617        -1.45135
           17657         68.1960         50.9641         77.3528         2.00939
           17658         68.8723         50.9391         78.0853         3.10269
           17659         67.9275         51.3835         76.7449         3.02875
           17660         67.2623         51.4080         76.0120         1.93595
           17661         73.9823         49.3871         84.2517         5.68299
           17662         74.5276         49.0310         85.0662         5.32140
           17663         76.0831         48.5946         86.7727         6.17485
           17664         75.5338         48.9490         85.9572         6.53807
           17665         80.1017         47.0469         91.4720         6.81200
           17666         79.9782         47.0044         91.4581         6.36250
           17667         81.3835         46.4648         93.0505         6.56946
           17668         81.5214         46.5056         93.0802         7.01912
           17669         83.1586         45.7733         95.5153         4.79731
           17670         83.6564         45.5416         95.9659         5.33367
           17671         82.5071         45.9203         94.6667         5.29393
           17672         82.0134         46.1494         94.2150         4.75855
           17673         85.7894         45.0696         98.5720         4.27038
           17674         86.3895         44.9218         99.2933         3.93537
           17675         86.9961         44.4767         99.8988         4.22486
           17676         86.3927         44.6244         99.1739         4.56399
           17677         87.7643         45.0499         101.058         2.07791
           17678         88.1625         44.6602         101.471         2.11563
           17679         88.1456         44.4871         101.404         2.51075
           17680         87.7360         44.8817         100.981         2.46965
           17681         87.4473         46.0203         100.845     373.306E-03
           17682         87.7073         45.6524         101.112     505.041E-03
           17683         87.5707         45.7911         100.961     755.849E-03
           17684         87.3119         46.1591         100.695     621.641E-03
           17685         87.1474         46.4147         100.528    -392.152E-03
           17686         87.0233         46.6172         100.400    -215.729E-03
           17687         86.8356         46.8726         100.198    -336.609E-03
           17688         86.9599         46.6677         100.326    -514.986E-03
           17689         86.2843         47.8091         99.6047    -241.614E-03
           17690         86.0741         48.2771         99.3764    -13.2942E-03
           17691         85.9737         48.3179         99.2603    -313.271E-03
           17692         88.6633         99.6280         70.2230     335.012E-03
           17693         88.5445         99.6673         69.5778     198.323E-03
           17694         87.9612         99.4732         67.5033     334.258E-03
           17695         90.9676         99.8882         78.0840    -2.08746E-03
           17696         90.3509         99.7991         76.2314    -91.6784E-03
           17697         89.9308         99.8542         74.6120    -133.150E-03
           17698         90.5176         99.9441         76.4639    -42.6866E-03
           17699         86.6392         98.3134         64.9901        -1.47326
           17700         86.5291         98.4015         64.0028        -1.41943
           17701         87.0326         98.6905         65.6452        -1.17104
           17702         87.1546         98.5968         66.6320        -1.22081
           17703         85.6540         97.8249         61.1245        -1.84299
           17704         86.1201         98.1408         62.6770        -1.61433
           17705         86.0956         98.0125         63.0934        -1.74833
           17706         85.6219         97.6952         61.5426        -1.97316
           17707         82.7635         94.6789         55.9787        -4.16688
           17708         82.5772         94.3999         56.0720        -4.35022
           17709         82.1769         93.9644         55.1346        -4.64077
           17710         82.3568         94.2350         55.0283        -4.46773
           17711         80.5570         92.0150         52.1468        -5.82127
           17712         80.5699         91.9611         52.7139        -5.87489
           17713         79.9773         91.1810         51.9934        -6.32174
           17714         79.9645         91.2339         51.4295        -6.26670
           17715         75.3832         84.9411         47.3002        -9.09321
           17716         75.2854         84.8964         47.0256        -8.97022
           17717         75.7132         85.5089         47.2175        -8.73196
           17718         75.8113         85.5558         47.4902        -8.85606
           17719         73.1565         81.8873         46.4165        -9.87883
           17720         73.4085         82.1130         46.6078        -10.0180
           17721         72.8524         81.1904         46.6470        -10.4393
           17722         72.6023         80.9693         46.4591        -10.3017
           17723         70.6278         77.9740         46.5479        -11.1229
           17724         70.3270         77.7116         46.4897        -10.9283
           17725         70.7647         78.5154         46.3474        -10.5496
           17726         71.0637         78.7779         46.4075        -10.7444
           17727         67.3458         72.6596         47.5486        -12.2479
           17728         66.8657         71.6435         47.8216        -12.6152
           17729         66.4522         71.2498         48.0314        -12.3096
           17730         66.9329         72.2661         47.7599        -11.9448
           17731         65.2799         70.5031         48.6223        -10.8732
           17732         64.6148         69.3879         49.1843        -10.8641
           17733         64.4217         69.5348         49.1744        -10.2677
           17734         65.0926         70.6500         48.6123        -10.2784
           17735         62.0838         64.7780         52.1359        -10.2845
           17736         62.5277         65.8987         51.3895        -10.2094
           17737         62.7846         65.7904         51.2630        -10.9277
           17738         62.3452         64.6703         52.0061        -11.0044
           17739         60.7290         61.9559         54.6919        -9.06921
           17740         60.7404         61.2831         55.1761        -9.49987
           17741         60.5142         60.9545         55.6124        -9.01120
           17742         60.5072         61.6285         55.1317        -8.58723
           17743         60.1513         58.3814         58.5100        -8.21114
           17744         59.9764         58.6922         58.4335        -7.47253
           17745         60.0977         59.3953         57.4663        -8.05777
           17746         60.2863         59.0854         57.5470        -8.79183
           17747         62.2100         53.4867         67.8063        -3.57310
           17748         62.0529         53.4048         67.2986        -4.59890
           17749         62.5739         52.8621         68.3756        -4.48518
           17750         62.7483         52.9412         68.8877        -3.46704
           17751         66.5714         50.8290         75.3266    -972.253E-03
           17752         65.7563         51.2945         74.0835        -1.22109
           17753         65.4252         51.1429         73.5788        -2.16452
           17754         66.2283         50.6790         74.8262        -1.91404
           17755         70.8336         49.6791         80.9789         2.21883
           17756         70.0109         50.0874         79.8686         2.17585
           17757         69.2438         50.1123         78.9736         1.17989
           17758         70.0547         49.7025         80.0818         1.22423
           17759         77.8539         47.4485         89.3725         4.58311
           17760         76.7243         47.7504         88.1053         4.12432
           17761         76.8115         47.6436         88.2814         3.76513
           17762         77.9235         47.3404         89.5312         4.22523
           17763         79.8817         46.8264         91.9565         3.57598
           17764         80.4694         46.6454         92.5488         4.13242
           17765         79.4097         46.8928         91.3407         3.96071
           17766         78.8201         47.0732         90.7379         3.40012
           17767         83.8930         46.1559         96.5631         3.66049
           17768         84.4398         45.7346         97.1078         4.06938
           17769         83.5856         45.8458         96.1095         4.23895
           17770         83.0415         46.2627         95.5660         3.82710
           17771         86.3287         45.9874         99.4427         2.71206
           17772         86.1099         45.8728         99.1610         2.97151
           17773         85.7662         46.2924         98.8064         2.83664
           17774         85.9845         46.4054         99.0861         2.57818
           17775         86.4457         46.5000         99.6589         2.06907
           17776         86.1635         46.9939         99.3714         1.90569
           17777         86.3652         47.0084         99.6206         1.62370
           17778         86.6479         46.5160         99.9096         1.78679
           17779         86.8910         46.7761         100.251     628.338E-03
           17780         87.0968         46.5119         100.475     412.013E-03
           17781         87.1033         46.4205         100.468     842.353E-03
           17782         86.6135         47.2471         99.9619    -204.354E-03
           17783         86.6331         47.2416         99.9848    -61.2916E-03
           17784         86.5242         47.4413         99.8680    -5.78684E-03
           17785         86.5024         47.4496         99.8431    -149.419E-03
           17786         88.7674         99.7294         70.3613    -163.177E-03
           17787         89.0398         99.7475         71.4550    -228.501E-03
           17788         88.5654         99.6008         69.8812    -344.234E-03
           17789         90.4833         99.3968         77.5811    -4.94903E-03
           17790         89.7543         99.2190         75.5404    -200.666E-03
           17791         89.3896         99.3819         73.8276    -344.393E-03
           17792         90.0821         99.5591         75.8697    -148.425E-03
           17793         86.5999         98.1697         65.3438        -1.55191
           17794         86.8115         98.1558         66.5116        -1.45776
           17795         86.3540         97.7825         65.5338        -1.73034
           17796         86.1612         97.8100         64.3496        -1.83737
           17797         83.4020         95.1113         58.9595        -3.70719
           17798         83.5863         95.3807         58.8550        -3.60179
           17799         83.8919         95.6362         59.8246        -3.36556
           17800         83.7130         95.3704         59.9331        -3.47408
           17801         81.5074         93.0373         54.9823        -5.16015
           17802         81.8228         93.4485         55.2293        -4.93858
           17803         82.1582         93.7695         56.3779        -4.66601
           17804         81.8373         93.3571         56.1002        -4.89605
           17805         78.7718         89.4960         51.1042        -7.24449
           17806         79.3455         90.2756         51.7767        -6.81578
           17807         79.2773         90.1338         52.2098        -6.85060
           17808         78.7033         89.3547         51.5395        -7.27825
           17809         76.5736         86.4264         48.8199        -8.75488
           17810         76.1019         85.7758         48.3377        -9.01267
           17811         76.4076         86.3005         48.1748        -8.69926
           17812         76.8809         86.9494         48.6568        -8.43939
           17813         73.7737         82.3066         47.2300        -10.4059
           17814         73.4099         81.6767         47.2501        -10.7173
           17815         73.0403         81.1785         47.0306        -10.8155
           17816         73.4004         81.8065         47.0113        -10.5054
           17817         72.1307         80.1486         46.5458        -10.6942
           17818         72.4283         80.4565         46.6805        -10.7903
           17819         71.9729         79.6534         46.7362        -11.1633
           17820         71.6748         79.3457         46.6017        -11.0673
           17821         69.0507         75.1688         46.9331        -12.1496
           17822         68.5106         74.1655         47.1158        -12.4852
           17823         68.2116         73.9539         47.1839        -12.2032
           17824         68.7535         74.9554         47.0019        -11.8688
           17825         66.4035         71.7017         47.9976        -11.6338
           17826         66.0077         70.7389         48.3253        -12.0578
           17827         65.3500         69.9538         48.7310        -11.7089
           17828         65.7340         70.9141         48.3995        -11.2819
           17829         63.6416         66.5755         50.4239        -12.0053
           17830         63.5042         66.8087         50.4758        -11.4571
           17831         64.0422         67.8416         49.8840        -11.4705
           17832         64.1754         67.6082         49.8359        -12.0182
           17833         61.3202         62.0243         54.1021        -10.6734
           17834         61.6278         62.4607         53.5056        -11.1921
           17835         61.5754         61.6478         53.9006        -11.6713
           17836         61.2704         61.2123         54.4973        -11.1514
           17837         60.7217         59.2251         56.5882        -10.4680
           17838         60.7835         58.6546         56.8399        -10.9152
           17839         60.6410         58.3223         57.4252        -10.4460
           17840         60.5758         58.8884         57.1700        -9.99712
           17841         60.5985         55.8357         61.0713        -8.84682
           17842         60.5052         56.3620         60.4518        -8.88759
           17843         60.5625         56.3896         59.9903        -9.52244
           17844         60.6469         55.8638         60.6114        -9.47847
           17845         62.0279         52.9653         66.8100        -6.24985
           17846         62.3669         52.5751         67.6134        -6.01939
           17847         62.3739         52.8421         67.8223        -5.23528
           17848         62.0211         53.2378         67.0100        -5.46107
           17849         63.7904         51.8585         70.7571        -3.77299
           17850         63.4448         52.2688         70.1516        -3.59196
           17851         62.9535         52.4103         69.1268        -4.50010
           17852         63.3071         52.0034         69.7520        -4.67024
           17853         68.0997         50.0728         77.5374    -500.618E-03
           17854         67.3736         50.4062         76.5046    -769.386E-03
           17855         67.0589         50.2658         76.0718        -1.54170
           17856         67.7703         49.9301         77.1016        -1.26836
           17857         71.9987         48.5147         82.7160     614.357E-03
           17858         72.5261         48.2936         83.3906     579.533E-03
           17859         73.3389         48.2249         84.3565         1.29306
           17860         72.8077         48.4487         83.6817         1.33248
           17861         75.2841         47.7295         86.7204         1.66179
           17862         76.4106         47.5179         88.0457         2.02787
           17863         76.9197         47.4685         88.5813         2.68110
           17864         75.7802         47.6924         87.2545         2.31695
           17865         81.3357         46.9947         93.7244         3.01539
           17866         81.6793         46.7162         94.0649         3.42791
           17867         80.7667         46.7962         93.0216         3.33758
           17868         80.4291         47.0759         92.6832         2.92504
           17869         84.7046         46.4702         97.5693         3.14532
           17870         85.1875         46.1139         98.0875         3.28918
           17871         84.9210         45.9018         97.7338         3.59900
           17872         84.4296         46.2501         97.2076         3.45530
           17873         85.3540         47.3479         98.4310         2.26041
           17874         85.0451         47.8901         98.1045         2.07710
           17875         85.3305         47.9938         98.4533         1.82368
           17876         85.6382         47.4517         98.7797         2.00687
           17877         86.2448         47.5709         99.5284         1.14315
           17878         86.5279         47.0269         99.8234         1.31755
           17879         86.0815         47.5517         99.3262         1.44803
           17880         86.6957         47.1677         100.053     142.318E-03
           17881         86.6297         47.3197         99.9835     118.952E-03
           17882         86.6121         47.3445         99.9646     2.29658E-03
           17883         86.6769         47.1955         100.033     23.6851E-03
           17884         88.7230         99.1441         71.9017    -572.023E-03
           17885         88.3616         99.2417         70.1098    -658.028E-03
           17886         88.9917         99.4792         72.0310    -425.873E-03
           17887         89.6146         98.5112         76.6862    -5.38559E-03
           17888         88.8374         98.2468         74.6675    -290.940E-03
           17889         88.6017         98.5175         73.1363    -531.621E-03
           17890         89.3441         98.7819         75.1551    -246.320E-03
           17891         86.6412         97.1838         69.0347        -1.32557
           17892         85.9723         96.7280         67.4810        -1.68862
           17893         85.8476         96.9450         66.0799        -1.91769
           17894         86.4950         97.4036         67.6366        -1.55603
           17895         82.7730         94.2877         58.7038        -4.08650
           17896         83.1223         94.7399         58.8594        -3.89714
           17897         83.5739         95.1091         60.3400        -3.50379
           17898         83.2217         94.6555         60.1863        -3.68591
           17899         80.8479         92.0884         55.1557        -5.57236
           17900         80.3099         91.4218         54.2913        -5.98870
           17901         80.3992         91.6020         53.7345        -5.99701
           17902         80.9341         92.2697         54.5906        -5.58436
           17903         75.0749         84.1587         48.1445        -9.78837
           17904         74.6230         83.5100         47.7937        -10.0281
           17905         74.9120         84.0086         47.7136        -9.76612
           17906         75.3688         84.6585         48.0648        -9.52656
           17907         72.6229         80.4495         47.0448        -11.1578
           17908         73.0022         80.9776         47.2523        -11.0386
           17909         72.5297         80.1685         47.2314        -11.3905
           17910         72.1540         79.6384         47.0252        -11.5119
           17911         70.4489         76.9693         46.7965        -12.2576
           17912         71.0003         77.9365         46.7950        -11.8913
           17913         71.2951         78.2906         46.8556        -11.9230
           17914         70.7427         77.3241         46.8603        -12.2890
           17915         67.1696         71.9008         47.6203        -12.8877
           17916         67.6866         72.9175         47.4215        -12.5641
           17917         67.9728         73.1478         47.2657        -12.8198
           17918         67.4562         72.1306         47.4647        -13.1438
           17919         64.2077         66.9145         49.8429        -12.8579
           17920         64.5038         67.2801         49.5177        -13.0854
           17921         64.2795         66.5907         49.7189        -13.3714
           17922         63.9901         66.2324         50.0445        -13.1417
           17923         63.3193         64.9589         50.8744        -12.9900
           17924         63.3675         64.7473         50.7622        -13.3309
           17925         63.0342         64.0191         51.2296        -13.2924
           17926         62.9853         64.2359         51.3420        -12.9472
           17927         61.5079         60.0438         54.3723        -12.7323
           17928         61.2131         59.4930         55.2165        -12.1623
           17929         61.2362         60.3288         54.9709        -11.6166
           17930         61.5360         60.8799         54.1295        -12.1890
           17931         60.6902         55.8219         60.1497        -10.1143
           17932         60.6195         56.3936         59.6656        -9.98761
           17933         60.6594         56.5441         59.1025        -10.5058
           17934         60.7243         55.9677         59.5886        -10.6348
           17935         61.1539         53.8963         63.4445        -8.74079
           17936         61.2892         53.3510         63.6115        -9.26186
           17937         61.5277         52.9531         64.6562        -8.65916
           17938         61.3969         53.5011         64.4894        -8.13605
           17939         65.6888         50.2317         73.9265        -3.65686
           17940         65.9870         50.4206         74.4429        -2.81359
           17941         65.1886         50.9449         73.1662        -3.07272
           17942         64.9136         50.7610         72.6596        -3.91370
           17943         69.7694         49.1194         79.8540    -505.724E-03
           17944         68.7348         49.4440         78.4594        -1.03882
           17945         68.4646         49.1909         78.0954        -1.85722
           17946         69.4802         48.8713         79.4894        -1.32628
           17947         74.4978         47.8539         85.7915         1.31642
           17948         74.3374         47.8055         85.6272     839.281E-03
           17949         75.1165         47.6839         86.5556         1.17895
           17950         79.5920         47.1222         91.7270         2.76421
           17951         79.3177         47.3503         91.4463         2.36838
           17952         80.1550         47.3044         92.4080         2.52926
           17953         82.3878         47.5403         94.9840         2.66327
           17954         82.9788         47.6882         95.6777         2.56805
           17955         83.3981         47.2230         96.1234         2.87308
           17956         82.8075         47.0762         95.4305         2.96935
           17957         84.4175         49.1003         97.4212         1.63147
           17958         84.7412         49.2441         97.8115         1.37166
           17959         85.0416         48.5995         98.1433         1.60906
           17960         84.7197         48.4558         97.7532         1.86915
           17961         85.7378         48.7388         98.9878     697.983E-03
           17962         85.5306         49.3788         98.7595     370.151E-03
           17963         85.7257         49.3088         98.9872     12.6013E-03
           17964         85.9295         48.6702         99.2146     343.085E-03
           17965         86.4059         47.6604         99.7351     513.107E-03
           17966         86.2522         48.0661         99.5739     296.947E-03
           17967         86.3354         48.0134         99.6693     9.38433E-03
           17968         86.4878         47.6112         99.8310     225.596E-03
           17969         87.6804         98.4030         69.7541        -1.01239
           17970         87.0604         98.0359         68.1488        -1.32145
           17971         87.4040         98.5256         68.1046        -1.15117
           17972         88.3633         97.2370         75.3914    -6.33661E-03
           17973         87.5426         96.8878         73.4008    -375.352E-03
           17974         87.4498         97.2644         72.0998    -701.076E-03
           17975         88.2381         97.6140         74.0908    -332.539E-03
           17976         84.7561         95.8107         64.6728        -2.42770
           17977         84.6853         95.9572         63.6364        -2.62063
           17978         85.2557         96.4276         64.9332        -2.25813
           17979         85.3435         96.2861         65.9595        -2.06800
           17980         82.2890         93.3900         60.2446        -3.94218
           17981         82.7955         93.8900         61.2786        -3.56582
           17982         82.7457         93.6425         62.2192        -3.31966
           17983         82.2154         93.1353         61.1585        -3.68950
           17984         77.2133         87.2274         52.3963        -7.70945
           17985         77.5236         87.6449         52.1684        -7.72496
           17986         78.0884         88.4131         53.0579        -7.22950
           17987         77.7776         87.9917         53.2884        -7.21352
           17988         75.0097         83.9960         49.3226        -9.68355
           17989         75.3882         84.5479         49.2306        -9.55218
           17990         75.9318         85.3630         49.8638        -9.10894
           17991         75.5496         84.8100         49.9562        -9.24072
           17992         73.0410         80.9281         47.8243        -11.0873
           17993         73.4568         81.5825         47.8337        -10.8708
           17994         74.0004         82.4347         48.2658        -10.4845
           17995         73.5787         81.7812         48.2588        -10.6991
           17996         69.7171         75.4488         46.7714        -13.0286
           17997         70.3766         76.5864         46.8576        -12.6546
           17998         70.5112         76.7792         46.8690        -12.6313
           17999         69.8498         75.6407         46.7823        -13.0068
           18000         67.8113         72.0635         46.8366        -13.9853
           18001         67.3580         71.2051         46.8559        -14.2341
           18002         67.1016         70.7988         47.0732        -14.2243
           18003         67.5465         71.6563         47.0485        -13.9723
           18004         66.0670         69.1562         47.8942        -14.1491
           18005         65.9032         69.0675         48.1273        -13.9130
           18006         66.4158         70.0812         47.8875        -13.6928
           18007         66.5811         70.1718         47.6532        -13.9289
           18008         63.2988         63.2530         50.0431        -14.9093
           18009         63.2767         63.4766         50.3717        -14.5462
           18010         63.7379         64.5796         49.8978        -14.4289
           18011         63.7590         64.3562         49.5674        -14.7934
           18012         61.6794         59.7592         53.7242        -13.6310
           18013         61.9433         60.3940         52.8993        -13.9762
           18014         61.7800         59.4982         53.0078        -14.3848
           18015         61.5266         58.8644         53.8345        -14.0391
           18016         60.9065         56.1795         56.9331        -13.0456
           18017         60.8457         55.2712         57.4991        -13.1553
           18018         60.8266         55.1559         58.2996        -12.5754
           18019         60.8726         56.0611         57.7318        -12.4655
           18020         61.0529         53.2594         61.7352        -11.0701
           18021         60.9660         53.3206         61.0735        -11.5509
           18022         61.0908         52.4734         61.8627        -11.5149
           18023         61.1970         52.4169         62.5286        -11.0344
           18024         62.8227         49.9216         67.9308        -8.77752
           18025         62.6911         50.3485         67.6316        -8.68560
           18026         62.3128         50.4652         66.5829        -9.36269
           18027         62.4335         50.0330         66.8790        -9.45163
           18028         64.5048         49.8511         71.6935        -6.04927
           18029         63.8603         50.1497         70.4271        -6.70994
           18030         63.9562         49.7206         70.5394        -7.06439
           18031         64.6012         49.4250         71.8100        -6.40349
           18032         67.5748         48.2870         76.7261        -4.19152
           18033         66.8645         48.6805         75.6559        -4.48042
           18034         66.3056         48.5687         74.7337        -5.23126
           18035         66.9896         48.1711         75.7956        -4.94399
           18036         72.2753         47.7786         83.1167        -1.11671
           18037         73.1348         47.6867         84.1870    -780.860E-03
           18038         73.5269         47.7637         84.6688    -200.154E-03
           18039         72.6596         47.8572         83.6012    -537.065E-03
           18040         75.6166         47.7914         87.1796     26.1662E-03
           18041         75.8388         47.7320         87.4449     398.823E-03
           18042         74.9573         47.6707         86.3991     42.0609E-03
           18043         74.7420         47.7324         86.1339    -326.866E-03
           18044         78.8185         48.5037         90.9179         1.08708
           18045         79.1303         48.2138         91.2790         1.42408
           18046         78.3452         48.0096         90.3737         1.21798
           18047         78.0381         48.2999         90.0131     881.224E-03
           18048         82.7816         49.0152         95.4997         1.91942
           18049         83.2688         49.2740         96.0738         1.78360
           18050         83.6170         48.6783         96.4642         2.04857
           18051         83.1311         48.4196         95.8904         2.18488
           18052         84.7682         50.0967         97.8605     771.039E-03
           18053         84.5237         50.9416         97.5644     398.365E-03
           18054         84.8200         50.9927         97.9134     14.7249E-03
           18055         85.0605         50.1485         98.2090     389.826E-03
           18056         85.3072         50.1211         98.4991     13.5778E-03
           18057         85.2875         49.4054         98.4701     743.871E-03
           18058         86.7153         96.8696         70.3051        -1.07047
           18059         87.3473         97.5781         70.8275    -957.053E-03
           18060         86.7328         95.5798         73.6926    -8.63409E-03
           18061         85.8179         95.1383         71.5582    -505.942E-03
           18062         85.8605         95.6206         70.4375    -925.654E-03
           18063         86.7405         96.0640         72.5707    -427.603E-03
           18064         83.2895         94.2355         62.8739        -3.08944
           18065         83.5937         94.2967         64.4430        -2.57546
           18066         83.0430         93.7071         63.7879        -2.80433
           18067         79.4082         89.9987         56.8919        -5.45936
           18068         80.1024         90.7831         58.1681        -4.89827
           18069         79.8583         90.4004         58.7616        -4.62844
           18070         79.1503         89.6160         57.4852        -5.18946
           18071         76.2545         85.9106         51.7151        -8.21676
           18072         75.8219         85.3597         51.9012        -8.14917
           18073         75.2153         84.4731         51.0048        -8.73086
           18074         75.6506         85.0241         50.8208        -8.79675
           18075         71.6988         78.8226         47.4651        -11.7770
           18076         71.0615         77.7596         47.1734        -12.1935
           18077         71.3448         78.1724         47.1366        -12.1392
           18078         71.9834         79.2336         47.4195        -11.7225
           18079         69.1872         74.4934         46.6646        -13.3694
           18080         68.5642         73.3864         46.6090        -13.7058
           18081         68.4934         73.2713         46.6975        -13.7064
           18082         69.1150         74.3790         46.7522        -13.3698
           18083         66.0778         68.8687         47.4884        -14.5911
           18084         65.9822         68.5981         47.2821        -14.7852
           18085         65.4876         67.6184         47.5156        -14.9618
           18086         65.5787         67.8888         47.7211        -14.7659
           18087         64.1409         64.8651         48.5864        -15.2479
           18088         64.1674         64.8549         48.1911        -15.4310
           18089         63.6236         63.6245         48.4644        -15.6483
           18090         63.6024         63.6374         48.8621        -15.4649
           18091         61.9198         59.4164         50.9801        -15.6401
           18092         61.6396         58.6033         51.5649        -15.5781
           18093         61.8137         59.1742         51.8298        -15.2754
           18094         62.1006         59.9911         51.2441        -15.3383
           18095         60.7654         53.5429         58.9043        -13.0355
           18096         60.8149         53.5239         59.5240        -12.6028
           18097         60.8220         54.3428         58.9020        -12.6178
           18098         60.7831         54.3582         58.2790        -13.0545
           18099         61.4066         51.4417         63.4648        -10.9770
           18100         61.1735         51.6844         62.4365        -11.5413
           18101         61.2475         50.8917         62.8700        -11.6649
           18102         61.4959         50.6490         63.9001        -11.1007
           18103         62.7330         48.9191         67.6618        -9.56019
           18104         62.8681         49.3693         67.9838        -9.12112
           18105         62.5146         49.6185         67.0844        -9.56381
           18106         62.3900         49.1699         66.7668        -9.99901
           18107         65.5828         48.6897         73.5247        -5.90012
           18108         65.6362         48.2504         73.5564        -6.28701
           18109         66.3403         48.1308         74.7525        -5.61034
           18110         69.6025         47.8313         79.6051        -3.01751
           18111         70.3371         47.6102         80.5776        -2.83708
           18112         70.9252         47.7533         81.3763        -2.15202
           18113         70.1787         47.9730         80.4024        -2.32653
           18114         73.7815         47.6763         84.9586        -1.03740
           18115         73.2967         47.6369         84.3548        -1.39029
           18116         73.8240         47.7556         84.9885        -1.29360
           18117         74.3098         47.7999         85.5905    -932.235E-03
           18118         76.1370         48.1077         87.7804    -52.2074E-03
           18119         76.4240         47.9508         88.1302     334.564E-03
           18120         75.3354         47.9398         86.8298    -363.669E-03
           18121         81.2499         48.9485         93.7262         1.70778
           18122         80.9003         49.5357         93.3140         1.40805
           18123         81.5187         49.8928         94.0290         1.40482
           18124         81.8682         49.3055         94.4412         1.70398
           18125         83.5250         51.4310         96.3616     751.095E-03
           18126         83.2523         52.4589         95.9902     375.639E-03
           18127         83.6529         52.7528         96.4525     15.6672E-03
           18128         83.9202         51.7248         96.8239     393.672E-03
           18129         84.2679         51.8832         97.2310     15.3267E-03
           18130         84.1805         50.7827         97.1577     774.314E-03
           18131         85.0613         95.1635         68.4946        -1.41503
           18132         85.2005         95.6178         67.6455        -1.68911
           18133         85.9717         96.0729         69.5840        -1.20336
           18134         84.7283         93.5466         71.5857    -12.3218E-03
           18135         83.7300         93.0044         69.3515    -646.661E-03
           18136         83.8467         93.5777         68.1923        -1.23453
           18137         84.8006         94.1210         70.4272    -599.418E-03
           18138         81.1862         91.5055         62.5866        -3.04769
           18139         81.3442         91.8979         61.6483        -3.48739
           18140         82.1733         92.6528         63.3184        -2.90525
           18141         82.0396         92.2570         64.2604        -2.46480
           18142         77.3875         87.4845         55.4191        -6.11877
           18143         76.7043         86.6231         54.2787        -6.72304
           18144         77.0921         87.1045         53.9199        -6.95982
           18145         77.7649         87.9659         55.0601        -6.35535
           18146         74.7681         83.9325         51.1909        -8.59604
           18147         74.1113         82.9330         50.2761        -9.24591
           18148         74.5622         83.4734         50.0966        -9.37691
           18149         71.0835         78.1442         47.5989        -11.5508
           18150         71.5116         78.7524         47.7715        -11.4305
           18151         71.6077         79.0411         48.0207        -11.1024
           18152         71.1825         78.4353         47.8494        -11.2305
           18153         68.9892         74.5961         46.4770        -12.9333
           18154         68.2896         73.4423         46.2260        -13.2640
           18155         68.4022         73.4298         46.2805        -13.4587
           18156         69.0963         74.5820         46.5313        -13.1283
           18157         63.7159         63.9845         47.2308        -15.8849
           18158         64.0316         64.5665         47.4839        -15.7306
           18159         64.4126         65.4242         47.0900        -15.6206
           18160         64.0868         64.8375         46.8395        -15.7716
           18161         62.8388         61.8106         48.8882        -15.9157
           18162         62.3540         60.6102         49.4361        -15.9878
           18163         62.6348         61.3116         49.8323        -15.6636
           18164         63.1277         62.5110         49.2819        -15.5931
           18165         60.4995         54.9395         52.9383        -15.7881
           18166         60.3140         54.1314         53.5740        -15.6784
           18167         60.5922         54.8450         54.0585        -15.3401
           18168         60.7786         55.6504         53.4205        -15.4509
           18169         60.3857         53.9518         54.5412        -15.3132
           18170         60.1622         53.3570         54.2899        -15.5122
           18171         60.0663         52.6961         54.9768        -15.3373
           18172         60.2847         53.2853         55.2204        -15.1445
           18173         60.6127         50.6938         60.2911        -13.2339
           18174         60.4421         50.9730         59.3153        -13.6647
           18175         60.3307         50.2128         59.5038        -13.7309
           18176         60.5134         49.9338         60.4798        -13.2999
           18177         61.6591         49.2604         64.7067        -11.1921
           18178         61.7451         48.5745         65.1232        -11.1844
           18179         62.1988         48.4983         66.3718        -10.4930
           18180         62.0932         49.1843         65.9531        -10.4962
           18181         63.6738         47.6472         69.8445        -8.82683
           18182         63.7164         48.0358         69.9043        -8.63406
           18183         63.2255         48.1747         68.8500        -9.18630
           18184         63.1844         47.7810         68.7900        -9.38150
           18185         66.4345         46.9678         74.8414        -6.36331
           18186         66.8188         47.1604         75.4577        -5.92738
           18187         66.3536         47.4001         74.7131        -6.20174
           18188         65.9798         47.2146         74.0963        -6.64036
           18189         71.7344         47.4011         82.3537        -2.61333
           18190         72.3591         47.5055         83.1572        -2.18911
           18191         72.2814         47.5144         83.0733        -2.08010
           18192         71.6436         47.4088         82.2564        -2.50124
           18193         78.5134         50.1067         90.4819     392.140E-03
           18194         78.8556         49.7076         90.9129     649.287E-03
           18195         78.1684         49.1981         90.1295     488.449E-03
           18196         77.8247         49.6008         89.6952     232.943E-03
           18197         80.5183         52.2684         92.7167     571.584E-03
           18198         81.1367         52.9227         93.4078     492.055E-03
           18199         81.4589         51.9984         93.8664     756.685E-03
           18200         80.8450         51.3444         93.1750     836.925E-03
           18201         82.9750         53.5643         95.5789     15.2891E-03
           18202         82.8015         52.0188         95.4728     696.598E-03
           18203         82.5177         53.1235         95.0618     338.852E-03
           18204         82.9274         92.9363         66.1886        -1.84287
           18205         83.0771         93.4636         64.9909        -2.36761
           18206         83.9540         94.1029         66.9895        -1.75428
           18207         82.3608         91.1420         69.0902    -11.5637E-03
           18208         81.3367         90.5019         66.9581    -711.471E-03
           18209         81.5936         91.1540         66.0715        -1.37892
           18210         82.5750         91.7948         68.2031    -679.845E-03
           18211         78.0932         88.1221         59.0480        -4.07465
           18212         77.3029         87.2821         57.6041        -4.73096
           18213         77.7210         87.8357         57.1232        -5.15905
           18214         78.4908         88.6756         58.5667        -4.50260
           18215         75.1016         84.6475         53.6982        -6.75724
           18216         74.4255         83.7374         52.6085        -7.41275
           18217         74.9228         84.2973         52.3670        -7.73505
           18218         75.5874         85.2081         53.4562        -7.07957
           18219         72.0079         80.0751         49.1369        -9.88801
           18220         72.5394         80.6845         49.1583        -10.0291
           18221         73.0596         81.5264         49.8141        -9.50214
           18222         72.5313         80.9182         49.7902        -9.36128
           18223         69.9878         76.6124         47.1678        -11.7993
           18224         69.4234         75.7238         46.8695        -12.0816
           18225         69.6407         75.8481         46.8341        -12.3252
           18226         70.2084         76.7421         47.1258        -12.0493
           18227         66.8526         71.0516         45.6971        -13.8993
           18228         67.0230         71.0867         45.8612        -14.0907
           18229         67.7267         72.2791         46.0924        -13.7798
           18230         67.5610         72.2439         45.9282        -13.5885
           18231         63.3755         63.7642         46.1420        -15.9551
           18232         63.7268         64.6236         45.8772        -15.7578
           18233         63.2910         64.0787         45.4335        -15.7775
           18234         62.9376         63.2145         45.7045        -15.9723
           18235         62.3575         61.6448         46.3804        -16.2926
           18236         62.7400         62.1874         46.7704        -16.2285
           18237         63.0520         62.9781         46.4445        -16.0957
           18238         62.6680         62.4369         46.0540        -16.1598
           18239         61.2310         57.9581         49.4603        -16.4358
           18240         61.4555         58.6743         48.8758        -16.4623
           18241         60.9518         57.7169         48.5070        -16.6395
           18242         60.7360         57.0013         49.0911        -16.6136
           18243         59.9918         53.4102         53.1496        -15.9187
           18244         59.8462         52.6391         53.8663        -15.7542
           18245         59.7588         51.3424         55.6088        -15.2515
           18246         59.4475         50.5562         55.3962        -15.3835
           18247         59.4768         49.9394         56.3685        -15.0682
           18248         59.7794         50.7242         56.5818        -14.9354
           18249         60.5779         48.2065         61.9100        -12.8768
           18250         60.2755         48.3965         60.8378        -13.3418
           18251         60.0930         47.6307         60.8848        -13.3605
           18252         60.4066         47.4383         61.9580        -12.8964
           18253         61.4411         45.9896         65.4946        -11.2916
           18254         61.8812         46.0390         66.4695        -10.8271
           18255         61.9632         46.6120         66.3841        -10.8661
           18256         61.5290         46.5648         65.4084        -11.3286
           18257         65.1901         47.0098         72.7531        -7.45912
           18258         64.6122         47.1994         71.7013        -7.96115
           18259         64.4457         46.8039         71.4348        -8.22872
           18260         65.0187         46.6144         72.4866        -7.72729
           18261         68.4926         46.6621         77.9603        -4.96232
           18262         67.6801         46.5027         76.7844        -5.56549
           18263         67.6479         46.2851         76.7626        -5.60936
           18264         68.4615         46.4492         77.9395        -5.00379
           18265         72.9152         47.9466         83.7945        -2.15172
           18266         72.3685         47.7508         83.1114        -2.46270
           18267         72.4678         47.8886         83.2244        -2.41270
           18268         73.0108         48.0837         83.9021        -2.10575
           18269         76.3620         49.7840         87.9126    -490.661E-03
           18270         75.7777         49.5556         87.2187    -725.850E-03
           18271         75.9193         50.1284         87.3353    -686.084E-03
           18272         76.5077         50.3540         88.0355    -446.522E-03
           18273         79.8300         51.4842         91.9530     571.036E-03
           18274         79.4861         52.3993         91.4562     344.253E-03
           18275         80.1802         53.1846         92.2204     345.806E-03
           18276         81.4207         54.8815         93.5494     12.9871E-03
           18277         81.7141         53.6862         94.0390     286.750E-03
           18278         80.8348         54.1159         92.9193     220.920E-03
           18279         81.8385         91.7301         65.2424        -1.93653
           18280         80.6674         90.4455         64.1844        -2.03351
           18281         80.9454         91.0205         63.3556        -2.59139
           18282         79.6389         88.3775         66.1982    -12.1863E-03
           18283         78.6056         87.6624         64.1659    -778.451E-03
           18284         79.0213         88.4097         63.5779        -1.51110
           18285         80.0132         89.1250         65.6098    -745.484E-03
           18286         75.7843         85.2982         58.6947        -3.10714
           18287         74.9428         84.4514         57.1585        -3.84706
           18288         75.5218         85.1690         56.8695        -4.44078
           18289         76.3360         86.0156         58.4056        -3.70055
           18290         72.6915         81.6759         51.9162        -7.25996
           18291         71.8614         80.5178         50.7749        -7.98193
           18292         72.3792         81.0231         50.6131        -8.42916
           18293         73.1928         82.1825         51.7314        -7.71364
           18294         70.6176         78.3932         48.6471        -9.80511
           18295         69.7828         77.3448         48.2172        -9.86365
           18296         69.5430         76.7419         47.6619        -10.5343
           18297         70.3728         77.7917         48.0889        -10.4747
           18298         67.1732         72.2348         45.7033        -12.9994
           18299         66.4009         70.9907         45.3571        -13.3175
           18300         66.6258         70.9978         45.4881        -13.6467
           18301         67.3903         72.2415         45.8340        -13.3290
           18302         63.9585         66.0063         44.8547        -15.0843
           18303         64.3063         66.2545         45.2439        -15.2342
           18304         64.9942         67.5241         45.3697        -14.9430
           18305         64.6515         67.2790         44.9818        -14.7910
           18306         62.1820         61.7894         45.6280        -16.1873
           18307         61.6976         61.1253         45.2538        -16.2126
           18308         61.4760         60.4155         45.6247        -16.3717
           18309         61.9576         61.0824         46.0022        -16.3443
           18310         59.6784         55.6821         47.4036        -16.8666
           18311         59.4855         54.8869         48.0889        -16.8608
           18312         60.2029         56.0189         48.7134        -16.7546
           18313         60.4072         56.8175         48.0280        -16.7626
           18314         59.5712         52.6700         52.4520        -16.1868
           18315         59.0938         51.7800         51.9772        -16.3366
           18316         59.0229         50.9857         53.0244        -16.0837
           18317         59.4932         51.8746         53.5030        -15.9305
           18318         58.6176         49.5435         53.7302        -15.8799
           18319         59.0671         50.4184         54.0720        -15.8045
           18320         58.5646         50.1091         52.6806        -16.1599
           18321         58.7550         47.8303         56.4965        -14.9978
           18322         58.7671         47.1292         57.3618        -14.6679
           18323         59.2183         47.7531         58.0731        -14.4584
           18324         59.1979         48.4489         57.1998        -14.7935
           18325         60.4904         45.8768         63.2974        -12.2709
           18326         60.0037         45.8623         62.0849        -12.7792
           18327         59.8349         45.1080         62.2902        -12.5858
           18328         60.3394         45.1215         63.5029        -12.0778
           18329         63.1441         45.3467         69.3878        -9.35771
           18330         62.6154         44.9574         68.5494        -9.70049
           18331         62.9170         44.6876         69.2828        -9.26540
           18332         63.4579         45.0792         70.1182        -8.92719
           18333         67.1171         45.7035         76.1708        -5.63231
           18334         66.9294         45.7382         75.8226        -5.95791
           18335         66.0776         45.3611         74.5967        -6.52520
           18336         66.2539         45.3315         74.9451        -6.19803
           18337         68.1251         46.1690         77.6123        -4.79809
           18338         68.1793         46.3320         77.7378        -4.48503
           18339         68.9872         46.7655         78.8008        -3.99240
           18340         68.9293         46.6041         78.6793        -4.30687
           18341         75.1485         51.5045         86.2171    -767.022E-03
           18342         75.5222         51.0613         86.7390    -752.130E-03
           18343         74.7005         50.2296         85.8124        -1.11186
           18344         74.3240         50.6708         85.2904        -1.12592
           18345         77.4505         51.5388         89.0650    -136.959E-03
           18346         77.2058         52.6037         88.6336    -211.174E-03
           18347         78.0536         53.4114         89.5768    -19.7706E-03
           18348         78.2977         52.3393         90.0129     59.0343E-03
           18349         79.1436         53.3164         90.9361     171.288E-03
           18350         78.8334         54.5349         90.3876     42.7501E-03
           18351         79.5750         55.6199         91.1503     10.5941E-03
           18352         79.8729         54.4002         91.6988     139.983E-03
           18353         78.0884         87.6433         61.7606        -2.23445
           18354         78.5196         88.3215         61.1970        -2.86237
           18355         79.4190         89.0880         63.0141        -2.13898
           18356         76.5768         85.2642         62.9179    -12.9983E-03
           18357         75.5433         84.4823         60.9956    -839.280E-03
           18358         76.1227         85.3320         60.7077        -1.63378
           18359         77.1153         86.1141         62.6295    -808.029E-03
           18360         73.4075         82.7383         54.3684        -5.33742
           18361         74.0253         83.4333         54.1850        -5.87239
           18362         74.7482         84.2981         55.4958        -5.14897
           18363         74.1520         83.6029         55.6789        -4.61359
           18364         67.6039         73.7130         46.2280        -11.6512
           18365         67.2475         73.5726         46.1718        -11.1720
           18366         66.2905         72.0955         45.5104        -11.6414
           18367         66.6684         72.2445         45.5729        -12.1231
           18368         63.6656         67.0380         43.9808        -13.8238
           18369         63.2505         66.9561         43.6266        -13.3578
           18370         62.4231         65.6409         43.2259        -13.6238
           18371         62.8502         65.7226         43.5791        -14.0910
           18372         61.9539         62.4530         44.3770        -15.7063
           18373         61.8384         62.7981         43.8910        -15.3866
           18374         60.7772         61.2357         43.3978        -15.4723
           18375         60.9097         60.8861         43.8914        -15.7986
           18376         60.1408         58.1513         45.1912        -16.5431
           18377         59.7707         58.0026         44.5191        -16.4165
           18378         59.2129         56.8892         44.5667        -16.5223
           18379         59.5921         57.0401         45.2388        -16.6485
           18380         58.8136         53.7208         47.7693        -16.9058
           18381         58.4637         53.7190         46.7662        -16.9059
           18382         57.6459         52.2341         46.6292        -16.8918
           18383         58.0181         52.2404         47.6378        -16.8948
           18384         57.5583         47.9112         52.6368        -16.0076
           18385         57.2030         48.0296         51.3960        -16.2513
           18386         56.6446         46.8807         51.4242        -16.0951
           18387         57.0252         46.7576         52.6727        -15.8539
           18388         57.4523         46.0581         54.8297        -15.2587
           18389         57.9237         46.8041         55.2132        -15.2779
           18390         57.7907         47.2762         54.2064        -15.5891
           18391         57.3153         46.5337         53.8302        -15.5658
           18392         58.3225         46.0150         57.3630        -14.5279
           18393         58.0460         45.3632         57.3626        -14.4129
           18394         58.4221         45.2027         58.5541        -14.0010
           18395         58.6814         45.8521         58.5411        -14.1216
           18396         59.5019         43.6125         62.8645        -11.9464
           18397         60.1216         43.7705         64.1227        -11.4559
           18398         60.2471         44.4672         63.8079        -11.8080
           18399         59.6478         44.3052         62.5487        -12.2990
           18400         63.4328         44.2001         70.5965        -8.29814
           18401         62.6040         43.7196         69.3848        -8.70018
           18402         62.7752         43.5510         69.9090        -8.19297
           18403         63.6191         44.0313         71.1202        -7.79027
           18404         67.2793         45.7717         76.4658        -5.30425
           18405         67.9523         46.0939         77.3173        -5.12379
           18406         74.7719         52.1729         85.6504    -698.182E-03
           18407         75.6672         53.2090         86.6186    -379.981E-03
           18408         76.0387         52.5418         87.1873    -447.363E-03
           18409         76.9048         53.4297         88.1410    -203.032E-03
           18410         76.5525         54.4746         87.5250    -143.819E-03
           18411         77.3969         55.6536         88.3850     5.32828E-03
           18412         77.7381         54.6043         89.0029    -55.0445E-03
           18413         76.6790         86.1170         60.4180        -2.32528
           18414         77.1883         86.8476         59.9888        -2.98653
           18415         77.6127         86.9126         62.1900        -1.57331
           18416         73.1922         81.8148         59.2609    -14.7037E-03
           18417         72.1576         80.9709         57.4244    -926.901E-03
           18418         72.9003         81.9249         57.4272        -1.78921
           18419         73.8918         82.7694         59.2623    -877.435E-03
           18420         70.3150         78.9762         50.8844        -6.74266
           18421         70.7078         79.5848         51.8997        -5.85098
           18422         69.8317         78.6285         51.5201        -5.49718
           18423         69.4277         78.0246         50.5000        -6.38625
           18424         67.2109         74.6796         47.2864        -8.86168
           18425         67.2284         75.0529         47.8007        -7.94563
           18426         66.2640         73.9297         47.1556        -7.91343
           18427         66.2439         73.5511         46.6295        -8.82841
           18428         60.7319         65.8296         42.1080        -10.8582
           18429         61.2261         66.8961         42.6002        -10.1416
           18430         60.0393         65.8463         41.8535        -9.54213
           18431         59.5283         64.7755         41.3646        -10.2654
           18432         58.6920         59.1081         41.8312        -14.9854
           18433         59.4913         59.9815         42.3555        -15.1436
           18434         59.7005         60.7829         42.1601        -14.7730
           18435         58.9054         59.9141         41.6304        -14.6209
           18436         57.4547         55.2101         42.8141        -16.1618
           18437         56.6815         53.8173         42.7365        -16.2280
           18438         57.2981         54.0468         43.6582        -16.4879
           18439         58.0567         55.4387         43.7366        -16.4209
           18440         55.7860         50.3565         44.6233        -16.6547
           18441         56.5044         51.6844         44.6296        -16.6965
           18442         55.8230         51.3220         43.6106        -16.5183
           18443         55.0936         49.9940         43.6039        -16.4777
           18444         57.0785         49.9404         48.3055        -16.7620
           18445         56.7275         49.9049         47.4162        -16.7880
           18446         56.1060         48.8163         47.3079        -16.6954
           18447         56.4699         48.8510         48.1957        -16.6735
           18448         56.2413         46.9344         50.2499        -16.2649
           18449         55.6218         45.8071         50.1781        -16.0848
           18450         56.0423         45.7532         51.3523        -15.9150
           18451         54.8432         42.3360         52.9836        -14.7342
           18452         55.1558         42.1557         54.0081        -14.4330
           18453         55.9110         43.1682         54.5463        -14.6277
           18454         55.6065         43.3320         53.5287        -14.9287
           18455         57.4141         42.4184         59.2360        -12.9209
           18456         56.8486         42.2608         58.0463        -13.2853
           18457         56.4796         41.5509         58.0807        -12.9538
           18458         57.0629         41.7100         59.2688        -12.5931
           18459         59.9106         42.5131         64.9032        -10.4679
           18460         59.9624         42.1330         65.4767        -9.86284
           18461         60.9327         42.7067         66.9333        -9.44043
           18462         60.8538         43.0843         66.3564        -10.0444
           18463         61.7229         42.5588         69.6165        -6.18626
           18464         62.3412         42.9707         70.4277        -5.95029
           18465         62.3599         42.9398         70.2614        -6.46236
           18466         61.7487         42.5450         69.4435        -6.70560
           18467         69.1195         47.1815         78.9966        -3.56463
           18468         68.1466         46.4433         77.7511        -4.19337
           18469         67.9749         46.6528         77.5810        -3.85802
           18470         68.9550         47.3957         78.8216        -3.23545
           18471         70.9220         49.5298         81.1530        -1.86238
           18472         71.4682         49.3454         81.8501        -2.01828
           18473         70.4474         48.2244         80.6494        -2.71894
           18474         69.8964         48.4044         79.9567        -2.56265
           18475         74.3411         52.7411         85.0172    -563.677E-03
           18476         73.9086         53.5293         84.3243    -329.954E-03
           18477         74.8586         54.8972         85.2718    -816.137E-06
           18478         75.2761         54.1070         85.9657    -233.953E-03
           18479         73.6349         82.8334         57.4495        -2.51808
           18480         74.3100         83.6758         57.3110        -3.23130
           18481         75.1943         84.5132         58.9842        -2.41563
           18482         74.5529         83.6707         59.1229        -1.70248
           18483         67.5609         76.0423         53.1092    -22.3116E-03
           18484         66.5047         75.0836         51.3435        -1.18740
           18485         67.4527         76.1573         51.6606        -2.26919
           18486         68.4448         77.1137         53.4282        -1.10107
           18487         66.1799         74.1568         47.6253        -6.93117
           18488         67.2915         75.4241         48.4961        -6.95837
           18489         67.1966         75.6319         49.2362        -5.62213
           18490         66.0751         74.3612         48.3648        -5.58719
           18491         62.9322         70.0760         44.5784        -7.88364
           18492         62.2096         69.2597         44.0458        -7.82503
           18493         62.2258         68.9397         43.8163        -8.56697
           18494         62.9532         69.7667         44.3239        -8.63000
           18495         58.7280         62.8578         40.6884        -11.5457
           18496         59.7715         64.3289         41.4214        -11.3032
           18497         59.0936         63.9281         40.9839        -10.7329
           18498         58.0478         62.4676         40.2356        -10.9829
           18499         58.0472         57.8909         41.6590        -15.2132
           18500         57.7999         58.4968         40.9931        -14.5658
           18501         57.1442         57.2735         40.8307        -14.7939
           18502         54.3270         50.6321         41.5264        -15.9786
           18503         55.1122         52.0518         41.6077        -15.9428
           18504         54.2303         51.6095         40.5218        -15.5636
           18505         53.4286         50.1881         40.4423        -15.5982
           18506         53.7570         47.3963         43.8112        -16.3347
           18507         54.5255         47.9073         44.8165        -16.4968
           18508         55.1257         49.1415         44.6381        -16.5830
           18509         54.3632         48.6281         43.6382        -16.4155
           18510         53.5460         45.1166         46.1332        -16.1738
           18511         54.2978         45.6807         47.1051        -16.2729
           18512         54.7003         46.5831         46.8522        -16.4270
           18513         53.9464         46.0187         45.8725        -16.3218
           18514         55.1420         43.4630         52.1805        -15.2395
           18515         54.7236         43.5517         51.0075        -15.4663
           18516         53.9934         42.4868         50.7046        -15.2039
           18517         54.4269         42.3976         51.8758        -14.9782
           18518         56.6134         42.6769         56.9347        -13.8081
           18519         56.3396         42.0825         57.0368        -13.5434
           18520         57.1097         42.8565         57.9409        -13.5503
           18521         57.2799         40.4681         61.4915        -10.8100
           18522         57.8556         41.2477         61.7822        -11.2135
           18523         57.2138         41.0943         60.4396        -11.7680
           18524         56.6191         40.3225         60.1478        -11.3633
           18525         57.9618         40.0480         64.1046        -8.43784
           18526         57.7081         39.7811         64.2624        -7.62588
           18527         58.6671         40.4052         65.5808        -7.26192
           18528         58.9047         40.6844         65.4299        -8.07148
           18529         65.1494         45.0202         74.1068        -4.55025
           18530         64.3912         44.4030         73.1125        -5.01944
           18531         64.1994         44.5167         72.9950        -4.51121
           18532         64.9763         45.1433         74.0000        -4.02505
           18533         68.1518         49.0731         77.7633        -1.34757
           18534         68.7901         48.9018         78.5655        -1.83979
           18535         67.6628         47.4854         77.2769        -2.65818
           18536         67.0039         47.6465         76.4812        -2.16190
           18537         71.4160         51.2260         81.5542    -958.302E-03
           18538         70.8916         51.8092         80.7829    -532.307E-03
           18539         71.9430         53.3417         81.8232    -5.95681E-03
           18540         72.4452         52.7563         82.5949    -431.353E-03
           18541         69.4297         78.3055         52.3835        -3.94185
           18542         68.8166         77.5492         51.0918        -4.95321
           18543         70.4182         79.3814         52.8137        -4.48903
           18544         63.4744         71.8123         48.6046    -17.3050E-03
           18545         62.4266         70.7772         47.0742        -1.07619
           18546         63.5042         71.9286         47.7176        -2.18734
           18547         64.4934         72.9618         49.2477        -1.13039
           18548         62.0306         69.4520         44.3117        -6.78798
           18549         62.5942         70.2990         45.0735        -6.13954
           18550         61.8570         69.6524         44.6830        -5.49355
           18551         61.2769         68.8092         43.9188        -6.14590
           18552         58.0810         63.0926         40.2980        -10.1866
           18553         57.0888         62.1567         39.6043        -9.81236
           18554         57.0506         61.5376         39.5414        -10.6090
           18555         55.9733         57.6452         39.2844        -13.3083
           18556         55.6805         57.8660         38.9028        -12.7746
           18557         54.7904         56.8542         38.3062        -12.6503
           18558         55.0890         56.6319         38.6935        -13.1874
           18559         53.2796         52.4277         38.5927        -14.4220
           18560         54.0804         52.6188         39.5510        -14.9755
           18561         55.2605         54.3402         40.0843        -14.9699
           18562         54.4841         54.1563         39.1348        -14.4161
           18563         52.0756         47.6098         40.5068        -15.6300
           18564         52.9203         48.0089         41.5554        -15.9570
           18565         53.5755         49.2632         41.5188        -15.9688
           18566         52.7479         48.8594         40.4679        -15.6491
           18567         51.1277         40.9327         46.2906        -15.1716
           18568         51.0861         41.3906         45.6154        -15.3176
           18569         50.3811         40.6331         45.1016        -15.1181
           18570         50.4276         40.1919         45.7851        -14.9607
           18571         52.0336         39.2078         50.7783        -13.9370
           18572         51.5336         39.2146         49.5896        -14.1826
           18573         50.5581         38.0089         49.1590        -13.7030
           18574         51.0836         38.0018         50.3497        -13.4621
           18575         53.0139         38.3716         54.3792        -12.4848
           18576         53.3921         38.3900         55.2775        -12.1576
           18577         54.2756         39.2579         56.0550        -12.4244
           18578         53.8944         39.2413         55.1463        -12.7491
           18579         55.7632         38.4300         61.6022        -8.27080
           18580         56.7498         39.0826         62.9296        -8.00841
           18581         56.8974         39.4171         62.5018        -8.95856
           18582         55.9400         38.7781         61.1768        -9.22422
           18583         60.6336         41.9452         68.6215        -5.36878
           18584         60.4268         41.6862         68.1030        -6.18061
           18585         59.4948         41.0223         67.0161        -6.18586
           18586         59.6960         41.2749         67.5381        -5.36123
           18587         63.8415         44.4668         72.6678        -4.04681
           18588         63.3291         44.4277         72.1466        -3.50876
           18589         64.2830         45.3710         73.3173        -2.87700
           18590         64.7795         45.4060         73.8405        -3.41813
           18591         67.5209         49.4103         76.9208    -723.156E-03
           18592         68.6517         51.0252         78.0519    -10.1812E-03
           18593         69.2509         50.6877         78.8933    -634.001E-03
           18594         65.5412         73.9575         48.4827        -4.51021
           18595         64.2931         72.4798         47.1030        -5.01993
           18596         64.8619         72.8824         46.9987        -6.10250
           18597         59.1658         67.3006         43.8270    -17.4409E-03
           18598         58.1580         66.2390         42.4859        -1.14449
           18599         59.3650         67.4781         43.4736        -2.19680
           18600         60.3163         68.5411         44.8160        -1.07097
           18601         53.4258         59.2888         36.8843        -7.42810
           18602         54.7141         60.2602         37.8615        -8.37431
           18603         55.2493         61.3443         38.4059        -7.53510
           18604         54.0041         60.3730         37.4263        -6.59174
           18605         55.6163         60.3018         38.4888        -9.94025
           18606         55.9758         61.2657         38.8104        -9.15244
           18607         54.3199         59.2944         37.5330        -9.15783
           18608         50.7579         50.8694         36.2407        -13.1507
           18609         49.9045         49.5371         35.9186        -13.2375
           18610         50.8869         50.0531         36.8591        -13.7899
           18611         51.7266         51.3905         37.1842        -13.6980
           18612         48.5453         45.3744         36.8489        -14.2824
           18613         49.1477         46.4308         36.9329        -14.2649
           18614         48.0148         45.8501         35.7293        -13.7210
           18615         47.3902         44.7895         35.6479        -13.7310
           18616         48.6307         44.0982         38.0646        -14.7192
           18617         49.8577         45.2619         38.9736        -15.0801
           18618         49.9297         46.1238         38.3397        -14.8774
           18619         48.6970         44.9537         37.4308        -14.5160
           18620         48.7165         40.7488         41.6493        -15.0037
           18621         48.8209         40.2502         42.4558        -14.9417
           18622         50.3486         41.7567         43.6208        -15.3844
           18623         50.2439         42.2496         42.8188        -15.4386
           18624         48.8558         37.3639         46.3235        -13.8539
           18625         49.8906         38.4734         47.0007        -14.2371
           18626         49.6891         38.8342         46.0483        -14.4766
           18627         48.6394         37.7233         45.3708        -14.0922
           18628         50.8556         36.9454         51.4946        -12.5449
           18629         50.4356         36.1301         51.8445        -11.8836
           18630         51.8397         37.0756         53.6576        -11.8744
           18631         52.2347         37.8795         53.3026        -12.5368
           18632         51.3625         35.2669         55.9668        -8.86651
           18633         52.4749         36.2245         57.0110        -9.24389
           18634         52.0558         36.1682         55.9214        -9.95062
           18635         50.9310         35.2109         54.8770        -9.57319
           18636         54.9979         37.6824         61.5617        -6.70224
           18637         54.1007         37.0157         60.1921        -7.34138
           18638         53.3149         36.3569         59.6496        -6.61457
           18639         54.2406         37.0250         61.0185        -5.97611
           18640         58.8031         40.8602         66.8446        -4.13659
           18641         60.1114         41.8276         68.2973        -4.32130
           18642         58.3843         40.3133         66.0845        -5.17963
           18643         64.6414         46.5376         73.7389        -1.52373
           18644         63.8681         46.5010         72.8038    -784.942E-03
           18645         65.0008         48.0130         73.9681    -11.4647E-03
           18646         65.7409         48.0470         74.9036    -753.126E-03
           18647         60.4292         68.0144         43.3635        -5.61773
           18648         60.9057         68.7772         44.1284        -4.72302
           18649         59.8073         67.6969         43.3125        -4.09011
           18650         59.3062         66.9309         42.5586        -4.99106
           18651         54.6685         62.5216         38.8059    -23.3603E-03
           18652         53.7165         61.4503         37.7066        -1.24036
           18653         55.0968         62.8165         39.0211        -2.46710
           18654         55.9723         63.8896         40.1195        -1.24734
           18655         52.0485         58.1903         35.7346        -6.46473
           18656         51.5080         57.1111         35.2807        -7.33923
           18657         52.9321         58.2104         36.4330        -8.30202
           18658         48.0300         50.4624         33.2245        -10.5381
           18659         48.1918         51.1061         33.1907        -10.0869
           18660         46.8279         49.9629         32.0468        -9.49941
           18661         46.6679         49.3217         32.0906        -9.97024
           18662         47.1171         45.9705         34.4229        -12.9645
           18663         47.6070         47.1930         34.3256        -12.6613
           18664         46.0517         46.0250         32.9988        -12.0043
           18665         45.5463         44.7998         33.0994        -12.3115
           18666         45.9819         40.9849         36.7056        -14.0433
           18667         46.0223         41.7023         36.1236        -13.9104
           18668         44.6818         40.6003         35.0351        -13.4543
           18669         44.6389         39.8740         35.6253        -13.5899
           18670         46.3352         39.8785         38.3676        -14.3135
           18671         47.3627         40.4890         39.5020        -14.6385
           18672         48.3356         42.0822         39.5359        -14.9007
           18673         47.3272         41.4714         38.4146        -14.5764
           18674         47.5430         36.6368         44.5789        -13.7117
           18675         48.5413         38.1977         44.5101        -14.3321
           18676         47.4368         37.1139         43.7212        -13.9514
           18677         46.8003         34.0924         46.7389        -12.0678
           18678         48.2024         35.4441         47.7739        -12.6246
           18679         47.8999         35.7712         46.5807        -13.0551
           18680         46.4791         34.4187         45.5488        -12.4993
           18681         49.3435         34.2233         52.6378        -9.90366
           18682         49.7126         34.1500         53.7586        -9.14670
           18683         50.5753         35.2793         53.7533        -10.3310
           18684         50.8190         34.5160         56.2175        -7.55439
           18685         49.6576         33.4911         55.2552        -6.87121
           18686         50.4101         33.9335         56.5755        -6.01978
           18687         51.5372         34.9584         57.5382        -6.70313
           18688         54.4129         37.2284         61.8172        -4.27380
           18689         55.3094         37.9436         62.5453        -5.18615
           18690         53.3049         36.3041         60.2939        -5.06601
           18691         60.7812         43.2566         69.3846        -1.85672
           18692         59.8595         42.8675         68.3585        -1.00059
           18693         61.0279         44.3731         69.5962    -17.1384E-03
           18694         61.9070         44.7608         70.6251    -871.840E-03
           18695         54.2301         61.6518         38.0208        -3.57946
           18696         55.7480         63.0083         39.2568        -4.83758
           18697         56.5409         64.1709         40.2600        -3.72485
           18698         50.0325         57.4981         33.6201    -20.6504E-03
           18699         49.1029         56.4051         32.7603        -1.17858
           18700         50.5676         57.8571         34.3838        -2.36188
           18701         51.4194         58.9497         35.2451        -1.20489
           18702         46.9504         53.2432         31.0449        -4.42134
           18703         46.4436         52.2738         30.7463        -5.36494
           18704         48.0659         53.6800         32.2945        -6.30935
           18705         48.5172         54.6479         32.5924        -5.36550
           18706         46.2387         43.8655         34.6812        -13.3211
           18707         46.6121         44.8778         34.4776        -13.1307
           18708         45.1462         43.7539         33.2446        -12.5586
           18709         44.7643         42.7448         33.4436        -12.7513
           18710         42.0599         37.7704         33.5775        -12.6914
           18711         43.4918         39.0320         34.6114        -13.1789
           18712         43.1771         39.3757         33.8393        -12.9250
           18713         41.7509         38.1286         32.7970        -12.4393
           18714         46.3795         34.9323         44.5660        -12.9287
           18715         44.8854         33.5932         43.4026        -12.3887
           18716         45.0047         33.0826         44.3849        -11.9627
           18717         45.8338         32.0665         47.8688        -10.2639
           18718         46.1578         31.8262         49.0437        -9.54337
           18719         47.6754         33.2106         50.2994        -10.1725
           18720         47.3824         33.4549         49.1233        -10.8962
           18721         47.0929         31.0817         53.0693        -5.31665
           18722         47.9531         31.6199         54.4480        -4.34884
           18723         49.2093         32.8534         55.5573        -5.19111
           18724         48.4004         32.3151         54.1786        -6.15896
           18725         52.2248         35.4141         59.7965        -2.25726
           18726         51.0928         34.3778         58.6645        -1.13663
           18727         52.2972         35.5982         60.0433    -21.6592E-03
           18728         53.3604         36.6344         61.1756        -1.14400
           18729         56.6281         39.4731         64.7091        -2.28108
           18730         55.5917         38.8086         63.6405        -1.15684
           18731         56.7739         40.1909         64.9485    -24.8728E-03
           18732         57.7443         40.8553         66.0192        -1.14690
           18733         51.2664         58.0944         35.0808        -4.49526
           18734         50.5901         56.9810         34.4651        -5.43255
           18735         52.6695         59.3023         36.3500        -5.52665
           18736         45.3001         52.2457         28.3339    -20.0263E-03
           18737         44.4217         51.1757         27.7816        -1.19153
           18738         45.9814         52.7471         29.7172        -2.33935
           18739         46.7725         53.8178         30.2694        -1.16931
           18740         45.2237         48.8684         30.5623        -8.49587
           18741         44.6026         48.8682         29.7661        -7.52513
           18742         43.1432         47.3751         28.5572        -7.17231
           18743         43.7648         47.3776         29.3711        -8.15661
           18744         40.0533         40.0572         28.8275        -10.3829
           18745         41.8284         41.2749         30.4202        -11.1982
           18746         42.2407         42.3638         30.2527        -10.8931
           18747         40.4974         41.1486         28.6608        -10.0787
           18748         39.5351         37.9915         29.6595        -11.0574
           18749         37.6713         36.6769         28.0114        -10.2740
           18750         37.4616         35.5305         28.7022        -10.5978
           18751         39.3586         36.8466         30.3495        -11.3814
           18752         40.5264         34.1188         34.7425        -12.3374
           18753         41.1420         35.1016         34.7459        -12.5552
           18754         39.4741         34.0616         33.0992        -11.9704
           18755         38.8057         33.0505         33.0696        -11.7319
           18756         42.2207         32.9981         38.9954        -12.3808
           18757         40.8827         31.6489         38.2089        -11.8193
           18758         41.2111         31.4468         39.0748        -11.7102
           18759         42.5000         32.7452         39.8561        -12.2555
           18760         37.3071         26.3510         38.2038        -9.03009
           18761         39.3792         28.3539         39.6444        -9.98627
           18762         38.7060         28.5311         38.1037        -10.3180
           18763         36.5732         26.5263         36.6608        -9.35269
           18764         43.5766         28.9193         47.8188        -7.27651
           18765         44.1997         29.0165         49.1383        -6.40081
           18766         45.6768         30.4639         50.3804        -7.18624
           18767         45.1032         30.3668         49.0610        -8.06223
           18768         47.6793         31.0702         54.6924        -2.30948
           18769         46.4642         29.6964         53.4920        -1.17892
           18770         47.6556         30.6853         54.9010    -22.3646E-03
           18771         48.7915         32.0581         56.1018        -1.15423
           18772         49.9930         33.1739         57.5005    -21.2916E-03
           18773         49.9637         33.2624         57.2656        -2.26794
           18774         45.3119         51.7254         29.3026        -3.40082
           18775         47.5510         54.2648         31.4601        -3.35988
           18776         40.5206         46.7874         23.0440    -23.7893E-03
           18777         39.6436         45.6945         22.9158        -1.36919
           18778         41.2975         47.3707         25.1853        -2.59759
           18779         42.0430         48.4660         25.3144        -1.25576
           18780         36.9210         38.8630         25.1031        -8.12915
           18781         37.5975         40.2235         25.0799        -7.64729
           18782         35.8152         39.0001         23.1116        -6.55553
           18783         35.0662         37.6381         23.1344        -7.03674
           18784         33.8223         35.0702         23.4994        -7.87265
           18785         35.7028         36.2285         25.4367        -8.88238
           18786         36.3165         37.5889         25.2423        -8.51702
           18787         34.5024         36.4269         23.3182        -7.50938
           18788         35.1102         32.1133         28.2514        -10.1746
           18789         33.2786         30.9573         26.5384        -9.42302
           18790         32.2936         29.3886         26.5607        -9.20688
           18791         34.1467         30.5400         28.2742        -9.95609
           18792         37.2912         30.6185         33.1887        -11.0731
           18793         35.5466         29.4993         31.5331        -10.4757
           18794         34.8481         28.1036         31.9230        -10.0441
           18795         36.6082         29.2212         33.5834        -10.6424
           18796         36.7851         28.6235         34.5614        -10.4662
           18797         34.9190         26.8394         33.4113        -9.65063
           18798         35.8271         26.6637         35.1487        -9.56373
           18799         37.6502         28.4376         36.3043        -10.3801
           18800         40.7919         27.4176         43.7793        -8.08191
           18801         39.0502         25.7123         42.4003        -7.21619
           18802         39.6902         25.6334         43.7759        -6.43015
           18803         41.3710         27.3384         45.1549        -7.29544
           18804         43.0200         26.6146         49.3913        -2.40928
           18805         41.7266         24.8933         48.1093        -1.22890
           18806         42.9126         25.5808         49.5424    -24.8252E-03
           18807         44.1056         27.3011         50.8248        -1.20666
           18808         45.2930         28.1485         52.2476    -23.4773E-03
           18809         45.3655         28.8501         52.0689        -2.36081
           18810         40.8129         46.4327         25.2694        -3.85058
           18811         42.6653         48.1813         27.3017        -4.79371
           18812         43.0601         49.1194         27.2109        -3.54049
           18813         35.7324         41.1406         17.8529    -32.8380E-03
           18814         34.7467         39.9691         18.0987        -1.37030
           18815         36.4470         41.7123         20.8139        -2.79563
           18816         37.2362         42.8862         20.5671        -1.45465
           18817         33.2761         36.3418         21.1345        -5.99925
           18818         32.6388         35.1333         21.3263        -6.46516
           18819         29.4644         29.5094         21.8837        -7.39880
           18820         29.7719         30.1704         21.6742        -7.30896
           18821         28.6459         29.3185         20.6426        -6.83385
           18822         28.3423         28.6669         20.8447        -6.94142
           18823         33.1248         29.0462         28.1875        -9.62248
           18824         31.3302         28.0147         26.4102        -8.92804
           18825         30.3192         26.5801         26.2907        -8.57045
           18826         32.1365         27.6124         28.0672        -9.26543
           18827         31.3439         23.1102         31.3553        -7.95468
           18828         32.1039         23.0006         32.7055        -7.83635
           18829         33.9053         24.8127         33.8944        -8.68103
           18830         33.1874         24.9282         32.5425        -8.79769
           18831         32.3387         20.4030         35.3707        -5.77608
           18832         34.1532         22.3546         36.8083        -6.70053
           18833         33.4803         22.5883         35.4233        -7.21206
           18834         31.5931         20.6374         33.9856        -6.28684
           18835         34.8170         19.8939         39.6223        -3.40440
           18836         35.8064         19.9245         41.0593        -2.40366
           18837         37.2630         21.9623         42.4513        -3.48349
           18838         36.3868         21.9313         41.0144        -4.48463
           18839         40.5218         23.0004         46.7883    -25.9331E-03
           18840         40.6442         24.3756         46.6619        -2.43986
           18841         39.3256         22.4819         45.3412        -1.23850
           18842         35.6231         40.3900         20.9203        -3.87153
           18843         37.8506         42.2727         23.6339        -5.36018
           18844         38.5125         43.5900         23.5353        -4.28650
           18845         30.9691         35.3367         12.9174    -24.3193E-03
           18846         29.8087         34.0790         13.3326        -1.12257
           18847         31.2865         35.7611         16.0637        -2.33833
           18848         32.2564         37.0170         15.6526        -1.24176
           18849         28.2283         29.8495         19.1635        -6.07252
           18850         28.1987         30.3822         18.3173        -5.57037
           18851         26.4131         28.7816         16.6536        -4.87323
           18852         26.3914         28.2455         17.5072        -5.37582
           18853         24.9247         23.5822         20.7519        -6.42536
           18854         26.1403         25.0525         21.1761        -6.77678
           18855         24.3985         24.1495         19.1768        -5.98461
           18856         23.1510         22.6748         18.7603        -5.63506
           18857         24.5578         19.8704         23.8036        -6.18147
           18858         25.5661         21.3808         24.0022        -6.67254
           18859         23.8004         20.4226         22.1714        -6.07189
           18860         22.7692         18.9085         21.9734        -5.58445
           18861         26.1174         17.2680         27.9991        -5.27486
           18862         27.1263         16.9582         29.6196        -4.94070
           18863         28.9506         18.9384         31.0974        -5.81259
           18864         28.0266         19.2511         29.4805        -6.14599
           18865         32.3356         17.8353         36.7607        -3.25463
           18866         31.4129         18.0719         35.3238        -4.11401
           18867         29.8298         15.8366         33.8694        -3.06919
           18868         30.8834         15.5997         35.3065        -2.21049
           18869         35.7332         17.8809         41.1439    -26.7459E-03
           18870         36.9111         20.0846         42.5285        -1.22934
           18871         34.4873         17.7210         39.6746        -1.20296
           18872         32.9329         37.3803         18.5157        -3.49173
           18873         30.3910         34.4997         16.3361        -3.16782
           18874         32.1703         36.1181         18.7885        -4.32083
           18875         23.7351         26.9022         10.2303        -1.84265
           18876         24.9101         28.1416         9.19314    -958.933E-03
           18877         23.8235         26.3700         6.40094    -14.8546E-03
           18878         22.4117         25.1288         7.44075    -902.422E-03
           18879         26.8738         28.1080         18.7788        -5.98140
           18880         27.2335         28.0282         19.5895        -6.36109
           18881         28.2890         29.4202         19.8369        -6.45042
           18882         22.0820         21.1759         18.6249        -5.37608
           18883         21.2244         19.8936         18.6102        -5.11872
           18884         23.0906         20.9483         20.5473        -5.84755
           18885         23.9091         22.2287         20.5578        -6.10675
           18886         20.2726         11.9124         22.5220        -3.16878
           18887         21.1805         11.1854         23.7965        -2.79283
           18888         22.8395         13.1495         25.3981        -3.54232
           18889         22.0358         13.8759         24.1148        -3.92115
           18890         27.3023         13.8990         30.9580        -2.83556
           18891         26.3171         14.4018         29.5589        -3.51894
           18892         24.7756         12.0577         28.0537        -2.56207
           18893         25.9089         11.5573         29.4536        -1.87886
           18894         29.6242         13.1625         33.8598        -1.08601
           18895         30.9623         12.9637         35.3370    -24.8532E-03
           18896         32.0572         15.4023         36.7831        -1.15133
           18897         22.8965         25.8574         11.2267        -2.57537
           18898         24.7361         27.7157         13.6341        -3.44994
           18899         25.4052         28.7576         12.6382        -2.71701
           18900         21.1493         23.9012         8.82932        -1.74194
           18901         21.4036         23.3244         4.58472    -10.9055E-03
           18902         19.8495         22.0944         5.97956    -856.420E-03
           18903         21.1985         21.5238         16.5192        -4.78795
           18904         20.0670         20.0276         16.3791        -4.52183
           18905         17.9445         14.2809         18.4514        -3.70178
           18906         19.6042         16.1701         19.5211        -4.37568
           18907         17.9092         15.9564         17.1362        -3.91212
           18908         16.1719         14.0709         16.0587        -3.24641
           18909         22.2388         10.3671         25.1438        -2.27632
           18910         19.6266         8.88606         22.1644        -1.99449
           18911         20.8512         8.06491         23.5114        -1.47859
           18912         24.7478         9.00214         27.9367    -902.994E-03
           18913         26.2076         8.45326         29.3910    -20.0137E-03
           18914         27.1871         11.0113         30.9068    -997.366E-03
           18915         20.4101         22.9901         10.2765        -2.49529
           18916         22.3612         24.9443         12.6767        -3.33256
           18917         16.3828         17.1610         1.68710    -2.04873E-03
           18918         14.5287         15.9266         3.50914    -577.809E-03
           18919         15.7974         17.8370         6.57886        -1.34979
           18920         17.2436         19.0705         4.76134    -772.523E-03
           18921         15.3702         15.8701         12.6791        -2.87772
           18922         15.1795         14.7718         13.7788        -2.93797
           18923         17.2596         16.2652         15.7914        -3.68874
           18924         17.3690         17.3571         14.6956        -3.62973
           18925         14.8720         9.37328         16.5966        -2.11616
           18926         14.1153         10.1512         15.4458        -2.19209
           18927         12.4030         8.23907         13.8920        -1.57280
           18928         13.2803         7.46824         15.0408        -1.49360
           18929         19.7712         5.51489         21.9053    -695.359E-03
           18930         21.4046         4.59315         23.3283    -13.2945E-03
           18931         22.2812         7.14667         24.9330    -797.970E-03
           18932         17.8433         20.0375         9.74502        -2.39328
           18933         20.0153         22.1166         12.2766        -3.27975
           18934         18.5305         20.9162         7.73495        -1.61748
           18935         7.95022         7.82842    -237.693E-03     39.2348E-03
           18936         5.77715         6.47364         1.84286    -20.6232E-03
           18937         7.20954         8.30872         4.08716    -255.929E-03
           18938         8.80701         9.63435         2.01883    -197.582E-03
           18939         9.07526         5.05071         10.4051    -615.540E-03
           18940         10.1650         3.69535         11.4605    -475.981E-03
           18941         11.7097         5.42889         13.3167    -931.841E-03
           18942         10.7936         6.78515         12.2505        -1.08176
           18943         15.6229         5.31700         17.4869    -998.322E-03
           18944         14.5902         2.91105         15.8067    -433.155E-03
           18945         16.4028         1.67073         17.1743    -3.77536E-03
           18946         17.2081         4.08158         18.8531    -569.017E-03
           18947         11.1315         12.2946         8.34900        -1.37786
           18948         10.9742         11.4476         9.62703        -1.51802
           18949         13.1481         13.3217         11.6699        -2.21206
           18950         13.2034         14.1628         10.3911        -2.07652
           18951         2.84778         1.75052         3.27369     139.093E-03
           18952         2.82205         3.24036         1.78373     142.673E-03
           18953         1.77774         1.88433     454.241E-03     293.975E-03
           18954         1.77584     450.334E-03         1.88259     291.241E-03
           18955         8.94617         1.65950         9.65513    -164.424E-03
           18956         10.9457     9.09334E-03         10.9502     11.7892E-03
           18957         11.8673         2.05922         12.7508    -297.816E-03
           18958         4.71362    -149.964E-03         4.63663     26.3849E-03
           18959         5.87228         1.67418         6.52747    -18.7716E-03
           18960         4.59759         3.54823         5.19099     74.5784E-03
           18961         8.30561         7.85015         8.53881     701.875E-03
           18962         8.51168         9.27937         7.17723     690.288E-03
           18963         10.5485         11.2777         8.98318         1.25096
           18964         16.7666         18.7427         10.0735         2.39166
           18965         14.4669         15.9524         10.1518         2.13672
           18966         14.6445         16.5236         8.61243         1.78565
           18967         24.3158         27.4317         10.6702         2.42285
           18968         23.0460         25.9023         11.4373         2.92276
           18969         21.5255         24.2535         9.06109         2.06371
           18970         29.0799         32.5608         15.4201         4.07213
           18971         27.1850         30.7076         12.5973         2.84069
           18972         35.3485         40.1011         18.3074         3.66994
           18973         36.6596         41.8974         18.0923         2.53166
           18974         38.2302         43.4931         20.3334         3.68825
           18975         40.9447         46.6760         22.4091         3.72478
           18976         39.9246         45.0786         22.4415         4.82707
           18977         46.2058         52.8431         26.6946         3.67877
           18978         45.2116         51.3022         26.3657         4.81807
           18979         43.6001         49.7921         24.5318         3.71474
           18980         48.7560         55.8171         28.8851         3.63026
           18981         47.7624         54.3018         28.3890         4.76786
           18982         47.2811         54.3585         27.1904         2.54111
           18983         53.7090         61.5404         33.3022         3.55144
           18984         52.6811         60.0436         32.4911         4.66484
           18985         51.2535         58.7129         31.0894         3.58320
           18986         52.3491         60.2097         31.9002         2.46983
           18987         59.7649         68.1425         38.6356         4.77691
           18988         60.8946         69.1080         39.4455         5.83891
           18989         58.6782         66.6034         37.6154         5.70121
           18990         64.5160         73.5403         42.7704         4.83681
           18991         65.7814         74.8562         43.6736         5.34153
           18992         63.9661         72.6962         42.0152         5.65649
           18993         69.0591         78.7831         46.9045         4.38323
           18994         70.2986         80.0945         47.6702         4.91372
           18995         69.8050         79.3302         46.7086         5.86409
           18996         68.5407         78.0170         45.9324         5.31959
           18997         75.8992         86.5838         53.9648         2.84109
           18998         74.8524         85.3916         52.2594         3.76922
           18999         74.0092         84.4779         52.2405         2.88340
           19000         78.4519         89.4587         55.4254         3.56622
           19001         79.2252         90.3322         55.3638         4.19175
           19002         77.3881         88.2091         53.5832         4.59819
           19003         83.4126         95.0384         60.0697         2.93984
           19004         82.8908         94.3440         60.5646         2.30431
           19005         83.9186         95.3321         62.4616         1.55536
           19006         84.4124         96.0305         61.9679         2.18981
           19007         86.1636         98.2053         61.9381         2.95567
           19008         85.8285         97.6283         63.0883         2.18521
           19009         86.8526         98.5890         64.9952         1.52880
           19010         87.1458         99.1671         63.8325         2.29289
           19011         88.5700         100.722         65.3159         2.02404
           19012         89.4978         101.486         67.4748         1.33198
           19013         89.8120         102.079         66.5736         1.81177
           19014         90.9429         103.314         67.7007         1.62284
           19015         90.0873         102.610         65.5888         2.24407
           19016         92.8972         105.449         69.6136         1.28925
           19017         92.1052         104.850         67.5432         1.80103
           19018         91.9631         104.431         68.6934         1.45502
           19019         93.7374         106.364         70.4436         1.13019
           19020         92.9806         105.816         68.4001         1.59022
           19021         93.6839         105.997         71.6572     829.093E-03
           19022         95.1224         107.877         71.7746     838.561E-03
           19023         94.4450         107.434         69.8125         1.19864
           19024         94.4812         107.173         71.1716     979.229E-03
           19025         95.1871         107.616         73.1336     619.079E-03
           19026         95.8288         109.053         70.7220     701.370E-03
           19027         95.5811         109.077         69.0501     783.901E-03
           19028         95.3124         108.716         69.0978     967.480E-03
           19029         96.2771         109.623         70.8141     331.947E-03
           19030         96.1480         109.641         69.9321     245.595E-03
           19031         95.9394         109.477         69.3961     458.137E-03
           19032         96.4771         109.780         71.2950    -85.4799E-03
           19033         96.2021         109.667         70.1480    -230.004E-03
           19034         95.8849         109.579         68.5044    -194.724E-03
           19035         96.1406         109.689         69.6516    -43.2433E-03
           19036         96.1985         109.078         72.7003    -536.474E-03
           19037         96.0257         109.205         71.2004    -608.075E-03
           19038         96.5503         109.441         73.1183    -392.529E-03
           19039         95.1672         108.277         70.2908    -986.468E-03
           19040         94.6056         107.893         68.5904        -1.29447
           19041         95.0448         108.458         68.6336        -1.10907
           19042         93.2795         106.105         68.8887        -1.47388
           19043         93.9454         106.565         70.7550        -1.06621
           19044         93.8403         106.147         71.8823    -793.372E-03
           19045         93.1494         105.689         70.0166        -1.20211
           19046         91.3724         104.094         66.5127        -2.07875
           19047         92.1971         104.690         68.9074        -1.41484
           19048         91.9101         104.118         69.7647        -1.09620
           19049         91.0549         103.526         67.3662        -1.75559
           19050         89.9393         102.242         66.5739        -1.84481
           19051         89.6525         101.654         67.6262        -1.31629
           19052         88.7660         100.915         65.6310        -1.93951
           19053         87.5103         99.5039         64.5794        -2.03595
           19054         87.9034         100.144         63.6796        -2.59366
           19055         84.7487         96.4217         62.1547        -2.23990
           19056         85.2910         97.1769         61.5262        -2.86701
           19057         86.1727         98.0105         63.4070        -2.14348
           19058         83.2420         94.7436         60.8122        -2.33272
           19059         83.8595         95.5562         60.3201        -2.99302
           19060         84.1641         95.6090         62.6470        -1.57968
           19061         79.9852         91.1249         57.8350        -2.53021
           19062         80.7620         92.0597         57.6341        -3.24555
           19063         81.6522         92.9759         59.3735        -2.42609
           19064         80.9083         92.0410         59.5748        -1.71083
           19065         75.5716         86.1933         52.7594        -3.90440
           19066         74.9115         85.3556         51.4219        -4.86776
           19067         76.6223         87.3459         53.0885        -4.48479
           19068         71.4695         81.4780         48.8111        -4.60891
           19069         70.4295         80.1517         47.5024        -5.38319
           19070         72.1997         82.1844         48.9613        -5.32802
           19071         66.9868         76.3841         44.9594        -4.67378
           19072         65.8359         74.9128         43.7139        -5.36243
           19073         66.5531         75.4989         43.9439        -6.21527
           19074         67.6583         76.9532         45.1761        -5.52021
           19075         59.0648         67.6480         38.2090        -3.52287
           19076         60.4726         69.0089         39.3056        -4.55404
           19077         61.3625         70.2677         40.3490        -3.41554
           19078         55.8676         63.6818         35.2493        -4.76215
           19079         54.9767         62.3176         34.5306        -5.72857
           19080         57.5166         65.1823         36.6261        -5.92549
           19081         48.4107         55.1119         28.8765        -4.61376
           19082         49.2505         56.4109         29.2962        -3.54879
           19083         47.6543         54.8016         27.5181        -2.48374
           19084         46.7385         53.4987         27.0976        -3.54891
           19085         43.5248         49.2018         25.2198        -5.11267
           19086         44.2188         50.5146         25.0222        -3.71740
           19087         42.4550         48.6980         22.9897        -2.70513
           19088         41.6469         47.3859         23.2002        -4.08890
           19089         35.9241         40.8144         18.5719        -3.55040
           19090         33.1511         37.6108         16.4714        -3.29737
           19091         34.9184         39.3161         18.8573        -4.44730
           19092         27.6074         31.2100         12.6211        -2.75165
           19093         29.3462         32.9902         15.1050        -3.78600
           19094         30.3925         34.4206         14.5063        -3.04476
           19095         24.8210         28.0100         10.8725        -2.43936
           19096         26.5427         29.8312         13.3606        -3.39959
           19097         26.0424         29.3887         10.1337        -1.79197
           19098         16.2311         18.3420         7.26749        -1.58155
           19099         18.1622         20.4558         9.45732        -2.26871
           19100         19.1754         21.6051         8.06235        -1.83511
           19101         13.9892         15.1627         10.6837        -2.13233
           19102         12.0718         13.4608         8.57825        -1.46268
           19103         13.0274         13.2825         11.6201        -2.04983
           19104         145.934         41.2559         161.803        -5.46338
           19105         140.417         36.8134         153.742        -11.3216
           19106         141.727         42.2381         154.968        -16.6637
           19107         146.036         47.5355         162.662        -10.6485
           19108         133.826         37.4103         145.333        -16.5846
           19109         125.066         38.2659         135.371        -18.5478
           19110         124.332         41.3419         132.353        -23.8308
           19111         132.220         40.8175         141.877        -22.1909
           19112         105.337         39.1731         117.469        -11.0158
           19113         102.189         40.1834         114.350        -10.7527
           19114         105.009         40.4948         116.379        -13.6101
           19115         83.3144         48.1514         94.7732        -8.25101
           19116         82.6257         49.0728         93.5814        -9.19583
           19117         84.2180         48.1400         95.4704        -9.24793
           19118         83.4512         49.1453         94.1478        -10.1974
           19119         81.0179         50.0076         91.6651        -9.02976
           19120         81.8378         50.0815         92.2305        -10.0308
           19121         86.5579         49.1835         96.3681        -13.2434
           19122         84.5235         49.8089         94.4025        -12.2958
           19123         83.8180         50.8561         92.9954        -13.1701
           19124         85.8637         50.2204         94.9762        -14.1392
           19125         90.0551         51.6916         95.8664        -20.0251
           19126         95.5171         50.1894         101.065        -22.0816
           19127         96.6146         48.7224         103.493        -20.7530
           19128         91.1120         50.3149         98.2779        -18.7625
           19129         101.560         49.2682         102.443        -28.5145
           19130         96.9259         50.8469         99.9446        -25.1802
           19131         91.4996         52.2927         93.0453        -24.8045
           19132         96.2754         50.4447         95.8514        -28.1183
           19133         132.325         40.6115         139.667        -25.9859
           19134         141.499         41.4554         153.048        -20.2015
           19135         88.8694         42.3508         88.1212         26.2731
           19136         96.0473         38.8956         92.7625         30.0854
           19137         88.8670         41.5208         83.3958         29.8952
           19138         78.2511         58.2772         44.1121         33.4258
           19139         73.7083         59.3685         44.3670         29.2908
           19140         70.8359         56.7960         49.7770         26.7165
           19141         75.1580         55.6507         49.5525         30.8431
           19142         74.0768         64.9049         36.8526         27.7401
           19143         71.2020         65.3517         37.9277         24.7589
           19144         69.5827         63.0565         41.5576         24.2148
           19145         72.4172         62.6026         40.5088         27.2039
           19146         69.6918         75.6052         32.9161         13.4902
           19147         71.2148         77.1904         31.0872         13.4959
           19148         70.8926         77.6319         31.6566         12.3080
           19149         74.2051         80.4949         27.7289         12.7816
           19150         73.6326         80.6148         28.6931         11.7304
           19151         72.2230         79.0574         30.1963         12.1314
           19152         72.7974         78.9356         29.2306         13.1852
           19153         73.0970         80.6496         29.6709         10.8229
           19154         72.6579         80.7103         30.5006         9.94052
           19155         71.8541         79.2979         30.9068         11.1127
           19156         76.5161         84.8038         27.0667         8.67522
           19157         75.8482         84.6345         28.3049         7.83915
           19158         74.5037         83.2534         29.4739         8.26155
           19159         75.1625         83.4243         28.2495         9.10030
           19160         77.9968         87.0673         27.0238         6.46478
           19161         77.7973         87.1589         27.6951         5.84801
           19162         76.7377         86.1311         28.5582         6.17234
           19163         76.9414         86.0395         27.8789         6.79807
           19164         79.8124         89.5649         27.1649         3.79637
           19165         79.6495         89.5514         27.6000         3.38882
           19166         78.9520         88.8632         28.0377         3.74833
           19167         79.1186         88.8775         27.6012         4.15696
           19168         77.7950         88.2878         30.2284         2.03060
           19169         77.6409         88.2145         30.5894         1.73515
           19170         77.1797         87.7847         31.0021         1.90854
           19171         77.3326         87.8570         30.6396         2.20496
           19172         77.8633         88.5803         30.9557     107.359E-03
           19173         77.6069         88.3818         31.3721    -57.8606E-03
           19174         77.3308         88.1560         31.7762     179.300E-03
           19175         77.5855         88.3544         31.3602     344.404E-03
           19176         76.5096         87.5231         33.3516    -205.522E-03
           19177         76.7377         87.7008         32.8964    -184.677E-03
           19178         76.7907         87.7228         32.6815    -342.229E-03
           19179         76.5608         87.5445         33.1359    -362.846E-03
           19180         74.4097         85.6740         37.2331     348.073E-03
           19181         74.1730         85.4424         37.6839     564.912E-03
           19182         74.4853         85.8030         37.9142     725.630E-03
           19183         74.7165         86.0307         37.4653     510.421E-03
           19184         73.3540         84.5737         39.4288         1.64499
           19185         73.7287         84.9935         39.5316         1.75295
           19186         73.9026         85.1909         39.1205         1.46094
           19187         73.5283         84.7709         39.0186         1.35360
           19188         72.8759         83.8698         41.4628         3.41949
           19189         72.5011         83.4692         41.3009         3.20895
           19190         72.1571         83.0274         41.6067         3.48687
           19191         72.5381         83.4328         41.7688         3.69670
           19192         72.8148         83.2257         43.6050         5.86316
           19193         72.2997         82.6557         43.5052         5.73088
           19194         72.0114         82.1458         43.8889         6.23873
           19195         72.5297         82.7184         43.9878         6.37436
           19196         72.0808         81.8485         44.5908         7.25308
           19197         71.8817         81.4159         44.8779         7.70678
           19198         72.4331         82.0684         44.9240         7.74609
           19199         72.6349         82.5011         44.6376         7.29217
           19200         71.9256         80.5177         45.9700         9.63230
           19201         72.0595         80.9471         45.7275         9.14064
           19202         71.3567         80.0354         45.7352         9.21667
           19203         71.2287         79.6043         45.9799         9.70787
           19204         72.2031         80.0802         46.6959         10.9448
           19205         71.4626         78.9363         46.6495         11.2863
           19206         71.4681         78.7587         46.7827         11.5567
           19207         72.1989         79.9017         46.8279         11.2126
           19208         71.5452         78.5072         47.0950         12.0374
           19209         71.7149         78.8541         47.0481         11.8529
           19210         70.9466         77.6075         46.8721         12.2629
           19211         70.7835         77.2551         46.9075         12.4563
           19212         69.5268         75.2089         46.6700         13.0321
           19213         70.1255         76.2119         46.8354         12.7173
           19214         69.9805         75.8934         46.7970         12.8980
           19215         69.3878         74.8936         46.6319         13.2099
           19216         67.2321         73.0600         45.9285         11.9514
           19217         67.9578         73.9422         46.2693         11.9891
           19218         67.6465         73.0922         45.9709         12.6540
           19219         66.9288         72.2095         45.6302         12.6236
           19220         63.2547         68.1384         43.6238         11.9405
           19221         63.4518         67.8202         43.7277         12.6499
           19222         62.3301         66.2360         43.0301         12.8632
           19223         62.1131         66.5491         42.9237         12.1565
           19224         58.8201         64.8405         41.1062         8.77763
           19225         57.8810         63.5459         40.2759         9.11682
           19226         57.3210         63.4509         40.0222         8.11070
           19227         58.2894         64.7487         40.8583         7.77549
           19228         59.2927         64.8418         41.2474         9.73593
           19229         59.7936         66.0844         41.8679         8.60270
           19230         60.2585         66.0917         42.0279         9.56253
           19231         62.3559         69.1687         43.9459         8.41402
           19232         63.1831         70.0447         44.5102         8.61000
           19233         62.9298         69.3650         44.0512         9.37656
           19234         62.1104         68.4995         43.4976         9.18411
           19235         59.4498         66.1847         41.8987         7.55903
           19236         57.8456         64.8526         40.8843         6.32948
           19237         79.4656         89.4917         27.9873         3.01957
           19238         80.2641         90.1570         27.2306         3.03160
           19239         80.0839         90.0981         27.6166         2.66330
           19240         78.6958         88.8660         28.7922         2.91634
           19241         78.5957         88.8728         29.1241         2.51894
           19242         77.9904         88.3061         29.6073         2.73514
           19243         78.0920         88.2999         29.2752         3.13318
           19244         78.3120         88.8803         30.1268         1.01964
           19245         78.0827         88.7226         30.5273     765.210E-03
           19246         77.6705         88.3541         30.9520     995.957E-03
           19247         77.8984         88.5112         30.5518         1.25045
           19248         77.5695         88.3022         31.2115    -740.005E-03
           19249         77.2261         88.0183         31.6992    -801.285E-03
           19250         77.1465         87.9854         31.9626    -515.817E-03
           19251         77.4883         88.2689         31.4747    -454.204E-03
           19252         76.1274         87.1691         33.7938    -475.828E-03
           19253         75.9395         86.9908         33.9899    -549.344E-03
           19254         75.8584         86.9468         34.3041    -452.338E-03
           19255         76.0461         87.1260         34.1089    -379.306E-03
           19256         74.8048         85.9266         35.3858    -516.765E-03
           19257         74.8456         85.9098         34.9192    -801.766E-03
           19258         74.4367         85.4979         35.2432    -831.671E-03
           19259         74.4005         85.5170         35.7108    -544.879E-03
           19260         73.4619         84.6673         37.9430     566.431E-03
           19261         73.1843         84.3736         38.3107     761.239E-03
           19262         73.4389         84.6621         38.4799     945.763E-03
           19263         73.7149         84.9560         38.1124     750.629E-03
           19264         71.3719         82.1177         41.7547         3.46304
           19265         71.0640         81.8326         41.4750         3.01940
           19266         70.4463         81.0516         41.9546         3.34760
           19267         70.7631         81.3372         42.2281         3.79370
           19268         71.1194         81.5698         42.7836         4.60999
           19269         70.9975         81.2954         43.1761         5.08435
           19270         71.7084         82.1183         43.1173         5.17358
           19271         71.8330         82.3921         42.7265         4.70114
           19272         70.6063         80.1817         44.5162         6.92437
           19273         70.3170         79.9596         44.3718         6.58379
           19274         69.8385         79.2426         44.6765         6.88773
           19275         70.1352         79.4647         44.8194         7.23634
           19276         70.7092         79.5047         45.5075         8.67793
           19277         70.5886         79.0761         45.7818         9.20122
           19278         71.4834         80.4631         45.4605         8.69465
           19279         70.9839         78.7072         46.3998         10.6919
           19280         70.3609         77.7213         46.4997         10.9825
           19281         70.5194         77.7116         46.6039         11.3082
           19282         71.1380         78.7033         46.5104         11.0107
           19283         69.7754         76.1409         46.8062         12.1685
           19284         70.0402         76.3826         46.8232         12.3206
           19285         70.7542         77.6023         46.7487         11.9220
           19286         70.4898         77.3619         46.7299         11.7670
           19287         67.6880         71.8082         46.5461         14.1552
           19288         68.0274         72.4200         46.6255         13.9732
           19289         67.7708         71.9510         46.6974         14.0855
           19290         67.4394         71.3434         46.6169         14.2695
           19291         68.4355         73.6501         46.2657         13.2419
           19292         68.1709         73.3787         46.1638         13.1552
           19293         68.5547         74.1223         46.3337         12.8216
           19294         68.8177         74.3916         46.4352         12.9091
           19295         64.7510         68.3728         44.5939         13.8834
           19296         64.0368         67.2212         44.2559         14.1228
           19297         63.8804         67.4043         44.0758         13.7307
           19298         64.6059         68.5555         44.4123         13.4946
           19299         60.9779         65.8457         42.2484         11.2488
           19300         62.0316         67.1358         42.9293         11.2526
           19301         61.0725         65.2609         42.2453         12.1541
           19302         80.4837         90.7326         27.9618     366.583E-03
           19303         80.8143         91.0071         27.6733     663.496E-03
           19304         81.1893         91.3411         27.3953     320.503E-03
           19305         80.8618         91.0674         27.6823     23.5364E-03
           19306         80.3855         90.6105         27.9538         1.00740
           19307         80.6699         90.8269         27.6560         1.31037
           19308         81.0955         91.2227         27.3769     966.248E-03
           19309         78.4553         89.0576         30.1489     3.77746E-03
           19310         78.1454         88.8100         30.5773    -180.290E-03
           19311         78.1722         88.8279         30.5272     291.645E-03
           19312         76.8661         87.7210         32.2275    -784.012E-03
           19313         76.5791         87.4907         32.7152    -760.199E-03
           19314         76.5768         87.5252         32.9159    -534.543E-03
           19315         76.8636         87.7569         32.4278    -557.981E-03
           19316         73.9817         84.9661         35.1242        -1.25194
           19317         73.8714         84.9205         35.6778    -886.862E-03
           19318         74.5490         85.5413         34.6900        -1.19279
           19319         73.6585         84.8171         36.9211    -69.7006E-03
           19320         73.5362         84.6500         36.5877    -382.544E-03
           19321         73.0842         84.1877         37.0514    -252.223E-03
           19322         73.2117         84.3555         37.3763     57.6945E-03
           19323         69.5554         80.1994         41.3113         2.04381
           19324         70.2516         81.0182         40.9073         2.01331
           19325         70.2430         81.0627         40.3800         1.37619
           19326         69.5371         80.2416         40.7847         1.40614
           19327         69.7565         80.2127         42.3251         3.43965
           19328         70.2984         80.9971         41.4275         2.62075
           19329         69.6014         80.1610         41.8038         2.71113
           19330         68.5186         77.9984         44.4995         5.82341
           19331         68.9079         78.3434         44.5879         6.21018
           19332         69.5209         79.2780         44.0656         5.76798
           19333         69.1415         78.9371         43.9711         5.38448
           19334         69.1277         78.0972         45.2208         7.44232
           19335         68.7422         77.3520         45.6125         7.95578
           19336         69.3835         78.0555         45.5462         8.20729
           19337         69.7681         78.7990         45.1545         7.69219
           19338         68.8553         76.1243         46.6121         10.3564
           19339         68.4296         75.2902         46.8505         10.7456
           19340         68.9310         75.8277         46.7690         10.9650
           19341         69.3567         76.6602         46.5305         10.5755
           19342         68.0212         73.5338         47.2642         12.3999
           19343         67.7197         73.2621         47.3958         12.1734
           19344         67.1775         72.2564         47.6378         12.4447
           19345         67.4786         72.5287         47.5067         12.6709
           19346         68.4438         73.1780         46.7186         13.7317
           19347         68.5241         73.3710         46.8147         13.6072
           19348         67.9216         72.3005         46.8936         13.8733
           19349         67.8420         72.1025         46.7952         14.0003
           19350         67.8290         72.1997         46.3003         13.9896
           19351         67.4827         71.5046         46.3479         14.2240
           19352         66.9674         70.6607         46.1545         14.4080
           19353         67.3024         71.3548         46.1073         14.1680
           19354         64.0815         66.3354         44.8024         14.9531
           19355         63.4455         65.1164         44.6949         15.2526
           19356         63.0644         64.9210         44.2653         15.0190
           19357         63.7060         66.1411         44.3713         14.7170
           19358         62.7836         66.2146         43.4086         13.5078
           19359         63.6216         67.5456         43.8226         13.2276
           19360         63.0561         66.0737         43.6649         14.0097
           19361         81.0951         91.2223         27.3768    -966.552E-03
           19362         80.6546         90.8185         27.6800        -1.27048
           19363         80.3657         90.6009         27.9885    -921.975E-03
           19364         80.8097         91.0057         27.6833    -618.558E-03
           19365         80.4792         90.7313         27.9719    -274.204E-03
           19366         81.1892         91.3411         27.3953    -320.553E-03
           19367         77.2112         87.9583         31.5099        -1.09460
           19368         77.6631         88.3389         30.9338        -1.08913
           19369         77.6443         88.2621         30.7298        -1.45928
           19370         77.1924         87.8832         31.3064        -1.46456
           19371         76.7358         87.5071         31.9358        -1.36556
           19372         76.3845         87.2242         32.4908        -1.27226
           19373         76.4994         87.3778         32.5941    -983.841E-03
           19374         76.8498         87.6612         32.0384        -1.07690
           19375         72.8310         83.7249         35.6643        -1.68759
           19376         73.1962         84.0149         34.9372        -2.14648
           19377         72.5844         83.3443         35.2340        -2.40419
           19378         72.2196         83.0530         35.9608        -1.94407
           19379         70.9428         81.8572         38.3112    -438.298E-03
           19380         71.5500         82.5240         37.9064    -402.086E-03
           19381         71.6767         82.6152         37.3151    -940.281E-03
           19382         71.0648         81.9494         37.7222    -975.304E-03
           19383         68.1635         78.6126         41.6413         1.39562
           19384         68.1648         78.5342         42.1258         2.04635
           19385         68.8500         79.3601         41.7026         2.05852
           19386         68.8543         79.4373         41.2193         1.40740
           19387         66.6051         76.2451         44.1947         3.62304
           19388         66.2243         75.8292         44.2689         3.30292
           19389         65.9396         75.3260         44.7487         3.75555
           19390         66.3242         75.7449         44.6711         4.07108
           19391         68.4397         77.6061         44.9688         6.55596
           19392         68.0159         77.2050         44.9680         6.19630
           19393         67.4960         76.3647         45.4232         6.57262
           19394         67.9267         76.7693         45.4263         6.93565
           19395         67.0126         73.7708         47.2640         10.0228
           19396         67.2989         74.4351         46.9692         9.63684
           19397         66.7624         73.8177         47.1762         9.39876
           19398         66.4806         73.1555         47.4712         9.78449
           19399         67.3777         72.9431         47.5115         11.9353
           19400         67.0578         72.6598         47.6548         11.6749
           19401         66.5504         71.6958         47.9510         11.9340
           19402         66.8687         71.9782         47.8073         12.1943
           19403         66.9399         71.0088         47.6100         13.5735
           19404         67.4402         71.9775         47.4118         13.3182
           19405         67.2131         71.7629         47.5804         13.1441
           19406         66.7159         70.7964         47.7794         13.3991
           19407         67.3396         71.1545         46.7528         14.2888
           19408         66.9635         70.4501         46.7330         14.4830
           19409         67.0613         70.6391         46.5944         14.4647
           19410         64.8185         66.9183         45.6437         15.2145
           19411         65.5381         68.2313         45.7335         14.9291
           19412         65.5462         67.9716         46.1173         15.1000
           19413         64.8397         66.6633         46.0323         15.3827
           19414         61.4406         61.1232         44.6955         16.0534
           19415         60.8776         59.8923         44.8108         16.2768
           19416         60.3511         59.5222         44.1289         16.1106
           19417         62.3814         63.6259         44.1182         15.3170
           19418         62.7555         63.7566         44.6775         15.5537
           19419         62.0796         62.4072         44.6442         15.8349
           19420         79.4618         89.8861         28.9905     143.256E-03
           19421         79.7730         90.1388         28.6421    -200.109E-03
           19422         79.4033         89.8290         29.0289    -447.436E-03
           19423         79.0916         89.5764         29.3774    -103.921E-03
           19424         76.5906         87.3091         31.8260        -1.73715
           19425         76.3110         86.9905         31.8721        -2.06263
           19426         75.8835         86.6547         32.5469        -1.85377
           19427         76.1637         86.9728         32.5012        -1.53082
           19428         74.1283         84.9085         33.9532        -2.28405
           19429         73.5828         84.3160         34.2148        -2.54589
           19430         73.7394         84.6065         34.6766        -1.88316
           19431         70.6065         81.3837         37.5346        -1.61526
           19432         70.8110         81.5244         36.9099        -2.21265
           19433         70.1169         80.7679         37.4460        -2.24743
           19434         69.9206         80.6283         38.0694        -1.64923
           19435         68.9002         79.5572         40.2047     127.959E-03
           19436         69.5649         80.3246         39.7486     157.459E-03
           19437         69.6302         80.3887         39.2174    -467.329E-03
           19438         68.9593         79.6210         39.6737    -496.467E-03
           19439         66.8065         76.8694         42.9482         1.92031
           19440         67.3671         77.5548         42.6319         2.03348
           19441         67.5309         77.8463         42.0620         1.35852
           19442         66.9742         77.1698         42.3863         1.25160
           19443         65.7261         74.8488         45.2612         4.34900
           19444         65.6599         74.5559         45.6377         4.91254
           19445         66.3011         75.3633         45.3003         5.10156
           19446         66.3704         75.6563         44.9200         4.54009
           19447         65.5724         72.3699         47.7396         8.91023
           19448         65.3619         71.7465         48.0659         9.36038
           19449         65.9495         72.4922         47.7454         9.58750
           19450         66.1665         73.1170         47.4195         9.13719
           19451         65.5436         70.9596         48.4183         10.8337
           19452         65.9812         71.6085         48.1257         10.8914
           19453         66.0101         71.9699         47.9888         10.4641
           19454         65.5645         71.3180         48.2808         10.4037
           19455         65.7551         69.3273         48.4559         13.2766
           19456         66.1909         70.2929         48.1788         12.9818
           19457         65.8923         70.0194         48.4202         12.7136
           19458         65.4588         69.0539         48.6982         13.0090
           19459         65.1528         67.5892         48.6154         14.1305
           19460         65.4483         67.9428         48.2616         14.3422
           19461         65.8978         68.9694         48.0720         14.0276
           19462         65.5954         68.6126         48.4238         13.8164
           19463         64.4155         65.4821         46.8723         15.6390
           19464         64.9116         66.4835         46.7949         15.4357
           19465         64.8995         66.3852         47.1752         15.3968
           19466         64.4085         65.3852         47.2528         15.5996
           19467         61.1793         60.1145         45.2553         16.3464
           19468         62.7036         62.6235         45.8669         16.1102
           19469         62.4005         62.4560         45.3222         16.0168
           19470         63.0874         63.9075         45.1661         15.7303
           19471         63.3833         64.0748         45.7032         15.8272
           19472         62.2110         61.0686         52.3185         14.1259
           19473         62.1799         60.6448         52.0578         14.5552
           19474         62.3739         61.3288         51.8150         14.4018
           19475         61.8641         62.7476         53.1255         11.5626
           19476         62.2436         63.5556         52.4444         11.7993
           19477         62.2630         64.1724         52.2321         11.2880
           19478         61.8728         63.3654         52.9107         11.0489
           19479         60.9531         64.8169         52.5395         7.28222
           19480         61.0582         64.4038         52.8180         8.00401
           19481         61.5298         65.3099         52.0822         8.35600
           19482         61.4255         65.7233         51.7986         7.63364
           19483         61.3719         67.0196         50.7310         5.80863
           19484         61.2749         66.5280         51.1235         6.22301
           19485         61.6767         67.0219         50.8090         6.72911
           19486         61.7730         67.5111         50.4173         6.32409
           19487         62.2165         70.4918         46.9885         1.43616
           19488         62.0204         69.9864         47.6106         2.14188
           19489         62.6059         70.7591         47.2641         2.77598
           19490         62.7954         71.2675         46.6393         2.06935
           19491         66.3763         75.6520         38.7468        -6.12466
           19492         65.7025         74.8974         39.5438        -5.92190
           19493         65.6799         75.1095         39.9241        -5.07149
           19494         66.3410         75.8611         39.1414        -5.27485
           19495         70.1556         79.5414         34.4859        -7.04175
           19496         69.1042         78.4671         35.5697        -6.93181
           19497         69.1300         78.7852         35.9669        -6.10715
           19498         70.1766         79.8606         34.8827        -6.21790
           19499         74.8164         83.8548         29.5641        -7.54813
           19500         75.0155         83.6820         28.8983        -8.32282
           19501         73.8410         82.5002         29.9551        -8.56740
           19502         73.6419         82.6729         30.6210        -7.79321
           19503         76.5951         86.1953         29.0344        -5.68066
           19504         76.4070         86.2312         29.6101        -5.12428
           19505         77.3326         87.1412         28.9012        -4.82907
           19506         77.5199         87.1050         28.3254        -5.38571
           19507         79.3351         89.3903         28.1314        -2.98467
           19508         80.0275         90.0553         27.6791        -2.64330
           19509         80.2637         90.1559         27.2292        -3.03455
           19510         79.5747         89.4923         27.6793        -3.37656
           19511         79.7851         89.9247         28.0701        -2.27133
           19512         80.3913         90.5001         27.6792        -1.94269
           19513         80.6304         90.6297         27.2901        -2.31366
           19514         78.4393         88.0223         27.6737        -4.99584
           19515         78.6766         88.0250         27.0470        -5.50381
           19516         77.7595         87.1083         27.6980        -5.89462
           19517         75.9153         84.9526         28.6341        -7.27581
           19518         77.0065         86.0648         27.7643        -6.86842
           19519         77.2845         86.0087         27.0191        -7.51081
           19520         76.1957         84.8968         27.8880        -7.91984
           19521         76.5220         84.8188         27.0726        -8.65502
           19522         75.3443         83.6044         28.0820        -9.05984
           19523         73.1039         80.7409         29.7269        -10.6705
           19524         74.4695         82.1819         28.3649        -10.3014
           19525         74.9546         82.0638         27.4066        -11.2796
           19526         73.5904         80.6228         28.7677        -11.6514
           19527         67.5600         68.9182         37.3123        -18.2020
           19528         68.9711         68.4340         36.5547        -20.3235
           19529         67.4499         66.4919         39.2771        -19.9769
           19530         66.0591         66.9775         40.0321        -17.8559
           19531         69.5846         75.5269         33.0504        -13.4358
           19532         70.2485         75.1639         32.2292        -14.9332
           19533         68.5865         73.3764         34.3822        -14.8405
           19534         67.9354         73.7405         35.2043        -13.3441
           19535         62.7221         64.4815         44.9884        -14.7554
           19536         62.0564         65.1174         45.2075        -13.0485
           19537         63.0938         66.5334         43.0982        -13.7132
           19538         63.7887         65.8988         42.8781        -15.4212
           19539         59.3292         61.5521         51.7160        -8.94386
           19540         59.8390         62.1669         50.3013        -10.2117
           19541         60.1640         61.3023         50.8557        -11.4455
           19542         59.6135         60.6889         52.2701        -10.1764
           19543         58.3990         60.1658         56.2681        -1.81064
           19544         58.3766         60.2674         55.7887        -2.91665
           19545         58.4639         59.4613         56.7257        -3.53852
           19546         58.4651         59.3607         57.2054        -2.43387
           19547         59.0765         58.2455         59.6982         1.89528
           19548         59.2959         57.7395         60.4450         2.49165
           19549         59.2933         58.2896         59.6544         3.49312
           19550         59.0666         58.7960         58.9101         2.89659
           19551         60.0219         56.7955         61.4599         5.48419
           19552         60.2342         56.2351         62.1790         5.66223
           19553         60.2699         56.3476         61.7474         6.42882
           19554         60.0617         56.9089         61.0327         6.24752
           19555         59.4772         59.5187         57.8998         5.44038
           19556         59.2633         60.0337         57.3290         4.58789
           19557         59.1535         59.3548         58.2070         3.78384
           19558         59.3641         58.8469         58.7860         4.64466
           19559         59.6978         59.2541         58.0653         6.37210
           19560         59.8460         60.2491         56.8460         6.95334
           19561         59.6129         60.5167         56.6814         6.02265
           19562         60.2743         60.8227         55.9680         8.27243
           19563         60.0509         61.1341         55.8421         7.39919
           19564         60.0590         59.9372         56.9678         7.82666
           19565         60.3004         57.8811         58.8161         8.77340
           19566         60.3426         58.5893         57.9241         9.07480
           19567         60.1612         58.8817         57.9364         8.30836
           19568         70.6425         70.6280         33.5877        -20.3809
           19569         72.4785         70.3497         32.4352        -22.6113
           19570         70.7963         68.1536         35.4041        -22.5585
           19571         61.7111         63.1754         47.2041        -13.7966
           19572         60.8954         62.1536         49.0410        -12.7571
           19573         60.4357         62.9337         48.8371        -11.2584
           19574         61.2130         63.9553         47.0012        -12.2965
           19575         58.6465         58.6123         57.7473        -4.24109
           19576         58.9436         57.7926         58.8848        -4.83219
           19577         58.8953         57.7782         59.3379        -3.54914
           19578         58.6241         58.5951         58.2019        -2.96036
           19579         58.6694         58.6482         58.6435    -960.080E-03
           19580         58.7822         58.4549         59.1033    -131.622E-03
           19581         58.7156         59.0056         58.4101     461.285E-03
           19582         58.5928         59.2021         57.9568    -366.837E-03
           19583         60.3593         55.8051         63.3397         4.15488
           19584         60.5211         55.5435         64.0194         3.42045
           19585         69.1240         65.8727         38.7274        -22.2874
           19586         73.0198         67.7564         34.3816        -25.0894
           19587         71.3336         65.4724         37.7095        -24.8245
           19588         69.6211         63.1184         41.4460        -24.2308
           19589         74.0793         64.9119         36.8661        -27.7376
           19590         72.3425         62.5518         40.6112        -27.1523
           19591         64.6606         62.9276         44.8773        -18.5397
           19592         66.0685         62.0035         44.9981        -20.7028
           19593         64.7605         60.4934         47.7681        -19.5135
           19594         63.3978         61.4179         47.6460        -17.3522
           19595         60.7420         57.2552         56.4342        -12.3526
           19596         60.0120         58.3311         55.3667        -11.0007
           19597         60.6440         58.7288         53.8461        -12.8003
           19598         61.4351         57.6496         54.9178        -14.1518
           19599         59.8068         56.1895         61.9652        -4.53515
           19600         59.2751         57.0037         60.5668        -4.01271
           19601         59.3725         56.9334         60.1313        -5.51928
           19602         59.9362         56.1165         61.5396        -6.04285
           19603         59.7849         56.3594         62.6908    -557.177E-03
           19604         59.4559         56.7885         61.7744    -830.158E-03
           19605         59.6394         56.4492         62.2133        -1.97899
           19606         59.2226         57.1610         60.9791        -1.54024
           19607         59.2341         57.0809         60.8598        -2.61196
           19608         59.6758         56.3588         62.1038        -3.06041
           19609         67.5943         63.9258         41.7199        -21.6711
           19610         68.0533         61.1944         44.7258        -23.2599
           19611         75.7831         61.7744         40.0194        -30.5376
           19612         73.9293         59.3731         44.2251        -29.4974
           19613         70.5351         60.1601         44.8026        -26.1024
           19614         66.3741         53.4676         59.3689        -19.9698
           19615         64.0204         55.1688         57.5219        -17.5086
           19616         65.6492         55.6456         55.0151        -20.3966
           19617         68.1804         53.9243         56.8703        -22.8997
           19618         61.8202         54.3829         63.8384        -9.32051
           19619         62.8928         53.6345         65.3695        -10.1938
           19620         62.5704         53.7992         66.1035        -8.31346
           19621         61.5509         54.5480         64.5697        -7.43710
           19622         62.0284         54.2205         67.2869        -3.08060
           19623         61.3554         54.7245         66.2006        -1.82540
           19624         60.5358         55.3834         63.6821        -4.78836
           19625         71.9427         57.0182         48.8890        -27.8215
           19626         70.1099         55.3381         52.7229        -25.7616
           19627         67.1527         56.6539         52.1810        -22.6069
           19628         68.8766         58.3266         48.3574        -24.6582
           19629         77.0167         50.4232         59.2028        -30.9262
           19630         79.3404         52.2450         54.0580        -33.9968
           19631         86.1636         50.0533         55.3425        -39.2688
           19632         83.7181         48.1770         60.6703        -36.1926
           19633         65.8903         51.9785         66.0989        -15.3452
           19634         67.2975         51.2312         68.1015        -15.8684
           19635         66.0495         51.8374         68.3020        -13.5506
           19636         64.6827         52.5967         66.2984        -13.0261
           19637         63.8386         53.1009         67.7204        -9.40956
           19638         60.8890         55.2395         62.3068        -8.47995
           19639         61.3150         55.1004         61.4671        -10.5221
           19640         62.3019         54.2472         63.0009        -11.3619
           19641         75.8428         49.3651         62.5306        -28.8211
           19642         70.8693         51.2764         61.2188        -24.3894
           19643         71.8291         52.3285         57.8397        -26.4725
           19644         76.8028         47.8589         80.1035        -18.4869
           19645         73.8497         49.1576         78.0742        -16.1211
           19646         73.1387         48.9484         75.9909        -17.3045
           19647         76.1631         47.6414         78.0360        -19.6573
           19648         78.8194         46.1149         72.4452        -26.9468
           19649         85.1819         43.3148         75.1675        -31.5461
           19650         85.8680         42.7899         80.2074        -29.1043
           19651         79.6212         45.6085         77.3930        -24.4914
           19652         90.9469         42.2117         91.5872        -25.6081
           19653         92.6710         40.1605         89.1171        -29.5080
           19654         129.090         23.1095         121.536        -37.2728
           19655         122.262         28.5795         121.574        -30.6884
           19656         74.4505         72.7270         41.7415        -22.7086
           19657         78.6549         74.6747         37.3126        -25.8480
           19658         76.7456         72.3226         40.8134        -25.4645
           19659         72.7266         73.3028         42.2405        -20.2316
           19660         72.7245         70.7217         44.8811        -21.9625
           19661         71.0387         71.2978         45.3796        -19.4874
           19662         75.8927         67.0440         48.1572        -26.9217
           19663         74.3510         65.2195         51.6691        -25.6556
           19664         73.2406         68.0264         47.9867        -23.7923
           19665         86.2979         53.4740         74.6577        -31.6561
           19666         80.7958         55.9334         70.7759        -27.9817
           19667         82.3051         56.2818         67.4576        -30.8361
           19668         87.8637         53.8210         71.3590        -34.5052
           19669         75.0142         57.4809         73.6427        -19.4326
           19670         75.5586         57.3415         72.1723        -21.2186
           19671         78.7300         56.1180         75.0423        -23.3028
           19672         78.1325         56.2564         76.5131        -21.5251
           19673         78.5274         55.8186         83.1396        -16.1181
           19674         80.0083         55.1181         85.2597        -16.2629
           19675         77.9346         55.5409         83.6435        -14.5879
           19676         77.0957         55.1555         83.8733        -12.8188
           19677         75.8326         55.9520         81.8824        -12.8675
           19678         79.2249         54.7442         85.6330        -14.5438
           19679         82.6225         50.6554         92.3506        -11.6893
           19680         84.4304         49.3021         94.7419        -11.4419
           19681         82.5606         50.1539         92.7188        -10.8670
           19682         77.6132         58.3186         64.9135        -27.0472
           19683         78.8747         59.2942         61.2602        -29.3540
           19684         83.6151         57.2588         63.8105        -33.1404
           19685         87.4272         52.8749         83.4553        -27.6625
           19686         90.4296         51.3062         82.5531        -31.4413
           19687         97.0202         48.7399         89.3346        -33.7183
           19688         94.0651         50.2792         90.2699        -30.0571
           19689         86.3329         52.5148         92.7517        -17.9214
           19690         84.4367         53.6907         89.8534        -18.2348
           19691         88.0847         52.8743         92.9552        -20.3101
           19692         100.333         48.5739         97.3054        -31.4392
           19693         108.723         43.3435         100.085        -37.6961
           19694         123.389         36.9076         115.132        -40.2345
           19695         114.124         42.9080         112.355        -33.5647
           19696         115.928         42.7243         123.865        -22.8279
           19697         112.844         45.3436         118.321        -26.0954
           19698         120.745         44.2577         126.592        -27.0633
           19699         10.9466         10.9503     7.50518E-03    -11.8229E-03
           19700         11.8678         12.7506         2.05699     296.781E-03
           19701         8.94615         9.65484         1.65868     163.910E-03
           19702         15.1477         14.5560         13.9446         2.94947
           19703         15.1727         13.7686         14.7688         2.93620
           19704         15.8511         11.6556         17.0621         2.77830
           19705         18.0387         14.2277         18.6215         3.70358
           19706         19.0730         13.6946         20.3277         3.71499
           19707         17.0421         11.1172         18.7693         2.78196
           19708         24.4338         15.9350         26.3968         4.72323
           19709         24.8379         17.1874         26.2240         5.30846
           19710         26.5782         18.5017         27.8662         5.86329
           19711         27.1185         15.0064         30.4492         3.65142
           19712         26.5467         15.5737         29.4577         4.21093
           19713         28.3907         17.6550         31.0735         5.07844
           19714         28.8708         17.0904         32.0651         4.51936
           19715         31.2907         18.8704         34.7287         4.90848
           19716         33.7841         20.8275         37.4384         5.34467
           19717         36.4403         22.9812         40.2928         5.83741
           19718         38.1511         24.9933         41.4450         7.04752
           19719         39.3328         25.4466         43.3249         6.45401
           19720         42.4448         27.3551         47.4866         5.69468
           19721         44.2215         29.0207         49.2105         6.31909
           19722         47.8027         31.7857         53.5923         5.94699
           19723         48.3058         32.0610         54.5765         5.05731
           19724         49.7176         33.3602         55.8010         5.96419
           19725         49.1551         33.0929         54.7025         6.80655
           19726         50.4712         34.2665         55.7237         7.69136
           19727         54.2689         37.0928         61.4019         5.05336
           19728         53.1387         36.1503         60.3988         4.17514
           19729         60.1170         41.4946         67.8740         5.82450
           19730         59.8138         41.2393         67.2924         6.42497
           19731         60.4823         41.6920         67.9945         6.61973
           19732         60.7781         41.9416         68.5755         6.01262
           19733         71.5641         50.0553         81.8995         1.61886
           19734         70.7787         49.1414         81.0063         2.12100
           19735         74.3121         51.2386         85.2042     980.292E-03
           19736         73.9850         49.9646         84.9471         1.37346
           19737         74.7800         50.7899         85.8464     993.622E-03
           19738         76.7609         51.7432         88.1921     347.033E-03
           19739         75.9795         51.0200         87.3117     621.510E-03
           19740         76.3497         50.3946         87.8372     514.979E-03
           19741         77.1293         51.1182         88.7173     240.169E-03
           19742         78.2258         51.1065         90.0537    -140.353E-03
           19743         78.5248         50.3693         90.4761    -351.356E-03
           19744         81.1647         50.2040         93.6060        -1.23517
           19745         82.5533         50.1940         95.2352        -1.42662
           19746         82.9380         49.5341         95.6896        -1.68147
           19747         84.3351         48.5887         97.3045        -1.93918
           19748         84.6868         48.7348         97.7267        -1.72711
           19749         85.0576         48.0235         98.1298        -1.96805
           19750         84.8953         47.8481         97.9241        -2.16947
           19751         85.2925         47.3035         98.3535        -2.32606
           19752         86.3694         47.2036         99.6459        -1.39509
           19753         86.0189         47.8015         99.2713        -1.26450
           19754         87.4878         45.9352         100.882    -551.147E-03
           19755         87.6806         45.6705         101.080    -667.875E-03
           19756         87.8165         45.5183         101.226    -527.553E-03
           19757         87.6234         45.7800         101.028    -409.948E-03
           19758         85.3208         48.5525         98.4838         1.27505
           19759         85.6176         48.0169         98.8051         1.48505
           19760         84.1211         49.6519         97.0886         1.35234
           19761         84.0681         48.9443         97.0010         1.85664
           19762         83.7454         49.5420         96.6376         1.59942
           19763         82.6347         50.6278         95.3249         1.23539
           19764         82.9743         49.9922         95.7302         1.52723
           19765         82.4692         49.7540         95.1344         1.68002
           19766         82.1285         50.3895         94.7288         1.38742
           19767         81.2180         50.7248         93.6444         1.17986
           19768         80.6000         50.3398         92.9299         1.20606
           19769         78.0292         50.9769         89.8267     236.461E-03
           19770         76.5795         51.3784         88.0134    -323.684E-03
           19771         75.7640         50.8509         87.0676    -598.398E-03
           19772         73.4380         50.1597         84.2380        -1.46692
           19773         72.9455         50.4026         83.5896        -1.47709
           19774         72.0046         49.5928         82.4873        -1.98691
           19775         72.2342         49.4728         82.7840        -2.04891
           19776         71.3676         48.9310         81.7229        -2.53259
           19777         68.4754         48.1971         78.1676        -2.78087
           19778         69.4158         49.0341         79.3048        -2.12885
           19779         63.5335         44.8167         71.9832        -4.91373
           19780         63.7805         44.9908         72.1541        -5.28631
           19781         63.1533         44.5846         71.2640        -5.75252
           19782         62.8962         44.4202         71.0924        -5.37241
           19783         50.1776         34.2505         56.9245        -4.24222
           19784         51.3375         35.4430         57.9252        -5.06784
           19785         45.7937         30.4686         51.8622        -4.44265
           19786         46.4310         31.7117         51.6750        -6.28746
           19787         44.9992         30.2075         50.4912        -5.42480
           19788         41.2312         26.6387         46.5543        -4.59132
           19789         42.7754         28.4272         47.8670        -5.51081
           19790         42.1154         28.4246         46.5005        -6.46039
           19791         40.4955         26.6367         45.1877        -5.54062
           19792         35.7719         23.0280         39.7158        -5.37176
           19793         38.1578         24.8303         42.4677        -5.49107
           19794         29.0853         17.1614         32.6305        -3.94448
           19795         30.8772         19.4519         34.1705        -4.90183
           19796         30.2838         20.0279         32.9045        -5.54651
           19797         28.3758         17.7377         31.3643        -4.58875
           19798         24.0208         13.7640         26.9223        -3.33165
           19799         25.8695         16.1063         28.5736        -4.22621
           19800         25.3327         16.9488         27.4252        -4.73157
           19801         18.8745         11.0476         21.1425        -2.63097
           19802         20.4357         14.5039         21.9476        -3.82459
           19803         18.3383         12.2500         20.1383        -3.02076
           19804         18.0755         13.6571         19.2006        -3.35495
           19805         20.3179         15.6629         21.1344        -4.15754
           19806         20.5035         17.0170         20.4790        -4.46896
           19807         17.2375         18.1473         13.4197        -3.22758
           19808         15.5946         17.0753         11.0122        -2.47610
           19809         16.4067         17.1743         1.66178     3.56250E-03
           19810         17.2106         18.8541         4.07654     567.716E-03
           19811         15.6233         17.4878         5.31635     995.577E-03
           19812         14.5917         15.8067         2.90629     431.454E-03
           19813         15.6836         16.6947         11.9920         2.80825
           19814         14.8281         15.3417         12.2963         2.70499
           19815         13.1679         14.0716         10.4755         2.08610
           19816         25.7721         22.4616         23.2752         6.84940
           19817         26.7470         22.6655         24.6037         7.16449
           19818         29.0912         20.4413         30.1998         6.67701
           19819         29.0440         19.8233         30.6024         6.34364
           19820         27.8875         19.4141         29.1418         6.25369
           19821         33.4548         23.4121         34.5796         7.85137
           19822         35.8877         25.0661         37.1056         8.42390
           19823         40.4036         28.2625         41.8156         9.43312
           19824         38.8426         26.5934         40.8549         8.54181
           19825         38.2075         26.6746         39.5418         8.93472
           19826         44.3035         30.1718         47.4906         8.75565
           19827         45.0726         31.0867         47.7237         9.50746
           19828         45.2642         30.8195         48.6634         8.76853
           19829         46.7685         31.7639         50.7415         8.47342
           19830         47.1849         32.2841         50.7965         9.01459
           19831         48.0455         32.9096         51.8311         9.02967
           19832         47.6239         32.3942         51.7666         8.48161
           19833         50.9693         35.5974         54.1849         10.3848
           19834         52.3892         36.8477         55.4312         10.9052
           19835         52.5367         36.5275         56.5057         9.94929
           19836         51.1402         35.2840         55.2588         9.42652
           19837         55.4738         38.0553         61.7977         7.34632
           19838         55.1627         37.9699         60.9392         8.19513
           19839         56.0518         38.6846         61.7766         8.53927
           19840         56.3581         38.7702         62.6394         7.70194
           19841         59.4997         41.1680         65.9720         8.34736
           19842         59.4976         41.0461         66.3377         7.68965
           19843         58.4862         40.3401         65.0664         7.84136
           19844         58.5039         40.4660         64.7055         8.50065
           19845         62.5435         43.0689         70.5523         6.26462
           19846         62.1810         42.8203         69.7883         7.09107
           19847         62.8752         43.2815         70.7769         6.68244
           19848         68.3384         46.4566         77.9637         4.30147
           19849         67.6777         46.1638         77.1351         4.47972
           19850         67.3426         45.8499         76.6398         4.93577
           19851         67.9995         46.1502         77.4675         4.76183
           19852         68.9040         46.5016         78.6202         4.47902
           19853         68.9379         46.6407         78.7104         4.19785
           19854         68.4907         46.3662         78.0994         4.57563
           19855         73.6020         48.9790         84.5659         1.72036
           19856         72.8225         48.4748         83.6260         2.14147
           19857         73.1668         48.2477         84.0843         2.02067
           19858         73.9487         48.7522         85.0238         1.59932
           19859         75.8681         49.3625         87.3477     680.068E-03
           19860         75.0511         48.9365         86.3820         1.04343
           19861         75.3290         48.6031         86.7569     835.040E-03
           19862         76.1497         49.0296         87.7222     471.270E-03
           19863         77.4543         48.6337         89.3156    -361.088E-03
           19864         78.2529         48.9569         90.2411    -634.267E-03
           19865         78.0153         49.3615         89.9384    -366.388E-03
           19866         77.2206         49.0389         89.0127    -93.2265E-03
           19867         80.8217         48.6947         93.2308        -1.71695
           19868         81.0812         49.4672         93.5263        -1.46929
           19869         82.9428         48.3236         95.6673        -2.24288
           19870         83.1404         47.8876         95.8758        -2.46307
           19871         83.6642         48.0097         96.4893        -2.38082
           19872         83.4626         48.4524         96.2767        -2.16049
           19873         83.8570         47.5792         96.6870        -2.59074
           19874         84.2650         47.5862         97.1631        -2.52270
           19875         84.0751         48.0159         96.9698        -2.31245
           19876         85.5138         45.9293         98.4478        -3.30529
           19877         86.0962         45.5545         99.0865        -3.31845
           19878         86.0301         45.9660         99.0762        -2.96352
           19879         85.4538         46.3402         98.4405        -2.95235
           19880         87.5184         45.3679         100.812        -1.98598
           19881         87.4941         45.5218         100.811        -1.75625
           19882         87.0639         46.0090         100.356        -1.76209
           19883         87.0827         45.8510         100.351        -1.99038
           19884         87.7138         45.4402         101.075        -1.36473
           19885         87.9893         45.1640         101.373        -1.19445
           19886         87.7478         45.5135         101.135    -995.562E-03
           19887         87.4759         45.7885         100.840        -1.16592
           19888         88.0585         45.2789         101.484     207.773E-03
           19889         88.2126         45.1072         101.645     7.15103E-03
           19890         88.5078         44.7859         101.949     211.682E-03
           19891         88.3448         44.9541         101.778     408.496E-03
           19892         86.8085         46.2185         100.046         2.18650
           19893         87.0262         46.1228         100.309         1.90279
           19894         87.3100         45.7528         100.593         2.10104
           19895         87.0940         45.8488         100.331         2.38490
           19896         86.6592         45.9949         99.7971         2.88600
           19897         86.5893         46.2669         99.7746         2.47425
           19898         86.8601         45.9607         100.051         2.61022
           19899         84.0113         48.3328         96.8971         2.31604
           19900         84.3857         47.8858         97.3018         2.55771
           19901         83.9509         47.8203         96.7779         2.76619
           19902         83.5760         48.2677         96.3730         2.52441
           19903         82.2873         49.0622         94.9079         2.07967
           19904         82.6751         48.6342         95.3386         2.39184
           19905         82.0839         48.5402         94.6432         2.46826
           19906         81.6967         48.9683         94.2121         2.15532
           19907         79.9826         49.1039         92.2240         1.76338
           19908         79.6178         49.4572         91.7986         1.42571
           19909         80.3051         49.6028         92.6020         1.48967
           19910         80.6720         49.2501         93.0267         1.82667
           19911         77.1279         49.7957         88.8424     181.202E-03
           19912         76.8512         50.0149         88.4896    -28.4912E-03
           19913         77.6021         50.3699         89.3655     186.092E-03
           19914         74.8712         49.8384         86.0746    -967.180E-03
           19915         74.2994         49.5200         85.3956        -1.23292
           19916         73.8833         49.6361         84.8574        -1.43878
           19917         74.4540         49.9589         85.5383        -1.17007
           19918         73.3402         49.3229         84.2041        -1.72258
           19919         72.9048         49.3180         83.6496        -1.91658
           19920         73.4429         49.6259         84.3011        -1.63036
           19921         70.4880         48.4763         80.5579        -3.37540
           19922         69.6495         48.2359         79.4409        -3.89030
           19923         69.8770         48.2143         79.7735        -3.67840
           19924         70.7257         48.4553         80.8951        -3.16156
           19925         66.7729         46.7832         75.7373        -5.06754
           19926         66.4922         46.6156         75.4420        -4.94871
           19927         67.2510         46.9848         76.5168        -4.29874
           19928         67.5278         47.1294         76.8136        -4.42204
           19929         65.6830         46.4096         74.1216        -5.95408
           19930         64.7502         45.9901         72.7760        -6.53497
           19931         64.7960         45.8086         73.0371        -6.09359
           19932         65.7465         46.2317         74.3840        -5.51208
           19933         61.1507         43.3228         68.6107        -6.51977
           19934         61.4632         43.7498         68.6488        -7.17380
           19935         60.7846         43.2490         67.8595        -7.17005
           19936         55.1002         39.5474         60.0699        -8.93035
           19937         54.6494         38.9166         60.1033        -8.13758
           19938         55.5509         39.3950         61.4781        -7.66626
           19939         52.8937         37.7026         57.7390        -8.55117
           19940         53.9301         38.4766         58.9686        -8.55616
           19941         53.9930         38.9237         58.3856        -9.37895
           19942         47.2537         33.1032         51.5108        -7.93518
           19943         48.6558         34.5156         52.6466        -8.59312
           19944         48.2206         34.6347         51.3820        -9.40127
           19945         46.7807         33.2226         50.2464        -8.74287
           19946         43.2020         30.2589         46.4836        -8.09602
           19947         44.8153         31.8852         47.7652        -8.81734
           19948         44.4179         32.1367         46.4954        -9.53177
           19949         42.7614         30.5107         45.2138        -8.81000
           19950         40.6207         29.0980         42.6149        -8.70485
           19951         40.2393         29.4614         41.3671        -9.28664
           19952         38.3953         27.6571         39.9736        -8.50400
           19953         33.7691         24.7160         34.7131        -7.79833
           19954         33.4411         25.2298         33.6158        -8.16215
           19955         31.7962         22.7178         33.2491        -6.94611
           19956         28.9053         22.5681         28.6875        -7.08631
           19957         26.8106         20.6091         27.1045        -6.27208
           19958         27.0393         19.8800         28.0354        -5.97967
           19959         26.8136         21.5482         26.3081        -6.56804
           19960         24.6819         19.6274         24.6596        -5.76977
           19961         24.7268         18.6893         25.4558        -5.47359
           19962         21.5635         19.7594         19.6685        -5.04446
           19963         23.6574         21.4744         21.3370        -5.81532
           19964         24.0928         22.7676         20.6499        -5.93938
           19965         21.4125         23.3283         4.56910     12.8202E-03
           19966         22.2917         24.9415         7.13695     798.051E-03
           19967         19.7746         21.9066         5.50702     694.623E-03
           19968         18.5491         20.8570         9.88963         2.41644
           19969         19.5358         21.2841         12.8990         3.50213
           19970         17.6150         19.5652         10.7812         2.71988
           19971         22.1119         20.3648         19.5882         5.45956
           19972         23.8463         22.1349         20.5407         6.09479
           19973         24.8155         22.3070         21.9417         6.48647
           19974         28.5492         24.4465         25.6450         7.88856
           19975         27.5929         24.2841         24.3292         7.53999
           19976         29.4120         26.0512         25.3845         8.23250
           19977         33.2671         25.1460         32.5078         8.85173
           19978         32.1773         24.3274         31.4919         8.52311
           19979         32.4623         25.0966         31.1809         8.83641
           19980         33.5587         25.8390         32.1842         9.20704
           19981         38.7585         29.4725         37.0555         10.8412
           19982         38.6746         30.2417         35.9810         11.1752
           19983         42.6483         31.7873         41.4191         11.6833
           19984         40.7160         30.5653         39.3039         11.2560
           19985         42.3525         32.1322         40.3560         11.9635
           19986         47.8895         33.7952         49.7655         10.9014
           19987         49.5296         34.8448         51.9303         10.8284
           19988         48.3359         33.7045         51.0158         10.2828
           19989         53.6996         37.5521         57.5256         10.4004
           19990         53.5148         37.7073         56.7588         10.9645
           19991         54.5615         38.5972         57.8358         11.1734
           19992         57.7977         40.2608         63.1584         9.54748
           19993         56.8388         39.7340         61.6710         9.98297
           19994         57.2448         40.3274         61.6440         10.5928
           19995         58.1811         40.8521         63.1327         10.1572
           19996         59.6384         41.4076         65.8190         8.85833
           19997         60.5230         41.9744         67.0657         8.53278
           19998         60.3969         41.7385         67.2146         8.02731
           19999         63.7616         44.2748         71.1782         7.96559
           20000         63.7862         44.0394         71.4651         7.51059
           20001         63.1171         43.6804         70.4805         7.89322
           20002         66.5992         45.6212         75.3455         6.17973
           20003         65.6847         45.1624         74.0487         6.72904
           20004         66.0301         45.4612         74.4596         6.68443
           20005         69.0447         46.5622         78.7826         4.49909
           20006         69.2635         46.6374         79.0615         4.43082
           20007         69.9584         46.9087         79.9972         3.94840
           20008         72.0913         47.4560         82.7992         2.49642
           20009         72.8734         47.7028         83.7779         2.05567
           20010         72.6548         47.7398         83.4831         2.28510
           20011         74.7348         48.0693         86.0789     967.618E-03
           20012         73.9015         47.8610         85.0688         1.35918
           20013         74.9605         47.9597         86.3713     654.642E-03
           20014         76.8658         48.1281         88.6452    -364.553E-03
           20015         76.0291         47.9934         87.6590    -37.7867E-03
           20016         76.2527         47.8138         87.9334    -387.577E-03
           20017         77.0957         47.9472         88.9198    -714.398E-03
           20018         82.4896         47.0095         95.0535        -3.04865
           20019         81.8378         47.1899         94.3237        -2.86916
           20020         81.7394         46.9120         94.1752        -3.13918
           20021         82.3924         46.7321         94.9025        -3.32292
           20022         83.0935         46.5319         95.6875        -3.45082
           20023         82.4042         46.4927         94.8721        -3.60677
           20024         86.8676         45.0818         99.9317        -3.28479
           20025         87.4371         44.7493         100.565        -3.14648
           20026         86.5964         45.5222         99.6936        -2.95066
           20027         88.5025         44.3152         101.820        -2.14126
           20028         88.1827         44.7309         101.516        -1.88665
           20029         87.7378         45.0520         101.024        -2.13761
           20030         90.4447         42.9992         103.918    -484.380E-03
           20031         91.1903         42.4621         104.672    -575.498E-03
           20032         91.4194         42.3589         104.915     166.438E-03
           20033         90.6758         42.8935         104.163     255.978E-03
           20034         89.2601         44.0585         102.698         1.15731
           20035         89.2581         44.0423         102.672         1.59870
           20036         88.7980         44.4465         102.197         1.59674
           20037         88.8062         44.4614         102.230         1.15655
           20038         88.2746         44.7116         101.523         2.92608
           20039         88.8504         44.3185         102.176         2.48723
           20040         88.7915         44.3039         102.063         2.94825
           20041         86.3236         45.9749         99.3456         3.46100
           20042         85.8998         46.3395         98.9015         3.31537
           20043         86.5578         45.9527         99.6465         3.17289
           20044         83.4032         47.4428         96.0467         3.51315
           20045         83.9175         47.3913         96.6748         3.25255
           20046         81.8319         48.1825         94.3090         2.87304
           20047         82.2402         47.8977         94.7354         3.27020
           20048         81.0883         48.2936         93.4353         2.89945
           20049         79.6011         48.8088         91.7632         2.03351
           20050         79.9565         48.6224         92.1501         2.43723
           20051         79.1556         48.6942         91.2151         2.30450
           20052         78.8050         48.8812         90.8286         1.90095
           20053         73.7646         49.1493         84.7801        -1.26106
           20054         74.3561         49.1991         85.5192    -858.123E-03
           20055         73.9396         49.1817         85.0087    -934.318E-03
           20056         73.3542         49.1312         84.2737        -1.33870
           20057         72.7810         49.0696         83.5437        -1.74631
           20058         72.1747         48.9805         82.7659        -2.14526
           20059         72.5280         48.9814         83.2149        -2.03287
           20060         73.1296         49.0685         83.9821        -1.64336
           20061         68.6993         48.0380         78.1212        -4.53892
           20062         67.8301         47.7648         76.9075        -5.10417
           20063         68.9252         47.8694         78.5008        -4.26640
           20064         65.4857         46.6050         73.6509        -6.43955
           20065         66.5715         46.7837         75.3730        -5.42202
           20066         63.0463         45.1071         70.3586        -7.38293
           20067         63.1643         44.9235         70.7644        -6.90406
           20068         64.0045         45.3996         71.9174        -6.54127
           20069         63.8729         45.5788         71.5096        -7.02433
           20070         59.5481         43.1597         65.2357        -9.00139
           20071         60.2978         43.7038         66.2258        -8.83689
           20072         59.3503         43.5517         64.3923        -9.72519
           20073         55.5333         40.2898         60.0079        -9.61665
           20074         56.8939         41.4671         61.4860        -9.77260
           20075         56.0577         41.0634         60.0822        -10.2237
           20076         53.7619         39.5089         56.9656        -10.5664
           20077         53.2834         39.6522         55.5719        -11.2863
           20078         52.1809         38.5195         54.6969        -10.8665
           20079         49.0614         36.7246         50.1044        -11.3716
           20080         49.2819         36.2817         51.2839        -10.6923
           20081         50.6371         37.6245         52.4107        -11.1588
           20082         45.7162         34.0723         46.5127        -10.8076
           20083         47.3106         35.6494         47.7322        -11.4116
           20084         45.4279         34.4820         45.2875        -11.3332
           20085         43.4712         33.2933         42.8117        -11.1624
           20086         43.7618         32.8631         44.0264        -10.7026
           20087         30.8033         25.6350         28.7278        -8.22282
           20088         31.1513         26.5963         28.2802        -8.47385
           20089         29.2902         25.1024         26.7929        -7.79941
           20090         28.9496         24.1431         27.2361        -7.54869
           20091         30.2660         27.2055         26.1232        -8.24959
           20092         30.9333         28.3823         25.9301        -8.46367
           20093         29.1121         27.0934         24.2893        -7.77971
           20094         28.4302         25.9170         24.4865        -7.56338
           20095         24.5377         24.9661         18.5901        -5.69578
           20096         23.0935         23.0371         18.4717        -5.38302
           20097         24.9856         24.2547         20.4254        -6.16996
           20098         20.9681         23.5889         10.4095        -2.60886
           20099         20.1814         22.5300         11.3490        -2.97663
           20100         22.1925         24.4291         13.5029        -3.79753
           20101         26.2178         29.3908         8.41005     18.6020E-03
           20102         27.2123         30.9293         10.9777     984.240E-03
           20103         24.7696         27.9557         8.97968     896.902E-03
           20104         24.7675         27.1235         15.3711         4.41181
           20105         25.9235         27.5003         17.6301         5.47040
           20106         24.0902         25.9646         15.8304         4.71179
           20107         31.0332         30.2355         23.7066         8.23910
           20108         32.4699         31.0398         25.2164         8.90069
           20109         31.4028         29.5959         24.9342         8.68821
           20110         29.9422         28.8120         23.4297         8.01059
           20111         34.6838         29.7325         29.9250         10.2174
           20112         33.7205         29.5034         28.6622         9.84433
           20113         35.1304         30.9417         29.4129         10.3558
           20114         36.0861         31.1727         30.6828         10.7315
           20115         38.1348         33.6734         31.4061         11.4247
           20116         37.2562         32.5284         31.1463         11.1502
           20117         36.3276         32.0921         30.1431         10.7787
           20118         37.2134         33.2286         30.4045         11.0538
           20119         43.1179         34.1129         39.2652         12.8212
           20120         41.8474         32.9016         38.4247         12.3351
           20121         41.6386         33.3270         37.5456         12.4458
           20122         42.9211         34.5387         38.3885         12.9295
           20123         50.3717         37.2926         49.8234         13.1939
           20124         49.4491         36.5380         48.9136         12.9724
           20125         49.8177         37.3725         48.4327         13.5330
           20126         50.7336         38.1445         49.3402         13.7417
           20127         51.6041         37.8794         51.7961         13.0038
           20128         52.7164         38.9496         52.7486         13.3426
           20129         52.8052         38.5149         53.6386         12.8294
           20130         51.7028         37.4542         52.6871         12.4871
           20131         55.6566         41.1930         56.5677         13.3052
           20132         55.4386         41.5259         55.5745         13.7634
           20133         56.3212         41.8598         57.2850         13.3691
           20134         58.3370         41.8264         62.1341         11.4302
           20135         57.7131         41.6696         60.8820         11.8988
           20136         58.1870         42.4222         61.0656         12.2150
           20137         60.7244         42.8934         66.2763         9.96461
           20138         60.1182         42.4932         65.3853         10.1934
           20139         59.9528         42.8032         64.6907         10.7440
           20140         60.5420         43.1968         65.5783         10.5140
           20141         61.7604         44.4215         67.1476         10.2482
           20142         62.6665         44.5040         68.9168         9.38125
           20143         62.0295         44.0760         67.9326         9.73512
           20144         67.4091         46.7067         76.3653         5.70347
           20145         67.4662         46.9842         76.4529         5.51397
           20146         68.1040         47.0098         77.3996         5.03552
           20147         72.7554         47.6357         83.7013         1.34788
           20148         73.0740         47.6908         84.1120     802.313E-03
           20149         73.8595         47.6862         85.0725     485.125E-03
           20150         75.7813         47.6343         87.3710    -802.616E-03
           20151         75.8907         47.5816         87.4862        -1.19652
           20152         76.7770         47.5278         88.5198        -1.55140
           20153         76.6626         47.5832         88.4059        -1.15843
           20154         77.9046         47.3442         89.7926        -2.31668
           20155         78.1886         47.2081         90.0738        -2.81510
           20156         79.1741         47.0715         91.2020        -3.05616
           20157         82.9086         46.0029         95.3280        -4.30130
           20158         82.0764         46.2190         94.3663        -4.35368
           20159         83.6640         45.6347         96.0830        -4.82711
           20160         83.5510         45.8575         96.0608        -4.29287
           20161         84.1574         45.5741         96.7107        -4.47253
           20162         84.4569         45.6095         97.0949        -4.23331
           20163         86.8524         44.3077         99.5854        -5.01034
           20164         87.7477         43.8545         100.546        -5.04647
           20165         87.7420         43.9684         100.636        -4.57160
           20166         90.2365         42.6751         103.367        -3.99952
           20167         90.4285         42.5282         103.478        -4.53656
           20168         91.2552         42.1116         104.377        -4.28638
           20169         92.0068         41.9169         105.492    -715.512E-03
           20170         93.3025         41.2298         106.815     105.239E-03
           20171         92.3364         41.7902         105.843     159.162E-03
           20172         83.4877         47.0563         95.8322         5.21531
           20173         82.8773         47.3346         95.2336         4.70805
           20174         84.4229         46.6399         96.9392         5.03203
           20175         81.3166         47.9491         93.5037         4.23251
           20176         79.7940         48.4634         91.8102         3.59231
           20177         77.8714         48.9521         89.6615         2.42074
           20178         77.0352         49.1642         88.6656         2.22757
           20179         76.6739         49.1953         88.2732         1.74892
           20180         77.5023         48.9858         89.2663         1.94091
           20181         75.4611         49.3784         86.8402     994.716E-03
           20182         74.5770         49.5698         85.7561     672.907E-03
           20183         74.2554         49.4972         85.3811     166.212E-03
           20184         71.6830         49.5228         82.1137        -1.80588
           20185         70.8192         49.5239         80.9616        -2.41484
           20186         70.9225         49.1962         81.1060        -2.68727
           20187         70.1335         49.1056         80.0338        -3.26855
           20188         69.9347         49.4556         79.7363        -3.19042
           20189         69.1592         49.3861         78.6398        -3.80799
           20190         67.2436         49.5024         75.7147        -5.37154
           20191         67.7922         49.3830         76.5922        -4.93573
           20192         67.7933         49.6948         76.5641        -4.80071
           20193         67.2511         49.8175         75.6949        -5.23256
           20194         65.5590         48.0803         73.2045        -7.00173
           20195         64.9384         48.2543         72.0659        -7.58324
           20196         65.2615         47.4515         72.9012        -7.12048
           20197         62.5546         46.1759         68.6325        -8.93718
           20198         63.2846         46.6096         69.7674        -8.50140
           20199         63.0351         47.0784         69.0248        -8.98524
           20200         62.3265         46.6420         67.8942        -9.42006
           20201         60.1077         45.4187         64.1702        -10.7517
           20202         60.8628         45.7961         65.4850        -10.2902
           20203         60.8753         46.5273         64.9155        -10.7600
           20204         56.7080         43.2875         58.6881        -12.0852
           20205         56.1055         43.6347         56.7726        -12.8836
           20206         55.7877         42.7611         57.1536        -12.3984
           20207         49.6652         39.4490         47.3501        -13.3702
           20208         48.0240         38.4189         45.1787        -13.2274
           20209         44.6899         36.6315         40.6442        -12.8092
           20210         44.7447         35.9438         41.7118        -12.5105
           20211         46.3916         37.5050         42.9610        -13.0532
           20212         46.3520         38.1965         41.8926        -13.3504
           20213         41.4942         35.8607         35.4977        -12.2293
           20214         42.4993         36.1295         37.0137        -12.4916
           20215         43.7586         37.6823         37.4375        -12.9618
           20216         42.7883         37.4291         35.9290        -12.6991
           20217         35.8339         32.0487         30.0609        -10.2746
           20218         36.3066         32.9983         29.7767        -10.4116
           20219         34.6812         31.7006         28.4928        -9.81934
           20220         34.2076         30.7445         28.7816        -9.68553
           20221         35.3398         34.5871         26.3286        -9.48809
           20222         33.6551         33.1706         25.0489        -8.86596
           20223         28.6408         29.6041         20.2215        -6.67391
           20224         30.9404         31.4305         22.2412        -7.61169
           20225         31.2975         32.6324         21.3122        -7.20922
           20226         29.0687         30.8052         19.2904        -6.27583
           20227         27.6061         30.3101         16.3769        -4.88460
           20228         28.4027         31.6093         15.6727        -4.37182
           20229         30.9702         35.3366         12.9094     23.3516E-03
           20230         32.0651         36.7894         15.3755         1.14881
           20231         29.6392         33.8724         13.1287         1.07693
           20232         29.8175         32.6161         18.6338         5.34853
           20233         31.6008         33.9895         20.6317         6.29594
           20234         30.8634         32.6197         20.8428         6.68252
           20235         34.7448         35.3965         24.6813         8.53916
           20236         32.7338         33.9472         22.7703         7.60676
           20237         33.5153         35.4149         22.6191         7.26845
           20238         35.4688         36.8602         24.5286         8.20236
           20239         38.7092         36.2729         29.8965         11.1552
           20240         38.1047         35.0673         30.0413         11.1540
           20241         41.1687         35.0279         34.8376         12.5770
           20242         40.3396         34.7255         33.8144         12.2777
           20243         42.4836         36.6267         35.3580         13.0154
           20244         46.0681         38.5511         39.3466         14.1984
           20245         47.2483         39.2203         40.7406         14.5170
           20246         45.4580         37.4757         39.4752         13.9412
           20247         48.5073         39.6260         42.5975         14.7892
           20248         48.9807         39.4064         43.8187         14.7524
           20249         50.8313         38.8752         48.5025         14.2078
           20250         51.8738         39.8519         49.4497         14.4695
           20251         53.7658         40.9871         52.2694         14.3887
           20252         54.6505         41.8348         53.2055         14.5091
           20253         54.5956         41.2513         53.8993         14.1102
           20254         53.7106         40.4047         52.9636         13.9895
           20255         55.4430         42.5936         54.1246         14.5557
           20256         60.5406         45.0166         64.0501         11.8261
           20257         60.3166         44.2499         64.1478         11.5993
           20258         59.5917         44.0964         62.6077         12.2166
           20259         59.8387         44.8655         62.5120         12.4450
           20260         63.4138         46.8854         69.4321         9.26651
           20261         62.9534         46.5417         68.5609         9.78682
           20262         62.6378         47.1179         67.7426         10.1033
           20263         63.0787         47.4619         68.6069         9.58453
           20264         64.9427         46.5869         72.3633         7.78768
           20265         64.5179         46.3724         71.6296         8.22602
           20266         64.2464         46.7952         71.0707         8.41690
           20267         64.6645         47.0025         71.8081         7.97955
           20268         65.6176         47.5630         73.4867         6.79172
           20269         66.1243         47.3656         74.3398         6.42041
           20270         65.3540         47.2090         73.0313         7.22542
           20271         70.5660         47.6007         80.8829         2.69392
           20272         70.5932         47.7437         80.9377         2.40073
           20273         82.8039         45.8320         94.8507        -5.95695
           20274         81.2414         46.3673         93.1947        -5.35951
           20275         84.6587         45.1119         96.9203        -6.07535
           20276         84.3096         45.2998         96.4001        -6.58175
           20277         85.2698         44.9164         97.3880        -6.91257
           20278         85.6219         44.7346         97.9136        -6.40233
           20279         86.7938         44.2408         99.1479        -6.63297
           20280         86.8445         44.2048         99.3441        -6.05903
           20281         85.6719         44.7014         98.1067        -5.83229
           20282         92.8445         41.3235         106.146        -3.25833
           20283         92.1488         41.6656         105.309        -4.21068
           20284         94.0436         40.7430         107.417        -2.73004
           20285         95.6676         40.0222         109.028        -2.99434
           20286         91.1179         43.3693         103.914         6.58799
           20287         91.9065         42.7376         104.906         5.72991
           20288         93.1476         42.2609         106.106         6.22054
           20289         88.9978         44.8841         101.324         7.90006
           20290         86.9070         45.8889         99.1053         7.59405
           20291         85.7387         46.5803         97.7344         7.78642
           20292         86.2808         45.9719         98.6026         6.86606
           20293         74.8727         51.3968         85.4295         4.35483
           20294         73.4345         51.9120         83.6971         3.53312
           20295         73.8060         51.2448         84.3817         2.89536
           20296         75.2317         50.7451         86.0966         3.70170
           20297         73.0225         50.8457         83.6269         1.36642
           20298         73.8335         50.4106         84.6898         1.53450
           20299         74.5519         50.4987         85.4748         2.46958
           20300         73.7438         50.9383         84.4283         2.30452
           20301         70.7045         50.7866         80.7171        -1.14558
           20302         69.8689         51.2752         79.5217        -1.45095
           20303         69.4594         51.0462         78.9713        -2.12980
           20304         68.0817         50.6635         76.9446        -3.92144
           20305         68.6661         50.6562         77.8412        -3.31031
           20306         68.2917         51.2590         77.2256        -3.21376
           20307         66.6440         50.8174         74.5989        -5.32126
           20308         67.1299         50.3549         75.4485        -5.08347
           20309         67.5580         50.5955         76.1281        -4.48805
           20310         63.6631         51.2153         68.6301        -8.84706
           20311         64.2278         51.3465         69.8678        -8.05616
           20312         63.8240         51.7414         68.8529        -8.52751
           20313         62.0394         48.6079         66.0617        -10.5377
           20314         62.5535         48.7446         67.1576        -10.0054
           20315         62.5946         49.6128         66.7852        -10.1620
           20316         59.8045         47.6109         61.3936        -12.4312
           20317         59.2319         47.4198         60.0990        -12.8811
           20318         59.0156         46.5213         60.5184        -12.5370
           20319         58.3734         46.2948         59.1389        -12.9700
           20320         58.7040         47.2926         58.8273        -13.3043
           20321         58.1557         47.1051         57.5474        -13.6901
           20322         57.3401         46.9871         55.4194        -14.2921
           20323         56.7188         45.9522         55.1702        -14.1050
           20324         57.6817         46.8962         56.5376        -13.9382
           20325         54.3233         44.5758         50.8746        -14.6466
           20326         53.7861         44.3370         49.8591        -14.7406
           20327         53.2229         43.4122         49.8709        -14.4449
           20328         53.7706         43.6462         50.8803        -14.3551
           20329         52.4357         43.8187         47.3103        -14.8799
           20330         51.6178         42.8689         46.7661        -14.6560
           20331         51.6151         42.3902         47.4799        -14.4399
           20332         52.4224         43.3265         48.0090        -14.6755
           20333         43.6906         38.6792         36.0657        -13.0006
           20334         44.7934         39.3406         37.2677        -13.3669
           20335         44.4109         39.7801         36.0282        -13.2294
           20336         42.0665         39.1727         32.6148        -12.2334
           20337         42.1216         39.9890         31.8293        -12.0392
           20338         40.5707         37.8933         31.5005        -11.7112
           20339         39.8179         40.3372         27.6598        -10.1494
           20340         39.4430         39.2815         28.1349        -10.4295
           20341         41.2762         40.7337         29.6465        -11.1533
           20342         41.6283         41.7893         29.1714        -10.8728
           20343         40.7154         42.5984         26.8819        -9.40936
           20344         40.2454         41.4643         27.2347        -9.79690
           20345         42.0404         42.8920         28.7596        -10.5533
           20346         42.4800         44.0259         28.4066        -10.1647
           20347         31.2097         34.7397         17.3846        -4.79264
           20348         33.1529         36.4367         19.5891        -5.81700
           20349         33.9737         37.8494         19.1389        -5.15529
           20350         32.1358         36.1517         16.9348        -4.13120
           20351         35.7352         41.1428         17.8420     25.4799E-03
           20352         36.9134         42.5300         20.0999         1.24397
           20353         34.4906         39.6768         17.7107         1.20982
           20354         37.4103         41.0474         24.0304         6.41801
           20355         38.6312         41.1008         25.9939         8.07841
           20356         36.7615         39.6684         24.1633         7.12935
           20357         40.5225         42.5749         27.7431         8.96166
           20358         40.0387         41.2188         27.9710         9.56840
           20359         38.0949         39.7438         26.2220         8.68371
           20360         47.0031         45.1120         34.8473         13.3154
           20361         45.3860         43.8127         33.5407         12.7131
           20362         46.4422         42.2533         36.2850         14.0011
           20363         46.6763         43.2265         35.8096         13.8533
           20364         47.8071         43.3736         37.4068         14.4620
           20365         49.2052         42.1163         41.0105         15.1956
           20366         48.9839         42.4469         40.2699         15.1146
           20367         49.8534         43.3500         40.8659         15.3585
           20368         50.0582         43.0225         41.5956         15.4298
           20369         50.9887         42.3919         44.1223         15.5609
           20370         50.1764         40.7973         44.4636         15.1684
           20371         49.8284         41.0445         43.4635         15.1995
           20372         53.2242         43.1831         47.9350         15.7083
           20373         55.7709         44.8380         51.8889         15.6427
           20374         56.1578         45.8531         51.5333         15.9005
           20375         56.5282         45.3809         53.1662         15.5144
           20376         57.3290         44.2994         56.7243         14.3687
           20377         57.4737         44.9183         56.3419         14.6281
           20378         57.9742         45.2075         57.3404         14.3942
           20379         57.8446         44.5890         57.7247         14.1370
           20380         58.6479         46.2521         58.0127         14.3534
           20381         58.8603         47.0808         57.7168         14.5380
           20382         59.3252         47.0970         59.0762         14.0673
           20383         59.1370         46.2762         59.3750         13.8800
           20384         60.6650         48.3077         62.1030         12.7786
           20385         60.7352         49.1154         61.8424         12.7720
           20386         61.1478         49.0050         63.2028         12.1137
           20387         61.0940         48.2043         63.4609         12.1192
           20388         63.8663         48.4664         70.2148         8.22293
           20389         63.3294         48.1518         69.0671         9.08223
           20390         65.0122         48.6303         72.4765         6.66811
           20391         65.1018         48.0718         72.5955         7.00088
           20392         64.6747         48.3961         71.8258         7.25218
           20393         65.4783         48.8608         73.3617         5.84827
           20394         69.8269         48.3736         79.9537         1.90184
           20395         69.6601         48.2594         79.7201         2.27353
           20396         69.0904         48.4067         78.9403         2.57838
           20397         69.2512         48.5243         79.1720         2.21269
           20398         72.6476         48.6328         83.4371        -1.68977
           20399         72.0586         49.0218         82.6294        -2.02656
           20400         73.0142         48.7494         83.7919        -2.46866
           20401         74.6988         48.4675         85.6713        -3.80870
           20402         75.3692         48.3932         86.3540        -4.49233
           20403         76.0860         48.1197         87.2250        -4.56865
           20404         79.2327         47.4617         90.3911        -6.94693
           20405         78.4101         47.5735         89.6568        -6.10591
           20406         77.2882         48.0381         88.3105        -6.03709
           20407         81.3480         46.7264         92.7034        -7.57014
           20408         80.2189         46.9942         91.6208        -6.77964
           20409         80.3627         47.1960         91.4779        -7.74337
           20410         85.1290         45.0994         97.0393        -7.58884
           20411         86.7289         44.4868         98.6939        -8.01898
           20412         86.8628         44.3072         99.0382        -7.33850
           20413         96.3531         39.8038         109.616        -3.95895
           20414         95.1044         40.4395         108.168        -5.27311
           20415         99.9109         38.3942         113.319        -2.42214
           20416         97.8754         39.1635         111.220        -3.25244
           20417         100.685         38.2251         113.959        -3.90313
           20418         100.411         38.8668         113.679         4.73198
           20419         103.282         37.7861         116.583         4.20480
           20420         104.258         38.1492         117.217         6.98360
           20421         91.3783         44.3438         103.422         9.55025
           20422         94.3999         42.8848         106.628         9.58021
           20423         89.8930         45.3738         101.622         10.0971
           20424         90.1691         44.5561         102.391         8.63186
           20425         86.3187         47.6172         97.4029         10.5554
           20426         85.0095         48.9682         95.4298         11.4732
           20427         79.1641         50.3294         89.9481         7.53381
           20428         78.9072         50.8360         89.3891         8.07903
           20429         77.8087         50.8430         88.4657         6.85225
           20430         75.3055         51.9498         85.5297         5.77530
           20431         74.5580         52.5053         84.4876         5.77284
           20432         73.7794         52.4401         83.7785         4.75929
           20433         74.4992         51.9027         84.7845         4.77425
           20434         67.5759         53.0004         75.9279        -2.35358
           20435         68.2659         52.3922         77.0704        -2.10818
           20436         64.9705         52.0582         71.3277        -6.74928
           20437         64.8204         51.5324         71.0923        -7.20052
           20438         65.3492         51.1645         72.2056        -6.66899
           20439         63.6358         52.7726         68.1047        -8.57097
           20440         63.9923         52.1635         69.1445        -8.16177
           20441         62.2609         53.0680         63.8611        -11.1198
           20442         61.9845         52.8579         63.0785        -11.5962
           20443         61.9678         52.0164         63.6394        -11.4691
           20444         60.9478         51.4298         60.8257        -12.8853
           20445         60.8015         50.5149         61.2850        -12.7151
           20446         61.1768         50.6664         62.3110        -12.2464
           20447         61.3057         51.5816         61.8517        -12.4165
           20448         56.5903         49.2654         49.6704        -15.8669
           20449         56.1976         49.2691         48.5198        -15.9905
           20450         55.4544         48.0406         48.4569        -15.7809
           20451         54.0940         47.9610         45.0477        -15.8865
           20452         53.3497         46.8336         44.9423        -15.6823
           20453         52.9045         47.6083         42.7886        -15.6904
           20454         52.0651         46.3960         42.6667        -15.4628
           20455         52.6691         46.6004         43.6980        -15.5913
           20456         53.4831         47.8025         43.8303        -15.8058
           20457         52.7695         49.7210         39.7623        -15.3668
           20458         51.6750         48.7248         38.8458        -15.0550
           20459         51.3828         47.8246         39.3690        -15.1205
           20460         52.4787         48.8137         40.2885        -15.4349
           20461         46.2851         47.9923         30.8339        -11.0771
           20462         45.8080         46.7314         31.1769        -11.5395
           20463         40.5201         46.7867         23.0277     24.7361E-03
           20464         41.7349         48.1127         25.0065         1.26171
           20465         40.6647         46.6691         24.5169         2.49738
           20466         39.3295         45.3433         22.5374         1.26173
           20467         42.1751         46.5773         27.5918         6.66185
           20468         43.3014         46.6065         29.1584         8.39848
           20469         44.5697         46.7004         30.7482         9.93365
           20470         45.9342         46.8773         32.3688         11.2856
           20471         44.1973         45.5003         30.9213         10.5503
           20472         49.2203         49.5120         35.0557         12.6225
           20473         50.7497         50.7560         36.3047         13.2163
           20474         50.4487         49.6164         36.5517         13.6727
           20475         51.4702         49.5495         37.9747         14.5324
           20476         52.7054         50.5476         39.0528         14.9633
           20477         51.6975         47.3778         40.0648         15.5023
           20478         52.6967         48.1608         41.0425         15.8075
           20479         52.3962         47.2179         41.4144         15.8764
           20480         51.3891         46.4310         40.4366         15.5712
           20481         54.2270         48.0641         44.0044         16.4220
           20482         54.5384         47.7520         45.0307         16.4998
           20483         53.6041         46.4715         44.5741         16.3133
           20484         56.8839         47.2653         51.5443         16.1370
           20485         57.4059         48.4435         51.4070         16.2924
           20486         57.8603         48.5631         52.6274         16.0784
           20487         58.2375         48.6828         53.6795         15.8469
           20488         58.6241         49.8056         53.3447         15.9937
           20489         59.8777         50.1054         57.7590         14.5228
           20490         59.6195         49.4232         57.5552         14.6491
           20491         59.8172         50.7292         56.7266         14.8821
           20492         60.3726         50.2308         59.6632         13.6498
           20493         60.3059         50.8515         58.8022         13.9452
           20494         60.4811         51.3793         59.1065         13.6798
           20495         61.7503         50.3495         64.7921         10.6812
           20496         61.8389         49.5529         65.1871         10.7921
           20497         61.5011         49.6562         64.0877         11.4274
           20498         62.3014         50.7563         66.6274         9.08866
           20499         62.6742         50.6889         67.6408         8.40729
           20500         62.9077         49.9431         68.1472         8.61229
           20501         62.5283         50.0221         67.1300         9.29373
           20502         64.0386         49.9911         70.7675         6.62152
           20503         63.7395         49.9033         70.1030         7.21854
           20504         65.7877         51.4458         74.1127     695.201E-03
           20505         64.7260         51.9953         72.4467         1.19904
           20506         65.4319         51.8083         73.5270     327.358E-03
           20507         71.1027         49.7068         81.2587        -2.64322
           20508         71.0608         49.9349         81.0743        -3.24256
           20509         75.7101         49.1916         85.7848        -7.59542
           20510         77.7431         48.5381         88.0415        -8.36843
           20511         75.4648         49.0860         85.7560        -6.85150
           20512         81.5178         47.4743         91.8217        -10.3166
           20513         83.3498         47.1547         93.2837        -11.8398
           20514         94.8599         42.9599         105.362        -13.8819
           20515         96.1785         41.9292         107.318        -12.5806
           20516         92.8648         43.0853         103.998        -12.0102
           20517         96.0610         40.8821         108.289        -9.25383
           20518         92.8375         42.2700         104.818        -9.59043
           20519         93.3313         42.4886         104.913        -10.8993
           20520         96.5792         41.0763         108.438        -10.5787
           20521         108.099         36.0408         121.323        -3.64792
           20522         104.156         37.2823         117.281        -5.03995
           20523         105.118         37.4562         117.797        -7.80846
           20524         108.965         36.1939         121.862        -6.42367
           20525         96.6204         43.5385         107.869         12.9175
           20526         98.4253         43.6290         109.143         14.5327
           20527         94.1026         45.2785         104.767         13.8163
           20528         85.5834         49.3306         95.5468         12.5857
           20529         83.3131         50.4810         92.9828         12.1218
           20530         82.7386         50.1204         92.8680         11.0112
           20531         78.6392         53.0606         87.3347         11.1861
           20532         76.7512         53.2277         85.7834         9.39531
           20533         78.7380         52.5190         87.9033         10.5044
           20534         67.2540         54.9007         75.0052    -598.146E-03
           20535         67.0086         54.6495         74.7075        -1.30458
           20536         68.0044         54.2950         76.2750    -204.148E-03
           20537         65.7057         55.0157         72.4221        -3.15725
           20538         65.3268         55.7389         71.5514        -3.12814
           20539         64.7728         55.8062         70.4041        -4.22012
           20540         65.1297         55.0807         71.2707        -4.24764
           20541         63.4900         55.1749         67.1011        -7.88334
           20542         63.6261         55.6911         67.4043        -7.24034
           20543         63.2265         55.8257         66.0381        -8.29994
           20544         62.5660         55.7401         63.2206        -10.5613
           20545         62.7570         55.6867         64.1904        -9.85869
           20546         62.7397         56.6101         63.5316        -9.86292
           20547         62.5680         56.6656         62.5645        -10.5627
           20548         61.6809         54.3254         60.3722        -12.7571
           20549         61.6345         54.9377         59.2459        -13.2340
           20550         61.4955         54.1889         59.6396        -13.1679
           20551         60.5723         53.4672         56.4953        -14.5967
           20552         60.9116         54.3171         56.5232        -14.5508
           20553         60.8788         54.6385         55.7155        -14.8420
           20554         60.5289         53.7861         55.6884        -14.8870
           20555         60.0556         53.7015         53.7085        -15.5183
           20556         60.5677         54.6810         54.0137        -15.4325
           20557         60.6725         55.2705         53.1931        -15.6719
           20558         60.1520         54.2917         52.8888        -15.7573
           20559         58.2264         52.1360         49.7560        -16.2334
           20560         57.7751         51.3530         49.7028        -16.1539
           20561         57.9617         51.2839         50.4500        -16.0374
           20562         58.4093         52.0652         50.4998        -16.1236
           20563         56.5737         51.0266         46.6641        -16.3344
           20564         56.7173         50.6724         47.6606        -16.2553
           20565         57.5611         51.9000         48.0409        -16.3816
           20566         57.4324         52.2564         47.0446        -16.4615
           20567         57.4614         54.6659         43.2602        -16.3999
           20568         57.9465         55.6090         43.0660        -16.3872
           20569         57.3435         55.1556         42.3096        -16.2239
           20570         56.8533         54.2131         42.5029        -16.2373
           20571         54.5884         52.5033         39.9699        -15.5377
           20572         54.1328         51.5159         40.2701        -15.5921
           20573         54.9878         52.1781         41.1560        -15.8612
           20574         54.1991         54.8363         37.0365        -14.0210
           20575         55.6040         56.4282         37.8413        -14.2713
           20576         55.5878         57.2558         37.1705        -13.6425
           20577         43.5364         48.6912         25.8248        -6.19421
           20578         45.5020         50.7170         27.5189        -6.74784
           20579         45.4473         51.2274         26.9248        -5.64377
           20580         45.8854         51.9362         30.1056         4.66631
           20581         46.6145         51.8107         31.1240         6.64378
           20582         45.1127         50.5889         29.6623         5.67611
           20583         48.5866         51.6861         33.4035         9.99849
           20584         52.6395         53.2643         37.3418         13.2716
           20585         55.0390         52.4478         41.1464         15.7430
           20586         53.8922         51.5158         40.0759         15.3727
           20587         56.1509         51.2200         44.3959         16.6573
           20588         56.9861         52.2239         45.0642         16.7603
           20589         56.8908         51.5286         45.6882         16.8147
           20590         56.0652         50.5353         45.0187         16.7116
           20591         56.9332         51.0684         46.3937         16.8353
           20592         57.0797         50.6989         47.2380         16.8444
           20593         56.2065         50.0470         45.9396         16.7646
           20594         59.8194         53.9778         51.1003         16.4499
           20595         59.5329         53.7162         50.3257         16.6270
           20596         59.2368         50.7880         54.1780         15.7683
           20597         59.5725         51.9117         53.8259         15.8222
           20598         59.7443         51.6690         55.0329         15.4334
           20599         60.2863         51.4831         58.0051         14.2082
           20600         60.2770         51.9680         57.3589         14.4156
           20601         60.4414         52.4867         57.6364         14.1597
           20602         60.4482         52.0072         58.2831         13.9458
           20603         60.5657         53.2844         57.3592         14.0860
           20604         60.6855         54.0781         57.2553         13.8609
           20605         60.6121         52.6655         58.5868         13.5802
           20606         61.1104         51.8695         62.0512         11.7224
           20607         61.1893         52.2171         62.4342         11.2489
           20608         61.4446         51.4407         63.6556         10.8282
           20609         61.3416         52.9001         63.5629         9.77419
           20610         61.5367         51.8839         64.0993         10.1953
           20611         61.2835         52.5106         63.0428         10.5567
           20612         61.6281         53.1975         65.3408         7.62867
           20613         61.9664         52.5091         66.2235         7.62488
           20614         61.4482         53.1637         64.4557         8.59603
           20615         63.7741         52.4913         70.8486         1.93333
           20616         64.3401         52.3602         71.7961     937.285E-03
           20617         64.1594         52.1233         71.4979         2.18686
           20618         71.0486         50.8765         79.8690        -6.92548
           20619         72.9467         50.4908         81.5795        -8.86359
           20620         72.9522         50.3867         81.9632        -8.06437
           20621         72.5359         50.6336         80.6761        -9.55662
           20622         75.1524         49.9309         83.7722        -10.3251
           20623         83.1916         47.6922         91.9571        -13.8543
           20624         83.4269         47.7052         91.6967        -14.7238
           20625         86.2635         46.8633         94.5739        -15.6315
           20626         85.9716         46.8359         94.7701        -14.7736
           20627         110.052         36.6205         122.280        -9.93387
           20628         115.192         35.1522         127.738        -8.30279
           20629         111.695         37.8032         123.559         12.2581
           20630         110.005         36.9277         122.681         8.50810
           20631         114.748         35.5956         127.499         7.79926
           20632         105.127         47.0395         111.030         24.0425
           20633         101.860         46.6387         109.122         21.4635
           20634         106.761         44.0440         115.201         20.4994
           20635         79.9806         54.9703         85.6142         15.8283
           20636         80.7844         55.2691         85.0472         17.6910
           20637         78.7392         55.6816         83.4823         16.1096
           20638         75.9293         55.0884         83.2404         11.3599
           20639         77.2335         54.8521         84.3538         12.4857
           20640         76.4819         55.5720         82.8949         12.8622
           20641         73.4793         55.1823         81.4031         8.55711
           20642         73.9371         55.4914         81.3912         9.65023
           20643         72.0405         55.9252         79.4908         7.93649
           20644         67.0817         56.8729         73.8590         1.90261
           20645         67.8981         56.0629         75.3619         2.05714
           20646         68.5259         56.1735         76.0154         3.26827
           20647         66.2655         56.4771         72.9454    -232.067E-03
           20648         65.6708         57.1778         71.7164    -483.708E-03
           20649         65.3813         56.9183         71.3371        -1.46395
           20650         64.2401         58.0868         68.6874        -2.86312
           20651         64.4603         57.2054         69.4180        -3.41067
           20652         64.6520         57.4010         69.7922        -2.59488
           20653         63.8937         57.2131         67.9802        -5.07005
           20654         63.5178         57.3600         66.7820        -6.19477
           20655         63.8334         56.6927         67.8910        -5.78429
           20656         63.0505         56.8695         64.9757        -8.45614
           20657         62.8829         56.6785         64.2927        -9.16999
           20658         63.0401         55.6401         65.3506        -9.01217
           20659         62.6622         58.7952         60.6420        -10.9191
           20660         62.5355         57.7815         61.0496        -11.1426
           20661         61.2281         55.4401         55.9001        -14.7146
           20662         61.1518         54.9864         56.4594        -14.5244
           20663         61.3998         55.5464         56.7030        -14.3637
           20664         61.3056         57.3994         51.0453        -16.2073
           20665         61.0018         57.1654         50.0540        -16.4245
           20666         60.7873         56.5342         50.6360        -16.3058
           20667         59.6474         54.8674         49.5033        -16.4613
           20668         60.2418         55.6945         50.1088        -16.4022
           20669         60.5623         56.6393         49.3100        -16.5448
           20670         59.9657         55.8137         48.7080        -16.6014
           20671         60.0015         56.2795         47.8755        -16.6848
           20672         59.1434         55.0100         47.3808        -16.6665
           20673         58.8697         56.0737         44.6778        -16.6386
           20674         59.1739         56.7925         44.3367        -16.6173
           20675         58.4160         55.9531         43.6848        -16.5087
           20676         58.1049         55.2218         44.0279        -16.5285
           20677         57.3960         56.6531         40.6038        -15.6673
           20678         56.6498         55.4280         40.5774        -15.7007
           20679         57.3041         55.7871         41.4226        -15.9852
           20680         52.5636         54.9337         34.6519        -12.2206
           20681         53.6314         56.2369         35.2538        -12.2947
           20682         53.0657         56.1300         34.5843        -11.6980
           20683         52.0078         54.8384         33.9886        -11.6364
           20684         51.7511         56.5161         32.7558        -9.35231
           20685         52.5589         57.7813         33.1700        -8.94645
           20686         51.5900         57.0839         32.2983        -8.23582
           20687         50.7595         55.8144         31.8714        -8.64826
           20688         47.6011         53.8349         28.5131        -5.46732
           20689         49.4989         54.1128         33.7199         8.35848
           20690         48.0889         53.0108         32.4919         7.50763
           20691         100.714         41.1407         105.219        -23.8622
           20692         112.302         36.4499         115.925        -26.2656
           20693         108.182         39.0007         113.461        -24.0408
           20694         84.8795         54.2179         85.0746         23.3797
           20695         89.4157         52.5413         88.5070         26.1494
           20696         84.0963         54.0991         81.7538         25.0639
           20697         77.5980         56.2991         81.4849         16.3258
           20698         79.7864         55.7387         82.9297         18.2950
           20699         69.9662         58.8378         73.0803         11.4388
           20700         68.9990         58.9577         72.6754         9.79635
           20701         69.9759         58.3657         74.4825         9.82602
           20702         68.4887         58.2770         73.8750         6.88460
           20703         69.1678         58.3344         74.1458         8.34521
           20704         68.2233         59.0212         72.4110         8.19246
           20705         63.8445         59.7520         67.1624        -1.64530
           20706         64.2117         59.5379         68.0265    -558.304E-03
           20707         63.9632         60.1345         67.1965    -442.405E-03
           20708         63.2881         60.1867         65.4585        -3.55258
           20709         63.5552         59.4656         66.5111        -3.39114
           20710         63.6933         59.6149         66.8673        -2.44572
           20711         63.4359         59.2469         66.1885        -4.26048
           20712         63.2042         59.9836         65.1292        -4.53187
           20713         63.1385         59.6796         64.8768        -5.40495
           20714         62.8440         60.8804         61.9011        -7.74072
           20715         62.8731         61.7698         60.9222        -7.94052
           20716         62.8823         61.4245         60.5685        -8.81391
           20717         63.2919         61.6011         55.6237        -13.4617
           20718         63.1712         61.3789         56.4396        -12.9358
           20719         63.4554         62.3918         56.0540        -12.7685
           20720         63.1205         60.9599         52.5859        -15.3671
           20721         62.9506         60.5102         53.4310        -15.0504
           20722         63.4124         61.6782         53.3884        -14.8268
           20723         63.5964         62.1302         52.5488        -15.1419
           20724         62.5647         60.0106         50.9005        -16.0913
           20725         61.8167         58.3313         51.4049        -16.0709
           20726         62.3873         60.2615         48.6885        -16.5751
           20727         62.9618         61.3630         48.5461        -16.5427
           20728         62.8040         61.3134         47.7963        -16.6442
           20729         62.2221         60.2138         47.9368        -16.6775
           20730         62.0464         60.2367         47.0816        -16.7398
           20731         61.3477         58.9917         47.1167        -16.7633
           20732         61.6758         60.8908         44.5118        -16.5858
           20733         60.3572         59.2203         43.6662        -16.4837
           20734         60.5290         61.0345         41.7111        -15.7539
           20735         62.0733         63.0177         42.4747        -15.8579
           20736         61.4233         62.5614         41.7267        -15.5805
           20737         56.6627         60.1259         36.8498        -12.2916
           20738         56.7130         59.4368         37.2539        -13.0389
           20739         58.2393         61.1575         38.1878        -13.2757
           20740         58.2017         61.8532         37.7770        -12.5319
           20741         56.6944         60.8904         36.5290        -11.4965
           20742         58.1045         62.4551         37.4431        -11.7194
           20743         57.7790         62.8685         36.9753        -10.6985
           20744         56.3567         61.2959         36.0664        -10.4696
           20745         61.9691         60.6243         46.8086         16.4475
           20746         61.7831         60.8317         45.8788         16.3573
           20747         62.2820         61.5917         46.2167         16.2900
           20748         63.5976         63.6850         47.4341         15.9136
           20749         63.5651         63.7224         47.0737         15.9551
           20750         63.9306         64.4860         46.9774         15.8239
           20751         63.9583         64.4464         47.3437         15.7801
           20752         64.8970         66.7321         48.4900         14.6402
           20753         65.0786         66.9300         48.1421         14.8333
           20754         65.6358         68.1420         47.9149         14.5364
           20755         64.9638         70.1006         48.8456         10.7148
           20756         64.8991         69.6351         49.0031         11.1636
           20757         65.4722         70.4942         48.5763         11.2824
           20758         65.1133         72.1667         47.7380         8.12173
           20759         64.9171         71.5363         48.1137         8.63582
           20760         65.7744         73.0007         47.3637         8.39514
           20761         67.5455         77.9544         41.1500     50.0301E-03
           20762         66.8686         77.1316         41.6384     706.233E-06
           20763         66.8856         77.1149         42.0701     659.964E-03
           20764         67.5560         77.9357         41.5810     708.718E-03
           20765         70.2062         80.7761         36.9768        -2.80983
           20766         69.5591         80.0775         37.5548        -2.76805
           20767         69.4775         80.0703         38.0216        -2.20818
           20768         73.1857         83.6774         33.7455        -3.61544
           20769         72.7493         83.1352         33.8309        -4.04137
           20770         71.9483         82.4277         34.8362        -3.65753
           20771         72.3879         82.9713         34.7439        -3.23439
           20772         75.8924         86.5326         32.0396        -2.42961
           20773         75.4246         86.0398         32.3003        -2.69740
           20774         75.0211         85.7413         32.9920        -2.37319
           20775         75.4890         86.2351         32.7307        -2.10746
           20776         78.1987         87.9823         28.2514        -4.53286
           20777         79.0424         88.8140         27.6764        -4.15727
           20778         79.2809         88.8536         27.0996        -4.61930
           20779         73.0061         83.2247         33.1968        -4.62966
           20780         73.6941         83.8940         32.5574        -4.61879
           20781         73.6246         83.6922         32.3316        -5.05874
           20782         72.9268         83.0130         32.9680        -5.06807
           20783         67.5194         77.5362         38.5921        -4.08016
           20784         68.3809         78.4529         37.6111        -4.36641
           20785         68.2512         78.1173         37.3355        -5.11616
           20786         67.3777         77.1983         38.3170        -4.83001
           20787         64.7920         74.4279         43.7426     498.836E-03
           20788         64.3418         73.7632         44.3990     929.315E-03
           20789         64.7055         74.1806         44.3889         1.46631
           20790         65.1471         74.8424         43.7354         1.03726
           20791         63.7846         72.2490         46.6042         3.81692
           20792         63.6678         71.8198         47.0850         4.47763
           20793         64.2920         72.5798         46.7618         4.93060
           20794         64.4049         73.0089         46.2812         4.26959
           20795         63.0826         69.5443         49.0825         7.00765
           20796         63.6749         70.2629         48.7043         7.47488
           20797         63.9275         71.0687         48.1164         6.83972
           20798         63.3290         70.3468         48.4887         6.37093
           20799         62.9034         66.7383         50.8275         10.1905
           20800         63.2100         66.8011         50.6782         10.8043
           20801         63.8401         68.1913         49.8640         10.6360
           20802         63.5347         68.1256         50.0097         10.0255
           20803         63.8591         65.9197         50.2017         13.1865
           20804         64.1621         66.7156         49.8737         12.9841
           20805         63.9188         66.5632         50.1619         12.6185
           20806         63.6165         65.7693         50.4901         12.8181
           20807         62.8287         61.9484         50.2935         15.2316
           20808         63.2428         62.9895         49.8173         15.1456
           20809         63.2239         63.2042         50.3082         14.7339
           20810         62.8139         62.1666         50.7892         14.8184
           20811         62.0676         59.9943         49.1131         16.2017
           20812         63.3150         62.9534         48.2297         15.8721
           20813         63.1276         62.4788         48.7556         15.8175
           20814         62.7146         61.5521         48.6865         16.0296
           20815         62.8944         62.0294         48.1619         16.0826
           20816         63.4558         63.3089         47.7795         15.9228
           20817         63.1018         62.5907         47.7005         16.0677
           20818         63.2410         62.9710         47.3519         16.0590
           20819         61.5894         58.4395         51.8439         15.4922
           20820         61.7653         59.0290         51.8949         15.2834
           20821         61.6089         58.5674         52.4926         15.1041
           20822         61.4385         57.9824         52.4411         15.3115
           20823         62.4773         61.2831         51.2844         14.8388
           20824         62.7023         62.2073         51.3232         14.3810
           20825         63.1110         64.8255         51.1494         12.6514
           20826         62.8692         64.5772         51.4930         12.3298
           20827         62.6671         63.8706         51.8108         12.5505
           20828         62.9040         64.1183         51.4656         12.8703
           20829         62.3648         65.6364         51.5829         10.1020
           20830         62.7127         67.0424         50.7517         9.39825
           20831         62.1689         65.9447         51.5096         9.30614
           20832         62.6188         69.1315         49.2748         6.33460
           20833         62.3069         68.3510         49.8315         6.66210
           20834         62.7720         68.7615         49.6327         7.33916
           20835         63.9615         72.7267         46.0587         3.17251
           20836         63.3678         71.9865         46.3671         2.66549
           20837         63.1869         71.5098         46.9125         3.30960
           20838         63.9209         73.0809         45.1295         1.47115
           20839         63.8766         73.1861         44.5182     296.160E-03
           20840         63.4469         72.5030         45.2464     835.562E-03
           20841         71.8853         81.8783         33.7543        -5.41070
           20842         72.2897         82.4403         33.6815        -4.88758
           20843         72.5057         82.4314         33.0345        -5.59593
           20844         74.6462         83.9937         30.1840        -6.86309
           20845         75.7457         85.0916         29.2538        -6.59042
           20846         61.3464         59.1814         54.8421         12.8960
           20847         61.1927         58.5592         55.4552         12.7475
           20848         61.2007         58.1427         55.3819         13.1384
           20849         61.3516         58.7644         54.7676         13.2874
           20850         61.6931         61.0303         53.8063         12.5172
           20851         61.6477         61.5309         53.7734         11.9936
           20852         61.3272         60.7544         54.6119         11.6245
           20853         60.8980         62.5720         54.1705         9.10001
           20854         61.0161         62.1013         54.3603         9.78439
           20855         61.4094         63.0274         53.5009         10.1381
           20856         61.2942         63.4971         53.3110         9.45399
           20857         59.7641         63.3218         53.8294         4.93525
           20858         59.7280         62.5660         54.5802         5.44036
           20859         60.0516         63.0518         54.1169         6.16965
           20860         60.0956         63.8170         53.3760         5.66203
           20861         60.0322         66.0016         50.9324         2.24816
           20862         60.4648         66.9233         50.1644         2.44757
           20863         60.3144         66.9745         49.8422         1.43215
           20864         59.8787         66.0486         50.6053         1.23219
           20865         60.1930         67.2203         48.8160        -1.00791
           20866         60.7250         68.2948         47.7253        -1.29471
           20867         60.5888         68.0140         47.4065        -2.70997
           20868         60.0370         66.9386         48.5093        -2.42542
           20869         63.6121         72.4565         42.3213        -4.89598
           20870         63.3654         71.9141         42.3719        -5.63605
           20871         62.7820         71.2454         43.3214        -5.01245
           20872         63.0422         71.7879         43.2766        -4.26976
           20873         67.8486         76.4322         36.2265        -8.52583
           20874         69.0135         77.6101         34.8687        -8.75364
           20875         68.9357         77.0289         34.6064        -9.77694
           20876         67.7665         75.8496         35.9658        -9.54957
           20877         75.7379         83.5049         27.1945        -9.90771
           20878         74.0741         82.2813         29.2534        -9.45154
           20879         61.0667         60.0031         55.4124         11.3012
           20880         60.9470         58.8029         56.2620         11.5429
           20881         60.9770         60.4447         55.3725         10.7314
           20882         60.8465         60.8527         55.3125         10.0943
           20883         60.6239         60.0848         56.1550         9.75970
           20884         59.8318         61.5520         55.5597         6.43233
           20885         60.3697         62.0795         54.8583         7.89047
           20886         60.1444         62.4995         54.5709         6.92412
           20887         59.4350         64.8899         51.6906         1.16925
           20888         59.2088         64.0673         52.5441         1.47655
           20889         59.5436         64.4261         52.4841         2.67596
           20890         59.7525         65.2448         51.6230         2.35791
           20891         62.2566         70.2313         43.8238        -5.79415
           20892         62.2501         70.4810         44.1179        -4.85076
           20893         62.7956         70.9960         43.0318        -5.94973
           20894         64.4465         72.2968         40.2197        -8.49821
           20895         64.8879         73.2073         39.8572        -7.75403
           20896         65.6590         73.8288         38.7032        -8.56115
           20897         65.2330         72.9262         39.0703        -9.30728
           20898         67.5923         75.0605         35.9154        -10.6544
           20899         69.0330         76.5328         34.1483        -10.8880
           20900         69.1347         75.9014         33.7903        -12.1316
           20901         67.6884         74.4239         35.5616        -11.8997
           20902         74.2009         80.4910         27.7354        -12.7825
           20903         72.7274         78.9111         29.3278        -13.1210
           20904         72.1168         79.0435         30.3611        -11.9862
           20905         67.1207         51.3526         69.9602        -13.7393
           20906         66.1802         51.8707         69.8274        -12.0468
           20907         65.1228         52.3479         68.1706        -11.8607
           20908         65.9650         52.4271         63.2658        -17.4839
           20909         67.5275         51.3587         65.4824        -18.2336
           20910         64.3758         53.0363         63.8706        -14.5991
           20911         79.9604         46.9896         66.3866        -31.0799
           20912         91.9269         45.1103         63.5079        -41.8219
           20913         87.7632         43.9273         69.2800        -36.5893
           20914         62.4447         70.4723         45.5256         4.78566
           20915         61.8707         69.5800         44.5759         5.80779
           20916         61.3529         69.3729         44.7273         4.23940
           20917         65.2958         73.3485         47.3520         6.17880
           20918         64.6267         72.4164         46.4559         6.79445
           20919         64.0701         71.9899         46.3708         6.06662
           20920         68.7259         76.6724         48.6132         8.33928
           20921         69.5802         77.7527         49.2711         8.14943
           20922         69.5999         77.5687         48.8754         8.74917
           20923         68.7490         76.4842         48.2104         8.93835
           20924         70.6966         78.3383         48.4266         10.1594
           20925         71.0808         78.7325         48.4645         10.3376
           20926         70.5356         77.7615         47.8269         10.9560
           20927         70.1492         77.3656         47.8046         10.7800
           20928         73.8351         82.2761         48.9587         10.2214
           20929         73.7536         82.0872         48.6093         10.4661
           20930         73.1236         81.1239         48.2676         10.8301
           20931         73.1969         81.3096         48.6197         10.5816
           20932         74.7766         83.6353         48.4750         10.0179
           20933         75.1780         84.2647         48.5224         9.75527
           20934         74.8197         83.7471         48.1293         9.97776
           20935         74.4212         83.1200         48.0783         10.2360
           20936         75.9247         86.3122         46.0718         7.49924
           20937         75.9090         86.1103         46.5178         7.93632
           20938         76.6105         87.0724         46.8069         7.57759
           20939         76.6318         87.2706         46.3569         7.13915
           20940         76.3280         87.4171         44.6165         5.59257
           20941         76.7694         88.0207         44.6032         5.24261
           20942         76.4834         87.7508         44.1534         4.98245
           20943         76.0392         87.1499         44.1668         5.33144
           20944         76.1004         87.4464         43.2617         4.31684
           20945         75.6057         86.8162         43.2341         4.59730
           20946         75.7930         86.9452         43.7243         4.99717
           20947         76.2870         87.5820         43.7574         4.71678
           20948         75.8156         87.3460         41.3057         2.60793
           20949         75.9698         87.5051         41.6752         2.84277
           20950         76.3241         87.9363         41.6845         2.61849
           20951         76.1765         87.7813         41.3147         2.38505
           20952         75.8665         87.4290         39.3212         1.08895
           20953         75.5562         87.0639         39.0595         1.10246
           20954         75.4818         86.9893         39.4480         1.38670
           20955         75.7922         87.3542         39.7093         1.37252
           20956         75.8972         87.3052         37.0393    -16.9173E-03
           20957         75.9621         87.4179         37.4776     16.1370E-03
           20958         75.8961         87.3193         37.2035    -108.556E-03
           20959         76.1633         87.2766         34.2650     163.962E-03
           20960         76.0140         87.1429         34.4851     230.126E-03
           20961         76.1374         87.2131         34.0166     336.252E-03
           20962         76.2879         87.3466         33.7962     269.348E-03
           20963         75.3769         86.3438         33.8791         1.13804
           20964         74.8877         85.8775         34.3942         1.14813
           20965         74.8357         85.7568         34.0448         1.49103
           20966         75.3277         86.2233         33.5286         1.48064
           20967         75.0138         85.6689         32.7560         2.65367
           20968         74.5079         85.1715         33.1859         2.73430
           20969         74.5720         85.1302         32.7848         3.15989
           20970         75.0778         85.6258         32.3521         3.07769
           20971         74.5885         84.7373         31.7017         4.63145
           20972         73.8541         84.1296         32.6013         4.34078
           20973         73.3801         83.4841         32.6153         4.97170
           20974         74.1270         84.1022         31.7146         5.26270
           20975         73.3112         81.9025         30.3837         8.79105
           20976         73.7766         82.8810         30.5868         7.59914
           20977         72.5870         81.5285         31.5044         8.12336
           20978         67.8509         75.2519         47.4594         9.30806
           20979         66.9455         73.9527         46.5980         9.78716
           20980         66.6959         73.9905         46.8468         9.04329
           20981         67.6226         75.2912         47.7120         8.56163
           20982         62.9759         70.1085         44.6329         7.91230
           20983         63.6183         70.9245         45.1901         7.74461
           20984         63.8171         70.8682         45.0440         8.43695
           20985         66.2323         72.1249         45.5266         11.4841
           20986         65.2556         70.8137         44.8908         11.6535
           20987         65.1638         71.1298         45.0379         10.9847
           20988         66.1506         72.4399         45.6733         10.8149
           20989         65.9060         72.8923         46.1129         9.40202
           20990         66.0038         72.6621         45.8947         10.0863
           20991         65.0819         71.4620         45.2032         10.2602
           20992         64.9743         71.6910         45.4150         9.58096
           20993         65.3925         69.7084         44.8280         13.3199
           20994         66.0719         70.6666         45.1671         13.2094
           20995         66.0125         70.2331         45.1905         13.6216
           20996         65.3388         69.2759         44.8486         13.7301
           20997         66.5541         70.3806         45.6761         14.1941
           20998         66.0802         69.6884         45.4529         14.2793
           20999         66.3177         70.3260         45.4281         13.9445
           21000         66.7991         71.0242         45.6424         13.8584
           21001         66.7487         70.1296         46.3470         14.6000
           21002         66.1486         69.0790         46.1918         14.8428
           21003         66.3555         69.6085         45.9970         14.6489
           21004         65.9139         68.4199         47.0441         14.9328
           21005         65.4002         67.4058         47.0832         15.1712
           21006         65.4611         67.5571         46.7758         15.2014
           21007         65.9791         68.5719         46.7368         14.9626
           21008         64.4375         66.9729         49.5767         13.2824
           21009         64.7792         67.8429         49.2658         13.0244
           21010         64.5013         67.5871         49.5632         12.7242
           21011         64.0653         66.0321         49.8881         13.5341
           21012         64.3000         66.2154         49.5707         13.8456
           21013         64.6739         67.1562         49.2596         13.5934
           21014         61.9582         62.2948         53.0983         12.1996
           21015         61.5536         61.9824         53.8059         11.3575
           21016         61.1461         61.6717         54.4772         10.4464
           21017         60.7160         61.2818         55.1956         9.43224
           21018         59.2448         60.9529         56.2739         4.39667
           21019         59.2948         61.5567         55.5938         4.40277
           21020         59.0926         61.4488         55.6627         3.56112
           21021         59.0590         60.8523         56.3618         3.56182
           21022         58.6814         61.3587         55.4813         1.25235
           21023         58.7643         61.1506         55.8167         1.96352
           21024         58.9436         61.8665         55.1028         2.55551
           21025         58.8467         62.0779         54.7521         1.85935
           21026         58.5703         61.5380         55.0583     323.797E-03
           21027         58.4874         60.7935         55.8676    -200.118E-03
           21028         58.5843         60.6086         56.2941     728.010E-03
           21029         58.4562         60.0223         56.7183    -785.276E-03
           21030         58.5093         59.3310         57.5505        -1.37174
           21031         58.5600         59.8952         57.1238     219.463E-03
           21032         59.0593         57.8152         58.2619        -6.30827
           21033         59.5200         56.9571         59.5073        -6.99428
           21034         60.9672         56.0453         58.9915        -11.5775
           21035         61.8994         55.0683         60.4398        -12.5747
           21036         60.4384         56.0773         60.0135        -9.52043
           21037         68.2340         52.0526         61.7436        -21.1978
           21038         64.2238         53.8197         60.9112        -16.2910
           21039         99.0889         39.6580         73.8151        -43.6827
           21040         96.0965         38.9413         79.7026        -38.5976
           21041         67.1423         75.6544         49.6139         5.04903
           21042         67.9854         76.6060         50.2417         5.10284
           21043         67.8429         76.2631         49.4704         6.11149
           21044         67.0123         75.3215         48.8363         6.07603
           21045         69.7313         77.4943         48.5005         9.36830
           21046         69.8467         77.3846         48.2009         9.94756
           21047         69.0078         76.1807         47.4953         10.3439
           21048         68.8794         76.2907         47.8038         9.76186
           21049         68.0034         75.0613         47.0591         10.1328
           21050         69.0315         75.4621         46.8592         11.7064
           21051         68.5497         74.5125         46.4451         12.2549
           21052         68.4414         74.8918         46.6861         11.4346
           21053         68.9595         74.9389         46.5933         12.3867
           21054         68.1416         73.6916         46.1923         12.6896
           21055         69.0428         74.4799         46.5131         13.1716
           21056         69.5699         75.3850         46.6734         12.8729
           21057         69.0032         74.3041         46.5088         13.3300
           21058         68.0848         72.7081         46.2963         13.8064
           21059         68.4504         73.2888         46.4191         13.6807
           21060         68.1897         72.7819         46.4259         13.8592
           21061         66.2681         69.8434         47.9833         13.6904
           21062         66.1522         69.3256         47.8483         14.1153
           21063         66.5316         70.2058         47.7593         13.7795
           21064         62.7173         64.9046         51.6020         11.6518
           21065         62.8743         65.8111         51.1838         11.1169
           21066         62.4073         65.0788         51.8095         10.7532
           21067         64.5020         68.0268         49.5402         12.2297
           21068         64.6269         68.5151         49.3818         11.9325
           21069         64.1238         67.7485         49.8533         11.7493
           21070         64.0109         67.2722         50.0129         12.0422
           21071         64.8124         69.1571         49.1721         11.5563
           21072         65.1554         69.2756         48.9594         12.1215
           21073         65.3456         69.9105         48.7518         11.7488
           21074         58.9183         62.9415         53.7127         1.34556
           21075         58.7360         62.3178         54.2872     890.113E-03
           21076         59.0247         62.6914         54.1584         2.29779
           21077         59.1736         63.4686         53.3283         2.16096
           21078         58.9699         63.5483         52.9251     656.945E-03
           21079         58.5457         62.2847         52.9327        -3.79658
           21080         58.6858         63.1174         52.1856        -3.19917
           21081         58.7910         63.2958         51.5801        -4.25528
           21082         58.6677         62.4631         52.3278        -4.85178
           21083         58.4849         62.1120         53.5321        -2.70126
           21084         58.4850         61.4315         53.7476        -4.45917
           21085         58.4031         61.2590         54.3456        -3.36476
           21086         59.1643         60.2446         53.5734        -8.72544
           21087         60.0162         59.7487         53.0593        -11.3574
           21088         59.5209         59.3057         54.3605        -9.90615
           21089         61.4764         61.2338         49.5345        -14.2512
           21090         60.6996         60.3839         51.3492        -12.9377
           21091         63.6984         57.0093         53.9978        -17.9819
           21092         65.0960         58.0274         51.1574        -20.1805
           21093         69.6193         78.4612         51.9015         4.80212
           21094         70.4960         79.4890         53.3822         3.86544
           21095         69.2935         77.5937         49.5399         7.54100
           21096         70.6163         77.3860         47.3372         11.8392
           21097         70.1007         76.4605         46.9820         12.2862
           21098         69.7885         76.1674         46.9786         12.1136
           21099         70.3059         77.0932         47.3331         11.6647
           21100         71.3761         78.5684         47.7174         11.4555
           21101         71.8757         79.3697         48.0399         11.1302
           21102         71.9795         79.4154         47.9040         11.3102
           21103         71.4795         78.6110         47.5877         11.6328
           21104         71.9054         79.0967         47.3664         11.7905
           21105         71.9451         79.1961         47.5216         11.6804
           21106         72.5264         80.1348         47.7535         11.3256
           21107         72.4929         80.0471         47.5999         11.4334
           21108         72.1592         79.5138         47.3080         11.6633
           21109         71.2952         78.0893         47.1427         12.1651
           21110         70.4042         76.5925         46.8747         12.6933
           21111         70.2712         76.4171         46.8305         12.7021
           21112         69.9033         75.7562         46.7927         12.9454
           21113         68.8846         74.8220         46.9832         12.3113
           21114         69.1655         75.0781         46.9427         12.4885
           21115         69.4922         75.8811         46.8467         11.9915
           21116         67.7438         72.7671         47.3549         12.8785
           21117         67.9849         72.9771         47.2464         13.0635
           21118         68.5530         74.0046         47.0668         12.7893
           21119         68.3113         73.7942         47.1755         12.6042
           21120         66.3199         71.5564         48.0659         11.6491
           21121         65.7708         70.5416         48.4505         11.8322
           21122         66.0009         70.6775         48.3329         12.1214
           21123         61.8995         66.5813         51.1597         7.90441
           21124         61.8023         66.8977         50.9236         7.24981
           21125         61.3243         66.0397         51.5596         6.97645
           21126         64.4071         69.6214         49.1419         10.1248
           21127         64.3339         69.1312         49.3622         10.5762
           21128         65.0469         70.5922         48.6305         10.2607
           21129         63.5676         69.6782         49.1089         8.08130
           21130         62.9735         68.6792         49.7236         7.98699
           21131         63.0680         68.2987         49.9823         8.72458
           21132         63.6528         69.3006         49.3671         8.81591
           21133         60.4413         64.5046         52.8064         6.05666
           21134         60.3128         64.9043         52.3838         5.19398
           21135         59.9830         64.2217         52.9718         4.81146
           21136         59.9605         65.3456         51.7162         3.16608
           21137         60.2275         66.0894         51.0281         3.06023
           21138         59.6814         65.8022         48.7229        -4.62205
           21139         60.0680         66.6104         47.7822        -4.86025
           21140         60.1483         66.3994         47.4946        -5.96699
           21141         59.7473         65.5916         48.4333        -5.73065
           21142         58.9756         64.0771         50.8847        -3.80984
           21143         59.1108         64.2246         50.3204        -4.79414
           21144         58.9369         63.4427         51.0195        -5.24096
           21145         59.1850         63.7760         50.2089        -6.23627
           21146         59.2437         64.2832         49.9177        -5.61474
           21147         59.5182         64.7102         49.1097        -6.35437
           21148         59.4699         64.2025         49.3927        -6.98102
           21149         59.6064         62.9123         49.9949        -8.95858
           21150         60.1676         63.6793         48.5307        -10.0044
           21151         63.5129         63.6795         45.0554        -16.5120
           21152         62.4668         62.3736         47.2722        -15.5512
           21153         73.1341         81.9604         51.0427         8.35078
           21154         72.3714         80.9171         50.2855         8.76283
           21155         72.2426         80.9512         50.9304         8.05947
           21156         73.0236         81.9994         51.6856         7.64478
           21157         73.3997         82.1710         50.6218         8.80363
           21158         73.6173         82.3114         50.2410         9.23020
           21159         72.8121         81.1474         49.5146         9.71236
           21160         72.5824         81.0032         49.8979         9.28747
           21161         74.0735         82.5447         48.4400         10.4130
           21162         74.3900         83.0369         48.4410         10.2405
           21163         73.8687         82.2316         47.9945         10.6104
           21164         73.5597         81.7461         47.9971         10.7773
           21165         72.8424         80.9316         46.9212         10.8305
           21166         72.3249         79.9674         47.0026         11.3363
           21167         72.9665         80.9993         47.0968         10.9533
           21168         71.5981         78.7883         46.8773         11.7558
           21169         72.4416         80.0371         47.1768         11.4322
           21170         71.6574         79.4525         46.5240         10.8634
           21171         70.9601         78.1961         46.6386         11.4383
           21172         69.3436         76.2370         46.7056         11.1913
           21173         69.7175         76.5739         46.7143         11.4286
           21174         69.9860         77.3821         46.4864         10.7437
           21175         67.9822         74.8255         46.9652         10.5071
           21176         67.5601         73.9960         47.2270         10.8502
           21177         68.0057         74.4599         47.1119         11.0893
           21178         65.7193         71.8751         48.0275         9.97208
           21179         66.2481         72.5427         47.7530         10.1677
           21180         61.4640         67.9249         49.8537         4.65288
           21181         61.4767         67.6738         50.1209         5.14468
           21182         61.8691         68.2925         49.7094         5.40602
           21183         61.8599         68.5509         49.4285         4.91981
           21184         64.8956         73.0119         46.8205         5.97220
           21185         64.7995         72.5452         47.2388         6.62349
           21186         65.6261         73.5911         46.7897         6.95609
           21187         65.7253         74.0557         46.3700         6.30780
           21188         61.3705         68.7774         48.6092         2.33566
           21189         61.9442         69.5888         48.1760         2.94778
           21190         61.4592         69.1775         48.0450         1.52915
           21191         60.2911         67.2498         49.2130     205.688E-03
           21192         59.6210         65.9618         49.9415        -1.12380
           21193         59.7208         65.9881         50.3354     95.5131E-03
           21194         63.3484         71.0728         41.8331        -7.84992
           21195         62.7269         70.0851         42.6917        -8.00437
           21196         62.4020         70.0574         43.3753        -6.91175
           21197         63.0199         71.0472         42.5123        -6.75478
           21198         60.6291         67.2572         46.4396        -6.30101
           21199         60.7474         66.9415         46.1850        -7.47704
           21200         60.2499         66.0859         47.2397        -7.14149
           21201         64.0749         70.4310         40.5150        -10.9104
           21202         63.1721         70.0546         41.9106        -9.35582
           21203         63.8998         71.3334         40.8824        -8.93756
           21204         64.8048         71.7151         39.4968        -10.4741
           21205         63.5524         68.5253         41.6023        -12.4265
           21206         64.1932         68.0641         41.1073        -14.0969
           21207         62.4746         66.9945         43.5914        -12.0414
           21208         65.9493         64.5466         42.2683        -19.3624
           21209         76.7739         86.3719         59.7151         2.94016
           21210         77.2186         86.9741         59.4322         3.42038
           21211         75.3754         85.0163         54.4979         6.24143
           21212         74.8448         84.3882         54.4066         6.09837
           21213         75.2609         84.9010         55.3437         5.53277
           21214         75.7897         85.5296         55.4447         5.68076
           21215         75.6349         85.1478         52.1752         7.97592
           21216         75.0835         84.4142         51.7525         8.20765
           21217         75.2184         84.6541         52.3626         7.79659
           21218         75.7712         85.3805         52.7797         7.57425
           21219         74.4421         83.3468         50.2738         9.26737
           21220         75.3148         84.5252         50.3868         9.09096
           21221         74.6341         83.5322         49.8380         9.51972
           21222         73.8125         82.2814         47.4275         10.5053
           21223         73.5814         82.0083         47.1853         10.5196
           21224         73.1987         81.2745         47.3396         10.9387
           21225         73.3171         81.6782         46.9889         10.5527
           21226         74.0179         82.7442         47.1780         10.1652
           21227         73.7438         82.4043         46.9785         10.1969
           21228         73.2552         81.7002         46.8245         10.3993
           21229         72.7760         80.9523         46.7592         10.6757
           21230         72.8234         81.1831         46.6063         10.3931
           21231         72.2428         80.3094         46.5472         10.6608
           21232         71.7893         80.0978         46.1780         10.0729
           21233         71.0200         79.0121         46.2225         10.2721
           21234         71.7425         79.7910         46.3593         10.4923
           21235         69.3755         78.5883         44.9130         7.05452
           21236         68.7634         77.8857         45.0330         6.87219
           21237         68.5151         77.3905         45.3386         7.26199
           21238         66.8024         75.2868         45.9936         6.87412
           21239         66.3433         74.4406         46.4662         7.30060
           21240         67.0566         75.1913         46.2956         7.75875
           21241         67.5155         76.0361         45.8248         7.33217
           21242         62.5489         71.1631         46.1935     733.741E-03
           21243         63.0623         71.8209         46.0078         1.44060
           21244         62.9427         71.8455         45.4306     128.050E-03
           21245         64.5617         73.4599         45.7724         3.61351
           21246         64.8006         73.9811         45.1952         2.99409
           21247         64.2044         73.2502         45.4819         2.55394
           21248         65.0151         73.7469         45.9884         4.65235
           21249         65.1695         74.1970         45.4804         3.99646
           21250         62.1341         70.6997         45.5920        -1.51705
           21251         62.7193         71.5905         44.6147        -2.00257
           21252         62.4859         71.1695         44.5195        -2.93459
           21253         61.8829         70.2775         45.4974        -2.44916
           21254         62.3300         70.8137         44.3477        -3.83611
           21255         61.6350         69.5829         45.0904        -4.52657
           21256         61.7261         69.9115         45.3190        -3.51187
           21257         71.9235         77.0422         30.0765        -14.7203
           21258         72.9354         76.9227         28.8704        -16.2251
           21259         71.2530         75.0443         31.0191        -16.4414
           21260         78.3225         88.3891         59.2370         4.02790
           21261         78.3439         88.2546         60.3078         3.38100
           21262         79.3062         89.2486         61.6373         2.94590
           21263         77.5104         87.6411         53.9546         6.93884
           21264         77.8970         88.1496         53.8916         6.92349
           21265         77.4906         87.6067         52.9798         7.40235
           21266         75.5580         84.8183         48.9347         9.50128
           21267         75.8890         85.3381         48.9249         9.27461
           21268         75.5062         84.7860         48.5154         9.52538
           21269         75.2698         85.0264         46.7129         8.67544
           21270         75.9458         86.0035         46.8898         8.27043
           21271         75.2215         85.1306         46.3384         8.33922
           21272         75.1042         85.1379         45.9811         8.01379
           21273         74.2959         83.9695         45.9041         8.49250
           21274         74.4261         83.9656         46.2555         8.81904
           21275         74.0951         84.0219         45.3296         7.83822
           21276         74.2729         84.1274         45.6034         8.08022
           21277         74.8895         85.0441         45.5286         7.63826
           21278         74.7178         84.9407         45.2513         7.38962
           21279         74.0889         84.1632         45.0689         7.47562
           21280         73.5768         83.4922         45.0267         7.62813
           21281         73.5774         83.3418         45.2846         7.98285
           21282         71.6324         80.8858         45.1830         8.20282
           21283         71.2674         80.6984         44.8637         7.62635
           21284         71.0198         80.1669         45.1683         8.12210
           21285         69.6911         79.2711         44.4036         6.35598
           21286         69.2287         78.6233         44.6519         6.52889
           21287         68.1104         77.6014         44.4911         5.48208
           21288         67.6076         76.8101         44.9608         5.85853
           21289         64.1536         73.6170         42.9635        -2.09844
           21290         63.5899         72.8615         43.8045        -1.60323
           21291         63.9971         73.4277         43.7524    -887.413E-03
           21292         64.5485         74.1789         42.9122        -1.38131
           21293         66.0819         76.1535         42.2305    -121.640E-03
           21294         66.9190         77.2024         41.1507    -706.422E-03
           21295         66.1256         76.2217         41.7446    -830.657E-03
           21296         64.6592         73.8537         41.1116        -4.91690
           21297         64.2222         73.0941         41.3426        -5.61056
           21298         64.0600         73.2177         42.0740        -4.21086
           21299         67.0371         76.0187         37.5617        -7.29492
           21300         66.2173         75.1771         38.5718        -6.95401
           21301         67.1835         76.4898         37.7384        -6.46407
           21302         80.3713         90.8152         60.5616         3.84491
           21303         78.4605         88.8706         54.8794         6.41562
           21304         78.7684         89.2935         54.4691         6.53158
           21305         76.5513         86.3283         49.2679         8.82073
           21306         76.9873         86.9542         49.6788         8.52085
           21307         77.1448         87.2143         49.5273         8.39687
           21308         76.7075         86.5885         49.1166         8.69790
           21309         76.0317         85.8841         47.5640         8.70615
           21310         76.1366         85.9476         47.9046         8.79820
           21311         76.6904         86.7633         48.1418         8.42344
           21312         76.5870         86.6995         47.8046         8.32902
           21313         76.0917         86.9369         45.0926         6.29233
           21314         75.3889         85.9533         45.0811         6.78435
           21315         75.7216         86.2177         45.6144         7.12643
           21316         76.4147         87.2021         45.6314         6.63144
           21317         74.8164         85.1805         45.0313         7.06506
           21318         74.1854         84.4078         44.8458         7.14125
           21319         73.6028         83.9527         44.1948         6.49108
           21320         73.7612         84.2514         43.9606         6.15413
           21321         73.2001         83.6004         43.8442         6.11845
           21322         73.0381         83.2941         44.0802         6.46040
           21323         73.3206         83.4738         44.4442         6.89635
           21324         72.8246         82.8891         44.3694         6.87791
           21325         73.1305         83.0876         44.7116         7.31120
           21326         70.9337         81.0523         43.5878         5.63055
           21327         70.2005         80.3453         43.3563         5.04793
           21328         70.1444         80.1035         43.7693         5.59752
           21329         67.6977         77.5838         43.6704         3.86215
           21330         68.3176         78.3597         43.3205         3.87130
           21331         68.2523         78.4099         42.9799         3.31827
           21332         67.6278         77.6339         43.3300         3.31076
           21333         68.1945         78.7024         41.1606     745.407E-03
           21334         66.4563         76.1993         39.4205        -4.46991
           21335         67.2761         76.8611         38.0346        -5.63291
           21336         68.5829         79.0950         38.9568        -1.93614
           21337         67.9155         78.3169         39.4472        -2.02375
           21338         67.7464         78.1762         40.0840        -1.28450
           21339         68.4079         78.9539         39.5904        -1.20185
           21340         69.2469         79.8701         38.5538        -1.71359
           21341         68.8123         79.2959         38.4154        -2.43142
           21342         68.0157         77.0083         36.3813        -7.61402
           21343         68.0970         77.4333         36.6919        -6.73688
           21344         69.0292         78.0423         35.2601        -7.80888
           21345         70.2548         78.3800         33.1156        -9.85347
           21346         70.3522         77.8830         32.6572        -10.9637
           21347         84.0940         94.7073         65.4946         2.28060
           21348         83.3126         94.0888         63.7013         2.82932
           21349         83.1731         93.7016         64.5543         2.54064
           21350         83.9781         94.3205         66.3475         1.99189
           21351         80.5824         91.4584         57.7649         5.00624
           21352         80.7999         91.8019         57.2764         5.11617
           21353         80.1847         91.0910         56.0929         5.63228
           21354         79.9587         90.7472         56.5817         5.52207
           21355         80.9926         92.1218         56.7207         5.20712
           21356         81.1524         92.3988         56.1923         5.25063
           21357         80.5568         91.6879         55.1133         5.72917
           21358         80.3909         91.4110         55.6419         5.68582
           21359         79.6948         90.7089         52.5150         6.55504
           21360         80.0671         91.2588         52.4638         6.26929
           21361         79.6258         90.6946         51.7053         6.60059
           21362         79.2507         90.1379         51.7629         6.88533
           21363         79.0741         90.0501         50.3262         6.90037
           21364         79.3794         90.5458         50.1462         6.54291
           21365         78.7943         89.7877         49.3563         6.88588
           21366         77.8582         88.7325         47.6528         6.97609
           21367         77.9520         88.9555         47.3726         6.66645
           21368         77.3373         88.1558         46.8884         6.94182
           21369         77.2431         87.9277         47.1716         7.25137
           21370         77.5384         88.5342         46.6483         6.52700
           21371         76.8288         87.6489         46.1135         6.72500
           21372         75.2989         86.2915         43.7514         5.31946
           21373         75.5533         86.4990         44.1935         5.65272
           21374         75.0214         86.0569         43.3220         4.95903
           21375         74.5024         85.3736         43.4076         5.27886
           21376         74.7851         85.6058         43.8358         5.64180
           21377         73.3279         84.2581         42.2069         4.17959
           21378         73.1537         83.9626         42.5874         4.61188
           21379         73.7742         84.6742         42.6971         4.66258
           21380         73.9458         84.9646         42.3209         4.23181
           21381         72.4302         82.9567         43.1069         5.23206
           21382         73.0854         83.7394         43.0766         5.18958
           21383         72.4947         83.1827         42.6185         4.65115
           21384         71.7317         82.4846         41.9387         3.74936
           21385         71.4269         82.0524         42.3036         4.11240
           21386         71.8709         82.5295         42.3956         4.31287
           21387         72.1666         82.9526         42.0349         3.95203
           21388         71.5079         82.4237         40.7937         2.44574
           21389         70.9480         81.7627         41.0892         2.56331
           21390         71.6169         82.4921         41.1809         2.90277
           21391         70.2891         81.1312         38.7538    -434.723E-03
           21392         70.4131         81.2309         38.1759        -1.03617
           21393         69.7476         80.4879         38.6392        -1.06869
           21394         70.1522         80.4622         36.1854        -4.05569
           21395         69.3132         79.5926         37.0369        -3.89311
           21396         69.3980         79.8128         37.3679        -3.27032
           21397         70.2299         80.6829         36.5160        -3.43080
           21398         70.9184         81.0703         35.0028        -4.81397
           21399         70.1120         80.2491         35.7951        -4.72625
           21400         70.9605         81.2916         35.3904        -4.14449
           21401         72.8248         81.0094         30.4485        -9.66855
           21402         72.5922         81.2284         31.1499        -8.78471
           21403         84.9689         95.9141         65.4231         2.23689
           21404         84.9448         95.6256         66.3916         2.02160
           21405         84.3496         95.8309         62.0973         2.94720
           21406         83.7083         95.2481         60.5851         3.41307
           21407         83.6586         95.0286         61.4037         3.31765
           21408         84.3142         95.6117         62.9155         2.85139
           21409         83.1525         94.9751         57.6362         3.92145
           21410         82.5122         94.1585         57.1373         4.38668
           21411         83.1282         94.8217         58.3995         3.92341
           21412         81.9100         93.7562         53.8730         4.74900
           21413         81.2710         92.8849         53.4764         5.31673
           21414         80.1492         91.7065         50.1585         5.70981
           21415         79.6049         91.0884         49.0425         5.82734
           21416         77.1676         88.4470         45.0926         5.38290
           21417         77.5247         88.9617         45.0166         4.97174
           21418         74.9994         86.3240         41.7436         3.36761
           21419         74.4700         85.6979         41.6775         3.47904
           21420         74.5771         85.7590         42.1231         3.88270
           21421         75.1076         86.3911         42.1928         3.76752
           21422         75.8421         87.2957         42.1857         3.39084
           21423         75.5952         86.9412         42.5080         3.85709
           21424         76.1037         87.5154         42.9098         3.95156
           21425         76.3438         87.8654         42.5870         3.47954
           21426         73.2961         84.3303         41.6229         3.57417
           21427         73.5852         84.7144         41.2605         3.22405
           21428         73.1638         84.2509         41.1012         3.06788
           21429         72.7458         83.7865         40.9973         2.94479
           21430         73.3503         84.5022         40.7323         2.73804
           21431         72.9344         84.0396         40.6279         2.61433
           21432         72.5925         83.6867         40.2245         2.19513
           21433         72.7281         83.8625         39.7893         1.83500
           21434         72.2248         83.3004         39.7902         1.70705
           21435         72.0880         83.1230         40.2265         2.06759
           21436         71.6490         82.6755         38.9247     665.996E-03
           21437         71.9267         82.9852         39.1929         1.04207
           21438         72.5041         83.6240         38.5722     737.144E-03
           21439         72.2330         83.3141         38.2984     361.342E-03
           21440         72.6938         83.7144         36.7143    -787.817E-03
           21441         72.2511         83.2397         36.9802    -829.636E-03
           21442         72.1135         83.1315         37.4891    -451.293E-03
           21443         72.5525         83.6042         37.2087    -416.229E-03
           21444         71.2640         82.1021         37.0828        -1.55464
           21445         71.9197         82.8180         36.6760        -1.40500
           21446         71.5602         82.3378         36.3675        -2.09460
           21447         74.9074         85.5158         32.6817        -2.87996
           21448         74.4838         85.0423         32.8554        -3.17573
           21449         74.0863         84.7242         33.4425        -2.91991
           21450         74.5193         85.2081         33.2654        -2.62049
           21451         74.3344         84.7880         32.6679        -3.61677
           21452         73.9336         84.3080         32.7789        -3.97569
           21453         73.5911         84.1620         33.6300        -3.25593
           21454         86.9705         97.8134         68.4757         1.33247
           21455         84.8987         96.6450         61.7879         2.66268
           21456         84.9643         96.5369         62.7330         2.59323
           21457         85.4858         97.1401         63.2408         2.26904
           21458         83.7704         95.7487         58.1904         3.42493
           21459         81.8482         93.7666         53.1610         4.67521
           21460         82.4291         94.4699         54.1263         4.22850
           21461         80.5524         92.4324         49.4856         4.83690
           21462         81.1064         93.0640         50.6187         4.68528
           21463         81.0255         93.0267         50.1361         4.52852
           21464         79.4963         91.1618         47.9037         5.20924
           21465         79.4121         91.1378         47.4212         4.94192
           21466         79.1619         90.7871         47.3154         5.20240
           21467         77.7166         89.2737         44.8202         4.56399
           21468         77.9402         89.5959         44.7506         4.24699
           21469         77.6354         89.2646         44.3220         4.12464
           21470         75.3564         86.8446         40.3184         2.03849
           21471         74.9257         86.3465         40.1988         2.09886
           21472         74.9011         86.2985         40.6811         2.48398
           21473         75.3312         86.7979         40.7990         2.42379
           21474         75.7295         87.2794         40.4926         1.98178
           21475         75.7620         87.3214         40.0723         1.65794
           21476         75.3877         86.8862         39.8979         1.71512
           21477         74.5593         85.9162         38.5571         1.08564
           21478         74.3499         85.6896         38.8575         1.28705
           21479         74.5986         85.9774         39.2008         1.47426
           21480         74.8038         86.2024         38.9067         1.27377
           21481         74.0697         85.3728         38.7384         1.20451
           21482         74.1887         85.5135         39.2383         1.54541
           21483         73.9009         85.1368         37.6223     474.998E-03
           21484         73.8107         85.0177         37.3288     249.044E-03
           21485         73.3661         84.5450         37.6511     337.009E-03
           21486         74.2932         85.1914         34.3699        -1.69521
           21487         73.4272         84.3779         35.4324        -1.43684
           21488         75.1117         85.9468         33.4054        -1.83328
           21489         75.5057         86.3667         33.2219        -1.57759
           21490         87.1520         98.3990         67.3328         1.27543
           21491         87.4223         98.3416         68.8025         1.14868
           21492         88.0299         98.7070         70.3239     857.564E-03
           21493         85.2950         97.4650         60.4322         2.14451
           21494         85.8594         97.8746         62.2451         1.84053
           21495         84.3723         96.8071         56.9340         2.39482
           21496         84.9416         97.2544         58.9397         2.23010
           21497         83.9323         96.4085         55.5719         2.54312
           21498         83.5736         96.0704         54.4591         2.65506
           21499         83.3586         95.7640         54.4412         3.03212
           21500         83.7165         96.1024         55.5528         2.91167
           21501         82.1897         94.6174         50.9305         3.03824
           21502         82.0680         94.4000         51.1657         3.45953
           21503         80.9632         93.2432         48.3577         3.23022
           21504         81.2836         93.6588         48.6603         2.86862
           21505         79.6448         91.7782         45.8100         2.93624
           21506         79.9169         92.1288         46.0014         2.64036
           21507         79.6207         91.7965         45.4737         2.53728
           21508         79.3461         91.4441         45.2799         2.83364
           21509         78.0533         89.7883         44.5604         3.90553
           21510         78.3049         90.0229         45.1454         4.22475
           21511         78.4218         90.2196         44.9530         3.88482
           21512         77.9180         89.7196         43.8719         3.31777
           21513         77.8132         89.6358         43.4770         3.00870
           21514         77.4152         89.1478         43.2446         3.20722
           21515         76.4534         88.1126         41.3930         2.24820
           21516         76.6170         88.2964         41.6824         2.37363
           21517         76.8654         88.6040         41.6410         2.09791
           21518         76.7058         88.4225         41.3513         1.97441
           21519         75.2898         86.7476         38.7582         1.06496
           21520         75.0070         86.4147         38.4517     965.937E-03
           21521         75.0909         86.5373         39.2109         1.37334
           21522         74.7576         86.1197         38.1566     857.719E-03
           21523         75.1904         86.5968         38.0357     737.508E-03
           21524         74.9432         86.3019         37.7398     628.851E-03
           21525         75.1792         86.4742         36.6442     182.437E-03
           21526         75.3291         86.6631         36.8985     266.074E-03
           21527         75.5299         86.8371         36.4034     120.238E-03
           21528         75.3844         86.6509         36.1480     34.3504E-03
           21529         74.7508         86.0146         36.7861     188.454E-03
           21530         74.9351         86.2402         37.0433     321.170E-03
           21531         74.9978         86.2497         36.3871     51.0670E-03
           21532         75.7213         86.8998         35.0892    -208.026E-03
           21533         75.8550         87.0268         34.9324    -182.383E-03
           21534         75.9089         87.0355         34.5440    -293.835E-03
           21535         75.7739         86.9076         34.6967    -320.059E-03
           21536         75.5416         86.4958         33.6802        -1.13425
           21537         75.3334         86.3472         34.1972    -941.710E-03
           21538         75.5976         86.6263         34.0901    -782.834E-03
           21539         75.8058         86.7746         33.5739    -974.896E-03
           21540         86.3653         98.4957         62.6132         1.19566
           21541         86.9184         98.7745         64.6859         1.07314
           21542         85.2188         97.7941         58.1331         1.18002
           21543         84.9451         97.5292         57.4605         1.42516
           21544         85.2283         97.7326         58.5424         1.47201
           21545         85.5098         98.0010         59.2129         1.22392
           21546         82.4641         95.0947         50.4537         1.79155
           21547         82.1019         94.7043         49.5859         1.73774
           21548         81.8473         94.3830         49.2667         2.12646
           21549         79.2420         91.4037         44.5436         1.99832
           21550         79.2637         91.4514         44.3827         1.67345
           21551         78.8487         90.9626         43.8028         1.69910
           21552         77.5655         89.4701         41.5962     981.541E-03
           21553         77.7476         89.6801         42.0019         1.25764
           21554         78.0556         90.0532         42.3173         1.02357
           21555         76.9906         88.7697         41.3501         1.66262
           21556         77.1585         88.9612         41.7237         1.85032
           21557         77.4447         89.3123         41.8075         1.53437
           21558         77.2744         89.1152         41.4351         1.34766
           21559         75.8877         87.2984         37.0781     58.6500E-03
           21560         75.8867         87.3176         37.2990     149.599E-03
           21561         75.9667         87.4425         37.6993     107.920E-03
           21562         75.9730         87.4687         37.9358     258.058E-03
           21563         76.0644         87.5955         38.2379     228.115E-03
           21564         76.0576         87.5694         38.0019     76.0698E-03
           21565         76.0768         87.2514         34.7897    -25.2466E-03
           21566         76.0235         87.2080         34.9076    -58.1026E-03
           21567         75.9444         87.1703         35.3057    -33.7246E-03
           21568         75.9972         87.2133         35.1836    -3.59057E-03
           21569         76.3247         87.3292         33.4229    -506.998E-03
           21570         76.3119         87.3498         33.6409    -335.152E-03
           21571         77.0715         87.9507         32.2169    -299.931E-03
           21572         78.9622         89.4469         29.4558    -675.871E-03
           21573         78.5557         89.1020         29.9084    -860.011E-03
           21574         78.3420         88.9504         30.2416    -501.952E-03
           21575         78.7481         89.2950         29.7892    -317.948E-03
           21576         88.7670         99.7539         70.2842     6.32595E-03
           21577         88.2951         99.6197         68.5964     102.633E-03
           21578         89.0330         99.8018         71.2677     102.607E-03
           21579         87.0348         99.1109         63.9688     168.287E-03
           21580         86.8888         99.0381         63.4206     46.8864E-03
           21581         86.5479         98.8391         62.2092     165.105E-03
           21582         86.6944         98.9220         62.7465     281.809E-03
           21583         85.3794         98.0273         58.0985     172.233E-03
           21584         84.9644         97.6828         56.7422     169.279E-03
           21585         84.8497         97.5674         56.4670     545.829E-03
           21586         85.2625         97.9125         57.8244     547.124E-03
           21587         83.7814         96.5757         53.2011    -103.571E-03
           21588         83.3896         96.1741         52.1560    -243.936E-03
           21589         83.2403         96.0197         51.7577     137.812E-03
           21590         83.6302         96.4205         52.8028     279.828E-03
           21591         82.6370         95.3688         50.3132     429.850E-03
           21592         82.2246         94.9154         49.3665     424.424E-03
           21593         82.0891         94.7479         49.1765     910.246E-03
           21594         81.5230         94.1294         47.8729     169.865E-03
           21595         81.8192         94.4649         48.4798     192.158E-03
           21596         81.9171         94.5759         48.6595    -164.252E-03
           21597         80.6187         93.0872         46.1864     329.181E-03
           21598         80.4149         92.8522         45.8016    -68.4341E-03
           21599         80.0844         92.4661         45.2447     118.802E-03
           21600         79.4685         91.7422         44.2423     204.145E-03
           21601         78.9609         91.1414         43.4639     326.227E-03
           21602         79.2408         91.4694         43.9197     521.598E-03
           21603         78.1714         90.2028         42.2270    -176.365E-03
           21604         78.0305         90.0351         42.0192     109.251E-03
           21605         78.2874         90.3410         42.4147     258.655E-03
           21606         78.4264         90.5080         42.6228    -27.1197E-03
           21607         77.1319         88.9486         40.6030     385.217E-03
           21608         77.4354         89.3185         41.1047     295.328E-03
           21609         77.3636         89.2306         40.9335    -20.4259E-03
           21610         76.3913         88.0242         39.0754    -144.194E-03
           21611         76.2686         87.8638         38.7611    -209.701E-03
           21612         76.1971         87.7663         38.5163    -25.4516E-03
           21613         76.3200         87.9274         38.8336     35.7491E-03
           21614         76.2494         87.3489         34.1060     105.049E-03
           21615         76.1386         87.2853         34.5300     46.6010E-03
           21616         76.0541         87.2136         34.6889     105.907E-03
           21617         76.3024         87.3941         34.0144     2.52106E-03
           21618         76.4030         87.4530         33.6599     147.344E-03
           21619         76.4573         87.4990         33.5685     43.8715E-03
           21620         76.5269         87.5191         33.2092     348.862E-03
           21621         76.6429         87.6253         33.0729     222.171E-03
           21622         76.9144         87.8366         32.5449    -101.069E-03
           21623         76.6408         87.6324         33.1285    -62.3336E-03
           21624         76.8128         87.7643         32.7793     21.7571E-03
           21625         78.9758         89.4281         29.3532         1.03061
           21626         78.7329         89.2567         29.7257     755.497E-03
           21627         78.5546         89.0514         29.7547         1.29450
           21628         88.1766         99.3800         68.8439    -562.991E-03
           21629         88.0031         99.2353         68.5206    -702.513E-03
           21630         87.5434         99.1068         66.7369    -809.704E-03
           21631         87.7118         99.2504         67.0625    -662.504E-03
           21632         86.7788         98.8430         63.6007    -828.407E-03
           21633         86.6544         98.8250         62.9291    -707.682E-03
           21634         87.0704         99.0559         64.4006    -577.029E-03
           21635         87.2034         99.0732         65.0715    -699.507E-03
           21636         85.1793         97.8487         57.5278    -491.583E-03
           21637         85.0797         97.7811         57.1119    -184.051E-03
           21638         85.4659         98.0953         58.3943    -116.225E-03
           21639         84.3920         97.1455         55.1019    -691.890E-03
           21640         84.4673         97.1866         55.4973        -1.02008
           21641         84.0906         96.8248         54.4169        -1.13865
           21642         81.9843         94.5959         49.1851        -1.48112
           21643         82.4908         95.1294         50.4755        -1.73742
           21644         81.7648         94.3803         48.5185    -997.926E-03
           21645         81.7122         94.2984         48.5575        -1.38577
           21646         81.2873         93.8400         47.5446    -961.609E-03
           21647         80.4490         92.8555         46.1386        -1.33626
           21648         80.8536         93.3428         46.7220    -939.610E-03
           21649         78.7574         90.8841         43.3384        -1.05815
           21650         78.6585         90.7771         43.0813    -702.676E-03
           21651         79.1246         91.3244         43.8372    -869.984E-03
           21652         77.4382         89.3200         41.2166    -648.829E-03
           21653         77.1092         88.9227         40.8558    -895.104E-03
           21654         76.3777         88.0316         39.5672    -727.757E-03
           21655         76.2474         87.8521         38.9603    -416.879E-03
           21656         76.4660         88.1277         39.4189    -450.947E-03
           21657         75.8696         87.3599         38.0296    -390.216E-03
           21658         75.8280         87.2601         37.3849    -210.729E-03
           21659         75.8157         87.1420         36.3113    -65.1768E-03
           21660         75.7067         87.0421         36.5056    -106.659E-03
           21661         75.6891         86.9790         36.0857    -46.4146E-03
           21662         75.8003         87.0799         35.8913    -4.71898E-03
           21663         75.7652         86.7713         33.8260     822.621E-03
           21664         75.3623         86.3907         34.2659     862.135E-03
           21665         75.7824         86.7248         33.4397         1.09815
           21666         76.5559         87.4483         32.6280     870.335E-03
           21667         76.4312         87.3879         33.0646     648.545E-03
           21668         76.0846         87.0667         33.4516     765.995E-03
           21669         76.2079         87.1277         33.0147     988.020E-03
           21670         76.8389         87.5942         31.7989         1.37784
           21671         77.0073         87.6900         31.3998         1.64334
           21672         77.4490         88.0990         30.9762         1.45602
           21673         77.2787         88.0027         31.3761         1.18993
           21674         77.2474         88.0623         31.7828     550.955E-03
           21675         77.0272         87.9126         32.2788     346.121E-03
           21676         76.7109         87.6380         32.7069     505.434E-03
           21677         76.9262         87.7854         32.2133     710.925E-03
           21678         77.9364         88.3439         29.8946         2.36322
           21679         78.4358         88.8064         29.4641         2.16479
           21680         78.2948         88.7509         29.7996         1.83170
           21681         79.2387         89.6180         28.9988         1.32405
           21682         78.7575         89.1748         29.3894         1.59649
           21683         78.9771         89.3113         29.0361         1.91664
           21684         79.4575         89.7546         28.6454         1.64412
           21685         87.7991         98.9473         68.5332    -910.847E-03
           21686         88.0741         98.8724         70.0061    -840.447E-03
           21687         85.3711         97.7212         59.6624        -1.77777
           21688         85.0438         97.4625         58.5993        -1.90353
           21689         85.1183         97.6003         58.4164        -1.66268
           21690         83.4819         96.0576         53.7181        -2.34936
           21691         83.1525         95.6959         53.0034        -2.54831
           21692         81.7626         94.2232         49.4934        -2.64207
           21693         82.3576         94.9297         50.5087        -2.21855
           21694         82.1337         94.6263         50.3645        -2.64690
           21695         80.9749         93.3801         47.6261        -2.32136
           21696         81.1608         93.5744         48.0895        -2.46662
           21697         80.9207         93.2703         47.8224        -2.72293
           21698         80.1021         92.3644         46.1663        -2.44612
           21699         80.0991         92.3935         45.9457        -2.11211
           21700         80.4239         92.7748         46.4555        -2.05131
           21701         79.0252         91.1483         44.2450        -2.01703
           21702         78.7337         90.7963         43.9123        -2.14586
           21703         78.6316         90.6979         43.6041        -1.85359
           21704         77.3994         89.2512         41.8875        -1.71624
           21705         77.9692         89.9383         42.3863        -1.39624
           21706         76.2646         87.9035         39.7122        -1.00842
           21707         76.1036         87.7217         39.9703        -1.32880
           21708         75.4423         86.8827         38.0857    -686.782E-03
           21709         75.2773         86.7165         38.4015    -872.238E-03
           21710         75.0697         86.4648         38.0851    -783.877E-03
           21711         75.2368         86.6313         37.7686    -598.186E-03
           21712         75.4679         86.6501         35.3208     233.361E-03
           21713         75.6593         86.8222         35.0125     264.500E-03
           21714         75.6831         86.8886         35.3412     137.301E-03
           21715         75.4934         86.7163         35.6496     106.363E-03
           21716         75.6925         86.3639         32.2982         2.37057
           21717         75.2346         85.9634         32.8569         2.26968
           21718         75.4755         86.0726         32.1997         2.75390
           21719         76.3831         86.9962         31.5897         2.33194
           21720         76.0267         86.7340         32.1828         2.07298
           21721         76.0530         86.6289         31.7045         2.63574
           21722         76.8710         87.2892         30.6429         2.91850
           21723         77.0113         87.4872         30.7146         2.61249
           21724         76.5974         87.1394         31.2050         2.53752
           21725         76.4574         86.9443         31.1404         2.83884
           21726         77.4115         87.8593         30.3555         2.50636
           21727         77.4632         87.8187         30.0682         2.87973
           21728         84.3979         96.4851         58.9968        -2.90475
           21729         84.5403         96.7273         58.7441        -2.71915
           21730         85.0698         97.1461         60.4644        -2.41128
           21731         84.9315         96.9036         60.7203        -2.58951
           21732         83.8811         96.0048         57.5735        -3.25294
           21733         83.3714         95.5065         56.2004        -3.57346
           21734         83.5320         95.7814         55.8989        -3.31174
           21735         84.0411         96.2827         57.2649        -2.99474
           21736         83.0696         95.5422         53.2046        -2.87557
           21737         82.6988         95.1484         52.2679        -3.00802
           21738         81.6022         93.8939         50.0608        -3.52065
           21739         82.0173         94.3469         51.0284        -3.46233
           21740         81.7398         93.9553         50.9198        -3.87988
           21741         81.1328         93.3774         49.0219        -3.53935
           21742         78.4641         90.3949         44.2356        -3.01459
           21743         78.4650         90.4288         44.0226        -2.72693
           21744         78.7393         90.7202         44.5616        -2.97890
           21745         76.5535         88.1681         42.2615        -2.99467
           21746         77.0707         88.8088         42.3439        -2.60766
           21747         77.3450         89.1003         42.8882        -2.90625
           21748         76.8310         88.4562         42.8044        -3.29657
           21749         75.2975         86.7807         39.6824        -1.61176
           21750         75.7045         87.2548         40.1028        -1.70350
           21751         75.3427         86.8328         40.0550        -1.85063
           21752         75.1172         86.5477         38.6515        -1.05744
           21753         74.9751         86.3984         38.9538        -1.25423
           21754         74.7545         86.1422         38.7482        -1.18241
           21755         74.8965         86.2902         38.4461    -986.007E-03
           21756         74.0236         85.1863         36.5215     190.069E-03
           21757         73.6597         84.8298         37.0600    -21.8316E-03
           21758         73.3829         84.5032         36.8428     262.364E-03
           21759         74.4479         85.4622         34.9124         1.08312
           21760         73.7699         84.7402         35.2304         1.33520
           21761         74.2724         85.2187         34.6446         1.44682
           21762         74.7124         85.1098         32.2102         3.74903
           21763         75.2490         85.4942         31.3984         4.15024
           21764         75.9093         86.2168         31.0503         3.73407
           21765         75.3752         85.8329         31.8533         3.34433
           21766         77.5450         87.3532         28.7515         4.74451
           21767         76.7025         86.5539         29.4457         4.94274
           21768         76.7803         86.4188         28.9669         5.51406
           21769         77.6233         87.2192         28.2719         5.31471
           21770         78.3393         88.1088         28.1278         4.51029
           21771         78.5047         88.0859         27.6257         4.97038
           21772         79.2802         88.8539         27.1018         4.61604
           21773         85.9900         96.4450         68.5079        -1.47743
           21774         85.3397         96.0017         66.9822        -1.85509
           21775         84.4755         96.0626         61.8031        -2.91185
           21776         84.9172         96.4865         62.6661        -2.62502
           21777         85.0564         96.4659         63.6235        -2.48114
           21778         84.6018         96.0359         62.7604        -2.76652
           21779         82.8171         94.6198         56.8916        -4.17079
           21780         83.0894         94.9802         57.0174        -3.96446
           21781         83.3527         95.2013         57.9809        -3.76169
           21782         83.0854         94.8477         57.8533        -3.97227
           21783         82.5831         94.5848         54.8542        -4.20621
           21784         81.7598         93.5556         53.7533        -4.88246
           21785         81.9826         93.9020         53.5804        -4.61926
           21786         79.5412         91.2537         47.7794        -5.05795
           21787         79.0467         90.6573         47.1378        -5.19779
           21788         79.2503         90.9889         46.9955        -4.79983
           21789         78.6938         90.3247         46.3141        -4.91507
           21790         78.5297         90.0165         46.6179        -5.38815
           21791         76.6141         87.8828         44.3269        -5.06697
           21792         76.1689         87.3696         43.9918        -5.05060
           21793         76.3370         87.6569         43.7243        -4.63777
           21794         76.1529         87.5406         43.1233        -4.13668
           21795         76.0288         87.4871         42.4810        -3.57210
           21796         76.4117         87.9205         42.8074        -3.64680
           21797         73.1689         84.2848         40.8288        -2.82945
           21798         73.7215         84.9333         40.6734        -2.67023
           21799         73.8716         85.0558         41.1818        -3.12680
           21800         73.3293         84.4114         41.3357        -3.28967
           21801         72.3836         83.4422         40.3729        -2.28157
           21802         72.4146         83.4406         40.7463        -2.65652
           21803         71.9722         82.9278         40.9022        -2.70291
           21804         72.6916         83.8344         38.6643    -881.567E-03
           21805         73.3995         84.6151         38.3753    -864.926E-03
           21806         73.0887         84.2796         38.8950        -1.17566
           21807         72.6582         83.7269         37.2525     321.585E-03
           21808         72.9881         83.9046         35.6455         1.58148
           21809         73.9014         84.5862         33.7606         2.73838
           21810         74.5868         85.3501         33.5058         2.28221
           21811         74.4231         83.7363         30.3191         6.99034
           21812         75.5126         84.6695         29.1506         7.10965
           21813         75.7485         85.2233         29.4691         6.26764
           21814         74.6697         84.2947         30.6200         6.15039
           21815         75.7968         85.5156         29.8726         5.61076
           21816         84.0089         94.8871         64.3037        -2.61780
           21817         84.5644         95.1989         66.0530        -2.12001
           21818         84.1618         94.6122         66.1911        -2.07840
           21819         81.9682         93.4255         57.0100        -4.70842
           21820         81.4839         92.8422         56.3065        -5.07096
           21821         81.3529         92.7647         55.4029        -5.25861
           21822         79.7321         91.0583         50.2697        -6.21863
           21823         79.2457         90.3937         49.8398        -6.58401
           21824         79.0866         90.2421         49.3250        -6.56478
           21825         79.4756         91.0103         48.4742        -5.63902
           21826         79.2908         90.7190         48.5237        -5.90401
           21827         78.9385         90.2857         48.0595        -6.03189
           21828         76.9675         87.8199         46.2146        -6.69404
           21829         76.3855         87.1284         45.7328        -6.74595
           21830         76.6542         87.5910         45.5211        -6.29156
           21831         75.5777         86.3150         44.8302        -6.36371
           21832         75.0095         85.6481         44.5437        -6.37070
           21833         75.1898         85.9954         44.2514        -5.93099
           21834         74.7924         85.6810         43.6253        -5.39622
           21835         74.4108         85.2855         43.3153        -5.20557
           21836         74.8718         85.9353         43.0505        -4.73011
           21837         75.2512         86.3336         43.3655        -4.91887
           21838         73.1194         83.9505         42.4691        -4.48814
           21839         73.6666         84.4795         42.9354        -4.95598
           21840         73.1437         83.8442         42.9708        -5.05013
           21841         71.4185         82.2696         41.1978        -2.85090
           21842         71.9090         82.8159         41.2087        -3.00115
           21843         71.3553         82.3204         40.0386        -1.61603
           21844         70.6741         81.5242         40.5622        -1.83830
           21845         70.8789         81.7888         40.0794        -1.42616
           21846         70.5263         81.3036         37.6538         1.55579
           21847         70.9850         81.8475         37.6489         1.13787
           21848         70.4675         81.3148         38.4014     708.259E-03
           21849         70.0044         80.7705         38.4065         1.12635
           21850         72.5262         83.2534         35.1546         2.56941
           21851         71.5436         82.1613         35.6922         2.97741
           21852         73.0500         83.3896         33.4532         4.20364
           21853         74.0187         84.4243         32.7857         3.84280
           21854         82.1690         92.8990         62.1124        -3.35435
           21855         81.4240         92.6822         56.9528        -4.99235
           21856         80.7783         91.9259         55.8036        -5.49283
           21857         78.8675         89.8079         49.8957        -6.97789
           21858         78.8820         89.7639         50.2916        -7.06963
           21859         78.4431         89.1614         49.8783        -7.36954
           21860         78.4374         89.2147         49.4882        -7.28384
           21861         76.2152         86.2349         47.3944        -8.42859
           21862         76.7580         87.0286         47.6121        -8.05251
           21863         76.9734         87.2226         48.1131        -8.14062
           21864         76.4304         86.4258         47.8899        -8.51799
           21865         75.8022         85.8512         46.7268        -8.24025
           21866         75.3853         85.2620         46.5980        -8.46563
           21867         75.7996         85.9725         46.4418        -7.96227
           21868         74.5224         84.6225         45.3371        -7.60930
           21869         74.9617         85.1835         45.4624        -7.50224
           21870         74.8918         84.9547         45.7167        -7.85961
           21871         73.2111         83.2265         44.6525        -7.20276
           21872         73.1429         83.2961         44.3424        -6.80538
           21873         73.7838         84.1605         44.2457        -6.50915
           21874         73.8354         84.0824         44.5601        -6.90237
           21875         72.5082         82.9256         43.4393        -5.65808
           21876         70.0993         80.2654         43.2797        -4.90304
           21877         70.7225         81.0554         43.0059        -4.76271
           21878         70.8535         81.0538         43.3726        -5.31754
           21879         70.2395         80.2652         43.6472        -5.45781
           21880         71.2002         81.7816         42.3804        -4.12649
           21881         71.0807         81.7310         42.0445        -3.70209
           21882         71.6228         82.3945         41.7859        -3.55140
           21883         70.5324         81.3113         41.0434        -2.31183
           21884         69.9910         80.6978         41.1731        -2.15658
           21885         68.4915         79.0793         40.0510     473.133E-03
           21886         68.5933         79.1905         40.6482    -439.368E-03
           21887         68.0264         78.5297         40.8059    -90.1709E-03
           21888         70.3294         80.8637         36.6926         3.05745
           21889         69.0880         79.5081         37.7684         3.05782
           21890         70.3728         79.9844         34.5726         6.45050
           21891         69.8507         79.3135         34.9014         6.79541
           21892         70.6427         79.9463         33.8678         7.29279
           21893         71.1672         80.6132         33.5321         6.95239
           21894         72.1196         80.5870         31.4490         9.17087
           21895         73.8505         82.0228         29.4366         9.55893
           21896         78.9216         88.9317         60.6693        -3.38750
           21897         79.2745         89.4848         60.0321        -3.87360
           21898         80.0983         90.2640         61.6865        -3.21415
           21899         79.7713         89.7106         62.3235        -2.72803
           21900         80.2808         91.0886         57.4942        -5.14311
           21901         79.6591         90.3651         56.3980        -5.63927
           21902         79.8650         90.6823         55.8404        -5.79416
           21903         80.4768         91.4046         56.9367        -5.29793
           21904         79.0121         89.5817         55.2780        -6.17145
           21905         78.3966         88.8033         54.2945        -6.67425
           21906         78.6560         89.1635         53.8874        -6.77199
           21907         79.2658         89.9420         54.8692        -6.26934
           21908         78.0445         88.3873         51.7967        -7.61356
           21909         77.4253         87.5113         51.2963        -8.04445
           21910         77.4460         87.5588         50.8928        -8.11098
           21911         78.0705         88.4420         51.3845        -7.68534
           21912         76.6150         86.4207         49.2934        -8.78356
           21913         76.2693         85.9400         48.8902        -8.99421
           21914         76.9242         86.9096         49.2259        -8.54520
           21915         74.8458         84.1196         47.1745        -9.46312
           21916         74.9482         84.3495         47.0398        -9.26343
           21917         75.2815         84.7167         47.4403        -9.28784
           21918         74.0784         83.2486         46.5241        -9.41381
           21919         74.6193         83.9656         46.7653        -9.26484
           21920         74.4142         83.5375         46.9262        -9.60898
           21921         73.8754         82.8177         46.6839        -9.75825
           21922         73.2384         82.6651         45.5868        -8.57570
           21923         73.6945         83.1486         45.8242        -8.70917
           21924         73.1763         82.4453         45.7727        -8.87211
           21925         71.5410         80.7297         45.2372        -8.29477
           21926         71.0385         80.0834         45.2917        -8.34456
           21927         71.2289         80.5659         44.9755        -7.81855
           21928         70.1670         79.6541         44.5855        -6.88427
           21929         70.0054         79.1972         44.9803        -7.47565
           21930         69.4872         78.5357         45.1323        -7.48756
           21931         69.6503         79.0018         44.7386        -6.89853
           21932         68.9138         78.3089         44.6397        -6.31948
           21933         68.2410         77.4299         44.9558        -6.35984
           21934         68.2091         77.6483         44.5674        -5.70241
           21935         66.8537         76.0941         44.9630        -5.12665
           21936         67.4289         77.0857         44.1800        -4.40569
           21937         67.5024         76.9644         44.5429        -5.07293
           21938         66.5507         76.6078         42.8571        -1.49390
           21939         67.3336         77.4665         42.8450        -2.31837
           21940         66.6241         76.5600         43.3793        -2.35894
           21941         66.8797         77.1312         41.8340    -313.375E-03
           21942         65.7040         75.5834         41.0841         2.67928
           21943         65.0765         74.8359         41.9953         2.13673
           21944         65.3991         75.1102         41.0419         3.35299
           21945         65.1745         74.7115         40.9363         4.02244
           21946         64.2788         73.4780         41.7509         4.37327
           21947         67.3367         76.4447         37.3150         7.08408
           21948         68.2196         77.3816         36.3410         7.24495
           21949         68.1486         77.5550         36.7092         6.55415
           21950         67.2753         76.6200         37.6850         6.39281
           21951         76.8392         86.6797         57.9925        -4.26339
           21952         77.6645         87.5117         59.5755        -3.54926
           21953         75.8064         85.5428         54.9272        -6.07388
           21954         76.2711         86.0982         54.5793        -6.44621
           21955         76.9857         86.9767         55.8415        -5.78762
           21956         76.5370         86.4213         56.1894        -5.41546
           21957         75.3903         84.8412         52.1521        -7.96807
           21958         76.4567         86.2521         52.9054        -7.53704
           21959         76.0321         85.7333         53.1561        -7.35661
           21960         75.0987         84.1945         50.0663        -9.30545
           21961         76.1028         85.6390         50.7120        -8.73351
           21962         74.3791         83.0244         48.2384        -10.2829
           21963         74.8862         83.7975         48.7148        -9.91593
           21964         74.5030         83.2073         48.7441        -10.1178
           21965         73.8348         82.2848         47.5169        -10.5334
           21966         73.4214         81.5838         47.5185        -10.8553
           21967         68.8976         77.4173         45.7096        -8.22162
           21968         68.9586         77.1302         45.9978        -8.91140
           21969         68.2784         76.1374         46.3152        -9.06014
           21970         68.2219         77.1134         45.3376        -7.03288
           21971         67.5729         76.2466         45.6591        -7.05093
           21972         67.5830         76.5638         45.2765        -6.37785
           21973         65.7718         74.4362         45.9487        -5.60202
           21974         65.4762         74.2611         45.8243        -5.01714
           21975         66.3197         75.3590         45.3304        -5.18110
           21976         63.9225         72.5458         46.3186        -3.55870
           21977         64.3646         73.2329         45.8392        -3.43743
           21978         64.5919         73.3717         45.9680        -4.01689
           21979         64.1542         72.6821         46.4487        -4.14656
           21980         62.4583         71.2027         45.1583         1.56443
           21981         62.0903         70.6219         45.3927         2.07923
           21982         62.4423         71.1201         44.6269         2.78530
           21983         62.7968         71.6915         44.4029         2.27051
           21984         62.5137         70.8022         43.6442         5.17377
           21985         62.5121         70.2685         43.2137         6.81282
           21986         63.0541         71.1735         42.5166         6.54603
           21987         66.7756         73.7376         36.8032         11.2703
           21988         66.4132         72.5921         37.2314         12.3507
           21989         67.7521         73.6648         35.4139         13.1460
           21990         73.4921         82.8271         55.8318        -3.99793
           21991         73.3228         82.5337         53.0026        -6.57378
           21992         73.8935         83.1523         52.7935        -7.04010
           21993         74.5791         84.0535         53.9745        -6.33922
           21994         74.2920         83.3882         51.4089        -8.36126
           21995         74.5950         83.3978         49.3554        -9.82157
           21996         74.0610         82.6767         49.3832        -9.89512
           21997         72.6279         80.2892         47.8180        -11.2720
           21998         72.3869         79.8702         47.4264        -11.5370
           21999         71.5049         78.8293         46.7548        -11.5258
           22000         70.7002         77.6125         46.7219        -11.8051
           22001         71.2046         78.5052         46.6806        -11.4399
           22002         70.1313         77.0891         46.6559        -11.4828
           22003         69.5941         76.1480         46.8055        -11.8068
           22004         69.3229         75.9538         46.7928        -11.5645
           22005         69.8637         76.8963         46.6383        -11.2410
           22006         68.3394         75.4402         46.7631        -10.3291
           22007         68.6843         75.6895         46.7477        -10.6707
           22008         68.0983         74.6078         47.0797        -11.0615
           22009         64.8258         72.3534         47.4374        -7.05495
           22010         64.3827         71.5235         47.9498        -7.30002
           22011         64.5553         72.2671         47.3622        -6.43974
           22012         64.2844         72.1913         47.2210        -5.77427
           22013         64.8998         73.2354         46.5651        -5.49117
           22014         62.1088         69.9146         47.8929        -2.83647
           22015         62.7995         70.7360         47.5783        -3.74183
           22016         61.7389         69.8316         47.2611    -804.941E-03
           22017         61.5467         69.2928         48.0004        -1.68820
           22018         60.9803         68.3920         48.5570        -1.19143
           22019         60.0336         66.9139         48.4496         2.65534
           22020         60.4626         67.7933         47.7228         2.42355
           22021         60.3446         67.5607         48.3696         1.32788
           22022         59.9231         66.6865         49.0967         1.55846
           22023         60.5196         67.5154         46.8739         4.89374
           22024         60.7047         68.1546         46.9229         3.47669
           22025         60.2276         67.1852         47.7148         3.76550
           22026         62.2866         69.2206         43.3475         8.35991
           22027         61.6182         68.0572         44.5107         8.42787
           22028         62.1279         68.1292         43.6498         9.77779
           22029         63.9178         67.6037         41.6367         14.0997
           22030         63.3259         68.0073         42.0834         12.5982
           22031         62.3549         66.6380         43.9121         12.1854
           22032         71.2881         80.3267         53.0224        -5.07770
           22033         71.9865         81.1435         54.3947        -4.19419
           22034         71.1414         80.1973         54.1846        -3.60479
           22035         71.6130         80.3838         51.2195        -7.31789
           22036         70.8204         79.3619         50.4870        -7.63809
           22037         71.0813         79.4885         50.0664        -8.31016
           22038         71.4084         79.3422         48.9550        -9.85872
           22039         71.0494         78.6687         48.3887        -10.3998
           22040         71.6493         79.4014         48.5728        -10.4319
           22041         70.6550         77.7257         47.6369        -11.3164
           22042         71.3590         78.8517         48.1718        -10.8386
           22043         70.8272         78.1411         47.9595        -10.9234
           22044         70.8771         77.5299         47.1797        -12.1736
           22045         71.2740         78.2373         47.4379        -11.8318
           22046         70.7095         77.4375         47.2851        -11.9587
           22047         70.3229         76.7336         47.0275        -12.3053
           22048         69.8700         75.6981         46.7487        -12.9738
           22049         69.2057         74.5509         46.6290        -13.3363
           22050         68.9476         74.1563         46.8061        -13.3513
           22051         68.3727         73.1011         46.8412        -13.6759
           22052         68.1673         72.8384         46.9539        -13.6225
           22053         68.7412         73.8958         46.9213        -13.2971
           22054         69.8846         76.3942         46.7790        -12.0160
           22055         69.3406         75.4131         46.9068        -12.3575
           22056         67.8742         73.6982         47.3108        -11.8868
           22057         67.4688         73.4149         47.3988        -11.4806
           22058         68.5024         74.8920         46.9927        -11.4721
           22059         65.8484         71.6891         48.1208        -10.5010
           22060         65.5034         71.4782         48.2067        -10.0565
           22061         66.2937         72.6014         47.7178        -10.1862
           22062         64.5882         70.7184         48.5696        -9.06106
           22063         64.3593         70.1032         48.9210        -9.37928
           22064         63.9231         69.6128         49.1829        -9.03739
           22065         61.9274         68.2703         49.7686        -5.62663
           22066         61.2710         67.1468         50.5548        -5.29919
           22067         61.1590         67.4745         50.1405        -4.34927
           22068         58.8470         63.7608         52.0628         1.47868
           22069         58.6183         62.5941         53.5652     757.449E-03
           22070         59.1968         63.0184         50.6035         7.32967
           22071         58.8944         62.7436         51.4843         6.09542
           22072         58.8349         61.8482         52.3080         6.71748
           22073         68.2192         76.1583         48.4364        -8.09352
           22074         68.2795         76.5314         49.1332        -7.09913
           22075         67.7368         74.4934         46.6906        -10.6011
           22076         68.5786         75.4709         47.1205        -10.6934
           22077         68.8771         76.2510         47.7184        -9.85505
           22078         68.0335         75.2709         47.2979        -9.76248
           22079         70.0667         76.8951         47.3731        -11.4750
           22080         70.5740         77.4413         47.4351        -11.6458
           22081         66.9182         71.0843         47.6477        -13.4383
           22082         66.1654         69.8800         48.1127        -13.4404
           22083         66.6671         70.8834         47.8731        -13.1862
           22084         64.7729         69.1021         49.1987        -11.5420
           22085         65.2448         69.2768         48.8948        -12.3041
           22086         64.6747         68.4247         49.3643        -12.1351
           22087         61.5838         65.1661         52.1559        -8.65080
           22088         62.2454         65.9480         51.4750        -9.49304
           22089         61.8306         64.9917         52.1813        -9.44404
           22090         60.1144         63.3432         53.8322        -6.14758
           22091         60.3261         64.0931         53.1626        -6.12131
           22092         60.5328         64.0837         53.1635        -6.78382
           22093         60.3214         63.3341         53.8289        -6.80975
           22094         58.3761         60.6264         55.5868         2.02898
           22095         58.3972         61.2973         54.7211         2.06013
           22096         58.4534         61.4730         54.8215     914.826E-03
           22097         59.3498         60.2971         53.1980         9.38640
           22098         58.8477         60.9461         53.2531         7.26403
           22099         59.9241         60.7262         51.8145         11.0300
           22100         60.6343         61.3665         50.2346         12.5150
           22101         60.4016         62.3616         49.3887         11.5484
           22102         62.5717         70.6230         45.6740        -4.73009
           22103         63.3692         71.3121         45.9472        -5.64766
           22104         63.5227         71.7869         46.8350        -4.09842
           22105         63.7475         70.8680         45.0786        -8.24664
           22106         63.5850         70.2131         44.5417        -9.24878
           22107         64.3555         71.2992         45.2733        -8.87565
           22108         65.0018         70.6573         44.8250        -11.4120
           22109         65.4319         70.8155         44.9248        -11.9671
           22110         65.8611         71.9264         45.4105        -11.0811
           22111         64.4760         68.3552         44.3415        -13.5341
           22112         64.0125         67.0917         44.2777        -14.2180
           22113         64.8129         68.4090         44.6381        -13.9286
           22114         66.3512         69.9219         45.6931        -14.3817
           22115         66.1125         69.8106         45.4208        -14.2028
           22116         65.4025         68.5854         45.2178        -14.4933
           22117         65.6461         68.6971         45.4910        -14.6718
           22118         65.4747         67.9090         46.0042        -15.0888
           22119         65.5526         67.9071         46.2680        -15.1325
           22120         66.0944         68.9120         46.3228        -14.8997
           22121         66.0234         68.9191         46.0585        -14.8569
           22122         64.8416         66.3408         46.7952        -15.4702
           22123         65.1167         66.9500         46.5750        -15.3498
           22124         64.6965         66.2190         46.3544        -15.5080
           22125         64.4221         65.6033         46.5764        -15.6272
           22126         65.0515         66.7363         47.7494        -15.1060
           22127         64.5872         65.7641         48.0138        -15.2627
           22128         64.6193         65.9095         48.2572        -15.0934
           22129         65.0836         66.8823         47.9942        -14.9348
           22130         64.8022         67.1529         49.0504        -13.8774
           22131         64.4759         66.4235         49.3263        -14.0047
           22132         64.4186         66.5963         49.4811        -13.6817
           22133         64.7568         67.3337         49.2091        -13.5586
           22134         63.8002         66.4808         50.2791        -12.4550
           22135         63.4019         65.5910         50.7692        -12.5181
           22136         63.2418         65.6867         50.9133        -12.0684
           22137         61.7800         63.9777         52.7227        -10.2797
           22138         61.7461         63.3809         53.0377        -10.7086
           22139         61.3633         62.7450         53.6682        -10.2577
           22140         60.1197         61.8292         55.1873        -7.25886
           22141         60.3070         62.5466         54.5071        -7.37264
           22142         60.5389         62.4824         54.4461        -8.13330
           22143         60.3455         61.7652         55.1215        -8.01773
           22144         60.2724         65.2903         51.9818        -4.53642
           22145         60.2452         64.7564         52.5252        -5.11676
           22146         59.8292         64.0998         53.0325        -4.38455
           22147         59.8595         64.6361         52.4783        -3.80151
           22148         58.9894         62.0642         54.8896        -2.68287
           22149         59.0811         61.4889         55.6344        -3.43519
           22150         58.8316         60.8355         56.2560        -2.43743
           22151         58.7514         61.4075         55.5049        -1.67968
           22152         58.5598         58.9327         57.4135         3.80387
           22153         58.6560         58.9156         56.9294         5.24556
           22154         58.5107         59.7654         55.7833         4.95774
           22155         58.4233         59.7823         56.2683         3.51578
           22156         61.1464         57.4689         55.5689         13.4386
           22157         62.1284         57.8587         53.8156         15.5980
           22158         64.9406         54.5531         58.0465         18.6052
           22159         65.7173         53.6303         59.6268         19.0175
           22160         57.8089         65.0675         40.9638        -5.64112
           22161         56.8327         63.8450         40.0731        -5.95528
           22162         57.5724         64.1877         40.3957        -7.20230
           22163         58.5230         65.4073         41.2856        -6.89712
           22164         62.2010         66.5954         42.9457        -12.2430
           22165         63.1686         68.0076         43.5972        -11.9647
           22166         62.5172         67.7658         43.2595        -11.2002
           22167         61.5329         66.3527         42.6064        -11.4799
           22168         61.9151         65.4868         42.8110        -13.1115
           22169         61.0934         64.1974         42.3872        -13.3613
           22170         61.6139         64.3523         42.8016        -13.8740
           22171         62.7275         64.2640         44.2175        -15.1798
           22172         63.1351         64.4719         44.7050        -15.4175
           22173         63.5586         65.7955         44.3764        -14.8453
           22174         62.4498         62.5626         45.2797        -16.0048
           22175         63.0443         62.6478         47.1446        -16.1321
           22176         62.4010         61.3782         47.0628        -16.3333
           22177         62.7049         61.8416         47.4347        -16.2369
           22178         63.2274         62.8838         49.6924        -15.2626
           22179         63.7046         64.0078         49.2738        -15.1358
           22180         64.2182         65.3801         49.1569        -14.6844
           22181         64.1577         65.0289         48.8622        -15.0266
           22182         62.6747         62.7157         51.6855        -13.7230
           22183         62.8316         62.6894         51.2162        -14.2064
           22184         62.5337         61.8464         51.6578        -14.2806
           22185         62.3837         61.8768         52.1267        -13.7990
           22186         60.7296         60.5641         55.6547        -9.88781
           22187         60.7373         59.8776         56.1478        -10.2162
           22188         60.4509         59.5229         56.8188        -9.39808
           22189         60.4408         60.2096         56.3296        -9.06369
           22190         60.2910         60.8540         55.9138        -8.32691
           22191         59.6207         57.9358         59.9862        -5.00256
           22192         59.5909         57.4855         60.7009        -4.13571
           22193         59.3729         58.0854         59.9333        -3.67273
           22194         59.4098         58.5395         59.2245        -4.54910
           22195         59.3146         57.7432         60.4535        -2.58781
           22196         59.1431         58.7749         58.9341        -3.36847
           22197         59.4321         56.9213         61.6573     210.193E-03
           22198         59.3996         56.8391         61.5551         1.56319
           22199         59.0837         57.6356         60.4325     33.7469E-03
           22200         60.7315         55.1880         64.0660         4.96026
           22201         61.8407         54.3050         65.5515         6.78269
           22202         61.0684         54.9127         64.0236         6.59863
           22203         63.0535         53.5228         65.4981         10.4354
           22204         62.1603         54.2047         63.7137         10.3263
           22205         61.4976         54.6194         63.7986         8.42719
           22206         62.3857         53.9359         65.5874         8.53824
           22207         74.3804         48.6686         66.3892         25.7380
           22208         70.9407         49.6203         68.1376         20.8861
           22209         72.8781         48.4971         71.6998         20.7815
           22210         54.7305         61.5748         38.1990        -5.68323
           22211         53.4459         60.5001         37.1286        -4.61689
           22212         57.4556         63.0393         39.9731        -9.11453
           22213         56.3608         62.1454         39.1750        -8.45288
           22214         57.8887         61.5332         40.1625        -11.8753
           22215         56.7695         60.6341         39.3435        -11.3126
           22216         56.2092         59.4739         39.0322        -11.8351
           22217         57.3408         60.3705         39.8517        -12.3974
           22218         58.4056         59.6202         41.1751        -14.3310
           22219         57.7722         59.2771         40.5958        -13.9313
           22220         57.1590         58.1591         40.3999        -14.1674
           22221         60.0586         59.5718         43.5403        -15.8772
           22222         60.2292         59.3167         44.0859        -16.1303
           22223         61.0685         60.6272         44.4319        -16.0550
           22224         61.6523         60.2793         46.3358        -16.4671
           22225         61.2428         59.7345         45.9295        -16.4977
           22226         60.9154         58.8823         46.2518        -16.6107
           22227         61.3237         59.4291         46.6590        -16.5793
           22228         61.9771         59.7671         49.1397        -16.2407
           22229         61.6264         58.8018         49.7710        -16.2238
           22230         61.9921         59.6451         50.0696        -15.9679
           22231         61.6695         58.7457         50.6735        -15.9281
           22232         62.2489         60.3174         50.3771        -15.6791
           22233         61.4104         58.0960         53.7960        -14.4616
           22234         61.1987         57.3494         54.7028        -14.1551
           22235         61.3073         58.1176         54.7298        -13.7397
           22236         61.1233         57.5775         55.6006        -13.3017
           22237         61.2185         58.6051         55.4060        -12.7853
           22238         61.4171         59.1523         54.5440        -13.2214
           22239         60.7752         57.2097         57.7824        -11.3664
           22240         60.7324         57.7970         57.6043        -10.9397
           22241         60.8492         58.2254         56.8731        -11.3921
           22242         60.8904         57.6366         57.0513        -11.8188
           22243         60.3559         57.3282         59.4142        -8.80108
           22244         60.4333         57.5312         58.8648        -9.37802
           22245         60.5083         57.0254         59.2809        -9.58552
           22246         60.4374         56.8286         59.8347        -9.00581
           22247         60.2018         56.6766         61.1377        -6.81378
           22248         60.3553         56.0877         62.1345        -6.35655
           22249         60.1988         56.3230         62.1311        -5.50014
           22250         60.6348         55.3686         64.2392        -3.69959
           22251         60.7452         55.1865         64.2226        -4.62276
           22252         61.0532         54.8060         65.3698        -3.32881
           22253         59.4964         56.9682         61.6847        -1.08236
           22254         59.8911         56.3009         62.8994    -838.241E-03
           22255         62.7989         53.7826         68.4325         4.02481
           22256         61.7358         54.4233         66.8498         2.49719
           22257         62.5322         53.9373         68.2837         2.67167
           22258         62.7500         53.7466         67.2144         6.91957
           22259         67.3628         51.3898         71.2810         12.6356
           22260         68.5606         51.0979         73.3430         12.3564
           22261         69.9692         50.3192         73.7046         14.6065
           22262         74.2476         49.2440         79.0522         15.6134
           22263         75.4031         48.0193         77.7922         18.8296
           22264         73.0123         49.2146         76.6146         16.4264
           22265         84.5458         45.4779         87.7202         21.4029
           22266         89.5811         43.1958         91.4302         24.1441
           22267         83.7358         44.6643         84.4016         23.5436
           22268         95.5160         40.8428         96.6987         26.1659
           22269         103.710         37.0839         103.640         28.7670
           22270         104.313         35.0932         99.7307         32.6763
           22271         51.6507         54.7812         35.7473        -10.7583
           22272         53.1142         55.8896         36.8940        -11.5223
           22273         53.5270         57.1702         37.0203        -10.6875
           22274         52.0946         56.0575         35.8763        -9.92367
           22275         53.2492         55.3223         37.1849        -12.2387
           22276         52.0180         53.8114         36.4302        -12.1574
           22277         52.8942         53.8559         37.3554        -13.0858
           22278         54.1061         55.3614         38.1095        -13.1661
           22279         56.3698         56.9401         40.0176        -14.2896
           22280         55.4749         55.5620         39.6404        -14.3929
           22281         56.2601         55.8947         40.4570        -14.8946
           22282         57.7156         56.5031         42.1582        -15.7400
           22283         56.8459         55.0174         41.9638        -15.8359
           22284         58.3113         56.6959         43.0083        -16.0672
           22285         58.5443         55.6022         44.5512        -16.6150
           22286         58.7376         56.7251         43.7523        -16.3295
           22287         60.0557         55.3715         49.3885        -16.6951
           22288         60.5828         56.3588         49.7624        -16.5551
           22289         60.4078         55.0905         51.8703        -16.1367
           22290         60.1965         54.2666         52.4999        -16.0365
           22291         60.7098         55.7571         52.3103        -15.8863
           22292         60.5181         54.1762         55.1877        -14.9617
           22293         60.7117         55.0605         54.7113        -14.9817
           22294         60.8098         55.0400         57.0687        -13.5726
           22295         60.7377         54.1108         57.8458        -13.4788
           22296         60.7814         55.3226         59.9999        -10.8498
           22297         60.8463         54.7993         60.2533        -11.1158
           22298         60.8885         54.5048         60.9923        -10.6607
           22299         60.8179         55.0254         60.7341        -10.3972
           22300         60.7208         55.4024         61.1246        -9.44851
           22301         60.8360         54.8976         61.5394        -9.63558
           22302         60.8745         54.7270         62.1663        -9.09539
           22303         60.7532         55.2298         61.7482        -8.90919
           22304         61.2745         54.2356         65.1040        -5.92978
           22305         61.2981         54.0442         64.8634        -6.70615
           22306         61.6349         53.5409         65.8117        -6.44642
           22307         61.6188         53.7342         66.0439        -5.67262
           22308         61.5532         54.2689         66.5389        -3.01396
           22309         62.1828         53.6726         67.8854        -2.65316
           22310         62.5584         53.5556         68.6893        -1.39391
           22311         62.0398         53.9454         67.6790        -1.76545
           22312         62.6881         53.2907         68.8865        -2.27734
           22313         63.8373         53.1300         70.7160         1.71210
           22314         64.6960         52.7088         72.0975         1.77672
           22315         65.1002         52.6429         72.5052         2.97991
           22316         67.5541         51.9587         75.3679         5.76032
           22317         68.2343         51.7658         75.7852         7.20911
           22318         66.2514         52.3622         73.4730         5.66778
           22319         68.5560         51.4533         74.6699         10.3102
           22320         68.8318         51.5790         75.9457         8.69636
           22321         76.5889         49.2769         83.0901         14.4696
           22322         75.4246         49.2146         81.0483         15.1298
           22323         115.441         35.2841         127.724         9.57512
           22324         116.654         34.3614         129.651         4.93054
           22325         122.758         33.4347         135.772         4.36140
           22326         110.181         43.4506         118.195        -21.7378
           22327         118.639         39.7401         128.246        -19.5391
           22328         112.661         40.7067         122.452        -18.4893
           22329         105.395         46.5529         111.897        -23.3031
           22330         105.815         43.5960         114.782        -19.3667
           22331         101.182         46.6095         108.707        -20.9356
           22332         82.6161         54.5774         87.3171        -18.1474
           22333         81.7769         54.2209         87.7910        -16.3341
           22334         73.0020         57.0062         78.5570        -11.3522
           22335         71.5675         57.3291         77.2757        -9.89767
           22336         70.6102         57.9705         75.5403        -9.96647
           22337         72.0199         57.6455         76.8159        -11.4202
           22338         70.1977         57.6405         75.9272        -8.50160
           22339         70.9551         56.9647         77.4467        -8.23368
           22340         67.1564         58.0563         73.0015        -4.01749
           22341         66.1625         58.1810         71.8012        -2.19835
           22342         66.1771         58.6167         71.4373        -3.03414
           22343         65.4043         58.6269         70.4863        -1.24899
           22344         64.6362         59.5737         68.6930    -890.291E-03
           22345         65.3119         59.1639         69.9390        -1.97214
           22346         63.1589         59.2341         65.0448         5.84254
           22347         63.4935         58.6394         66.4739         4.90099
           22348         63.5886         57.8490         66.9450         5.41818
           22349         62.7694         58.0328         62.8209         9.51130
           22350         62.6991         57.9163         62.3452         10.0126
           22351         62.7103         58.7515         61.5674         10.1239
           22352         62.7620         58.8484         62.0393         9.62590
           22353         62.5135         58.1646         59.9888         11.7670
           22354         62.4236         57.3465         60.6881         11.6231
           22355         62.3244         57.1163         60.1730         12.0849
           22356         62.4242         57.9382         59.4744         12.2281
           22357         62.4308         58.3128         58.3931         12.8132
           22358         62.3009         57.8954         57.9965         13.2120
           22359         61.5118         57.4139         52.3140         15.8551
           22360         61.5571         57.2868         53.0052         15.6466
           22361         60.9273         55.8587         53.1148         15.6810
           22362         61.8334         59.1993         48.8015         16.5956
           22363         61.4530         58.3184         49.2532         16.5522
           22364         60.8403         57.4677         48.5676         16.6460
           22365         61.2296         58.3556         48.1202         16.6955
           22366         60.2509         57.8760         45.5653         16.7479
           22367         60.8920         58.9256         45.6389         16.7531
           22368         57.5440         55.5387         42.2440         16.2110
           22369         57.8450         56.3603         41.8334         16.0963
           22370         58.7940         57.4790         42.4425         16.2387
           22371         58.4867         56.6680         42.8496         16.3456
           22372         59.2590         59.3800         41.1163         15.6693
           22373         58.9129         58.5548         41.3685         15.8433
           22374         58.1070         57.6099         40.8733         15.7226
           22375         58.4449         58.4445         40.6290         15.5336
           22376         55.8030         56.7811         37.8492         14.2178
           22377         53.0824         55.7950         34.8060         12.0444
           22378         55.1003         58.3766         35.8728         12.0483
           22379         55.3497         60.9735         35.1318         9.19569
           22380         54.7249         59.6607         34.8712         9.99758
           22381         53.2726         58.4576         33.7267         9.21539
           22382         53.9310         59.7704         33.9875         8.41334
           22383         53.2321         59.8992         33.1919         6.63848
           22384         57.7109         65.1153         36.7299         6.66195
           22385         58.1197         64.7423         37.0082         8.42076
           22386         56.8339         63.6971         36.0573         7.51418
           22387         59.2706         64.2804         38.0185         11.2467
           22388         58.6452         64.4493         37.4446         9.94534
           22389         58.3286         62.0311         37.8424         12.5131
           22390         59.6440         63.3018         38.7445         12.9325
           22391         59.2546         62.2482         38.8131         13.4890
           22392         57.9310         60.9753         37.9100         13.0694
           22393         61.9499         63.6899         41.5675         15.2857
           22394         61.5839         62.6753         41.9082         15.6492
           22395         60.4246         61.3711         41.1681         15.4535
           22396         60.7874         62.3868         40.8276         15.0910
           22397         64.2169         64.4727         45.8838         16.5329
           22398         64.8646         65.5051         46.1047         16.4413
           22399         64.6918         65.0560         46.5411         16.4768
           22400         64.0561         64.0245         46.3331         16.5705
           22401         62.9426         61.3041         48.6440         16.5269
           22402         62.3033         60.3036         48.0825         16.6614
           22403         63.7609         62.5897         50.0374         16.0838
           22404         64.3605         63.8245         50.1046         15.8759
           22405         64.1408         63.3313         50.8440         15.6854
           22406         63.6422         62.3422         53.7212         14.4559
           22407         63.9688         63.2694         53.5142         14.2715
           22408         63.8449         63.0623         54.1534         13.9256
           22409         64.0838         63.8327         54.0456         13.6756
           22410         63.8841         63.4492         54.7314         13.3232
           22411         63.6485         62.6772         54.8373         13.5722
           22412         63.3370         63.2561         57.7566         10.4541
           22413         63.1313         62.2808         58.4094         10.5324
           22414         63.2869         62.4907         57.5211         11.3431
           22415         63.5117         63.4660         56.8640         11.2727
           22416         62.8819         61.3436         60.4710         9.01594
           22417         63.0130         61.9014         59.3637         9.82335
           22418         63.0926         62.7791         58.9260         9.42541
           22419         63.0986         61.0047         64.5043         3.37210
           22420         62.9291         61.5426         63.4169         4.23189
           22421         62.8577         62.1745         62.9161         3.59473
           22422         63.7803         61.0831         66.1492    -745.784E-03
           22423         63.9312         60.5614         66.8310    -412.373E-03
           22424         63.5734         60.7938         65.9989     848.518E-03
           22425         63.4128         61.3188         65.3058     518.907E-03
           22426         64.4734         60.2116         67.9224        -1.59644
           22427         64.4586         60.6776         67.3858        -2.65259
           22428         65.2998         60.0920         68.9008        -3.91884
           22429         65.2801         59.6300         69.4389        -2.86545
           22430         69.4632         58.2344         74.5284        -8.55408
           22431         69.6029         58.6206         73.7574        -9.86131
           22432         79.8185         55.7811         82.5801        -18.6762
           22433         78.7617         55.9953         82.2948        -17.3553
           22434         76.3589         56.7604         79.6056        -16.2309
           22435         77.3406         56.5445         79.8567        -17.5371
           22436         88.4436         53.2631         91.3926        -22.3649
           22437         84.5899         54.4072         86.7825        -21.4918
           22438         87.5901         53.4116         88.4581        -23.9380
           22439         148.625         42.9606         165.328        -2.08608
           22440         141.095         35.4999         154.668         8.48364
           22441         137.855         34.0511         151.435         4.74775
           22442         44.7941         50.7465         29.0977        -4.51775
           22443         44.4488         49.9035         29.0444        -5.51292
           22444         46.1487         51.4281         30.6887        -6.35936
           22445         49.6138         50.3448         35.1382        -12.3997
           22446         48.3892         49.7011         33.9563        -11.6326
           22447         47.1648         47.9448         33.3520        -11.7262
           22448         48.4217         48.5931         34.5482        -12.4980
           22449         50.4996         49.0845         36.9664        -14.0105
           22450         51.9454         50.2482         38.1633        -14.5447
           22451         52.3143         51.2039         38.0582        -14.3207
           22452         57.2110         52.9963         44.6354        -16.7100
           22453         57.9182         54.3373         44.6445        -16.6804
           22454         56.5768         52.7037         43.6503        -16.5170
           22455         57.3571         51.0605         47.4816        -16.8582
           22456         56.9473         50.9595         46.5640        -16.8404
           22457         56.3042         49.8023         46.4942        -16.7701
           22458         59.7865         51.9574         54.7612        -15.5060
           22459         60.0319         52.0796         55.8251        -15.0826
           22460         60.6445         53.2458         58.1301        -13.6469
           22461         60.7160         53.5831         58.3801        -13.3570
           22462         60.6679         53.7745         57.5941        -13.7708
           22463         61.2146         52.8501         62.7592        -10.5230
           22464         61.1684         53.2893         62.6752        -10.2234
           22465         61.0088         53.7022         61.6541        -10.7685
           22466         61.9837         52.0399         65.9774        -8.45131
           22467         61.9780         51.6276         65.7659        -9.05625
           22468         62.3674         51.1404         66.8929        -8.57550
           22469         62.3842         51.5557         67.1035        -7.96836
           22470         62.6377         52.1222         68.1156        -6.25449
           22471         63.0342         51.9370         69.0943        -5.48901
           22472         62.7495         52.3795         68.5778        -5.26133
           22473         64.9838         51.7606         72.8692        -1.36321
           22474         63.8493         52.2175         70.9617        -2.57892
           22475         64.5686         51.6957         72.1743        -2.49200
           22476         65.8585         51.8445         74.0858     759.584E-03
           22477         66.7097         51.4045         75.3635     842.243E-03
           22478         70.4551         51.0145         79.2428         6.44359
           22479         75.8524         49.7326         84.5901         10.5142
           22480         73.0885         50.4830         81.4799         9.44759
           22481         77.6432         49.1721         84.7937         14.0249
           22482         74.6923         49.8748         81.5828         12.9693
           22483         88.8268         45.2219         99.0016         13.1772
           22484         93.0443         44.0994         102.800         15.0345
           22485         89.5151         45.4207         99.0472         14.5872
           22486         108.200         38.0993         120.493        -10.4556
           22487         107.595         37.4912         120.330        -8.22571
           22488         104.665         38.5756         117.300        -8.79823
           22489         114.617         34.6931         127.876        -2.40833
           22490         118.875         34.2164         131.930        -4.79955
           22491         120.783         33.6279         134.019        -1.05406
           22492         116.680         34.1205         129.914         1.29659
           22493         92.7852         46.6217         102.788        -14.8585
           22494         94.4865         46.8860         103.803        -16.5459
           22495         97.1425         45.2566         106.991        -16.1608
           22496         95.4293         45.0154         105.927        -14.4695
           22497         77.6328         53.6603         86.0171        -11.0179
           22498         79.5135         53.3148         87.6738        -12.4839
           22499         80.7647         52.3560         89.4953        -12.3558
           22500         73.3443         53.7154         82.5497        -6.15823
           22501         73.4987         53.2124         83.0380        -5.59287
           22502         72.4272         53.6134         81.7543        -4.85287
           22503         67.6234         56.4140         74.8144        -2.14177
           22504         68.8853         56.1631         76.4117        -3.81469
           22505         68.5291         55.8749         76.2197        -2.80204
           22506         65.4948         56.8892         71.5427         1.26904
           22507         66.0182         56.5543         72.5309     634.934E-03
           22508         64.5974         56.7131         69.8497         3.59925
           22509         65.2542         55.7588         71.4160         3.20906
           22510         64.8706         55.9917         70.5734         3.83187
           22511         63.9825         56.5288         68.3448         5.49818
           22512         64.4434         55.9559         69.6219         4.84524
           22513         64.5029         55.3205         69.8554         5.32042
           22514         63.3369         56.9134         66.1730         7.29611
           22515         63.3916         56.1317         66.5644         7.59995
           22516         63.1145         56.5472         65.3666         8.35386
           22517         63.0730         57.3365         64.9770         8.04726
           22518         62.4754         55.6581         62.8406         10.8629
           22519         62.2598         54.9032         62.4481         11.4128
           22520         62.2917         55.6101         61.9693         11.4556
           22521         61.9415         56.4906         58.3032         13.4149
           22522         62.1213         57.4208         57.5304         13.6089
           22523         59.6046         54.0173         51.1347         16.1476
           22524         59.4986         54.2229         50.2627         16.3197
           22525         60.1355         55.3419         50.4703         16.3241
           22526         59.2092         55.7226         46.2694         16.7144
           22527         59.6639         56.0040         47.2203         16.7144
           22528         58.8879         54.9439         46.6892         16.6770
           22529         57.2440         54.2512         43.3344         16.3987
           22530         57.3925         54.8319         42.8565         16.3359
           22531         58.5555         56.3012         43.5255         16.4822
           22532         55.4036         54.2296         39.5664         15.3718
           22533         55.6042         53.9108         40.3027         15.6407
           22534         54.1633         52.0513         39.6712         15.4430
           22535         53.9219         52.3497         38.9332         15.1594
           22536         52.5325         54.6882         34.7589         12.4041
           22537         51.2657         52.6450         34.4762         12.6894
           22538         51.0113         52.9515         33.8953         12.1684
           22539         51.1581         55.8964         32.3315         9.21290
           22540         50.6401         54.6690         32.3116         9.96858
           22541         48.9844         53.2410         30.9584         9.21419
           22542         49.5356         54.4690         30.9764         8.45812
           22543         48.5459         54.3395         29.6591         6.73112
           22544         46.8890         52.8613         28.0765         5.77745
           22545         41.0182         45.2468         26.6731        -6.59893
           22546         42.6129         47.5535         27.6384        -5.91462
           22547         40.5287         45.4257         25.7361        -5.34841
           22548         42.6718         43.3821         30.1649        -10.6078
           22549         43.9258         43.5741         31.7180        -11.6451
           22550         44.3354         44.5933         31.6286        -11.3595
           22551         49.9046         47.8793         36.9400        -14.1673
           22552         49.1148         48.1416         35.6993        -13.4019
           22553         48.5032         46.9372         35.6774        -13.5546
           22554         51.2168         47.0882         39.5363        -15.3236
           22555         50.7854         46.1699         39.6709        -15.3331
           22556         51.6389         46.6940         40.6057        -15.6361
           22557         52.0397         45.3074         42.7804        -15.9528
           22558         53.0580         45.9469         44.0560        -16.2002
           22559         52.7598         46.7699         42.5485        -16.0809
           22560         56.3812         47.9708         49.1818        -16.5134
           22561         56.9254         48.9827         49.2307        -16.6232
           22562         55.9160         47.8377         48.1460        -16.5662
           22563         57.8107         47.7882         53.5651        -15.8000
           22564         58.3105         47.8770         55.0133        -15.4414
           22565         58.3182         48.3916         54.3528        -15.6553
           22566         59.1216         49.1610         56.0549        -15.1891
           22567         59.5461         49.2267         57.5125        -14.6735
           22568         60.4156         49.1685         60.6880        -13.3343
           22569         60.1643         49.4003         59.6108        -13.7924
           22570         60.0103         48.6282         59.7596        -13.8000
           22571         61.9862         51.1748         65.6747        -9.50707
           22572         62.0174         50.7553         65.6912        -9.81328
           22573         62.2807         50.8883         66.5643        -9.05194
           22574         62.9312         51.2218         68.5270        -7.08972
           22575         62.4549         51.7856         67.4127        -7.42514
           22576         62.8479         50.9850         68.2175        -7.63383
           22577         64.3044         51.1995         71.6019        -4.19596
           22578         64.0722         51.0193         71.1049        -4.96985
           22579         64.6755         50.5817         72.1772        -4.68011
           22580         66.7951         50.0064         75.6810        -2.44039
           22581         67.5526         50.9635         76.5941     987.838E-03
           22582         68.4289         50.5283         77.8389         1.09220
           22583         69.0845         50.5274         78.5974         2.11487
           22584         70.7459         50.4112         80.3766         4.28864
           22585         72.0354         49.8695         82.0795         4.41010
           22586         72.9514         49.7800         82.9581         5.52143
           22587         77.2468         48.8267         87.3113         8.61958
           22588         76.2680         49.2798         85.9830         8.80280
           22589         74.8283         49.5953         84.5902         7.73215
           22590         75.8014         49.1423         85.9182         7.55350
           22591         83.5342         46.7798         93.9594         10.9032
           22592         83.5365         46.4869         94.3476         10.0293
           22593         85.7593         45.6913         96.6734         10.6201
           22594         85.7495         45.9838         96.2771         11.4945
           22595         97.4288         41.2082         108.893         11.8870
           22596         96.7117         41.0895         108.519         10.7616
           22597         108.548         35.8646         121.941     322.570E-03
           22598         111.756         35.1305         125.095    -584.055E-03
           22599         112.238         35.0225         125.509         2.15214
           22600         98.2238         40.5648         110.989        -7.87797
           22601         100.151         39.9813         112.851        -8.33253
           22602         98.7520         39.7663         111.869        -5.90439
           22603         102.531         39.3147         115.153        -8.83023
           22604         99.7792         40.8705         112.019        -10.2559
           22605         80.3892         50.9475         90.4629        -9.86746
           22606         81.1153         51.0061         90.9627        -10.7006
           22607         75.3629         51.8053         85.6686        -5.61981
           22608         74.9180         51.6193         85.3508        -4.80099
           22609         73.9031         52.1795         84.0494        -4.48384
           22610         74.3378         52.3667         84.3645        -5.30264
           22611         69.0955         52.7972         78.1925     555.450E-03
           22612         69.0019         52.3710         78.1467         1.19032
           22613         68.2613         52.7332         77.0118         1.73972
           22614         65.3471         52.8395         71.9957         5.74657
           22615         65.8497         52.3043         73.0324         5.37353
           22616         65.5875         51.9849         72.5635         5.94532
           22617         62.4166         52.6473         64.6585         10.7621
           22618         62.6772         52.2411         65.6708         10.2852
           22619         62.4916         51.5041         65.5367         10.5337
           22620         62.2250         51.9061         64.5226         11.0100
           22621         61.1912         53.1539         59.6814         13.2847
           22622         61.0937         52.2832         60.3903         13.0297
           22623         60.7590         51.7474         59.7799         13.3376
           22624         60.8606         52.6173         59.0703         13.5923
           22625         58.9137         52.0512         52.3352         15.7758
           22626         59.5686         53.1000         52.8547         15.7244
           22627         59.4621         52.4411         53.6950         15.4741
           22628         58.3222         51.2839         51.6420         15.8425
           22629         57.2201         49.3406         51.4446         15.6141
           22630         55.9013         49.0281         48.0815         15.9866
           22631         56.3402         48.5798         50.0630         15.7053
           22632         55.2938         51.4728         42.7520         16.1327
           22633         55.6976         51.4620         43.7166         16.2531
           22634         54.8482         50.2541         43.4607         16.1048
           22635         53.7659         50.7362         40.4874         15.6158
           22636         52.8610         50.2284         39.3455         15.2707
           22637         55.0407         52.5531         40.7965         15.7827
           22638         49.9408         48.1121         36.4315         14.1992
           22639         51.0880         49.4358         37.0254         14.4405
           22640         51.2728         49.0454         37.7741         14.7106
           22641         50.1303         47.7241         37.1700         14.4655
           22642         46.7611         47.3141         32.1154         12.0567
           22643         46.5569         47.8600         31.3640         11.4651
           22644         48.2014         49.5579         32.4123         11.8761
           22645         42.9216         44.0965         29.0451         10.5662
           22646         40.9990         41.9435         27.9681         10.2067
           22647         40.1899         42.1857         26.4581         9.16004
           22648         44.3460         49.8389         26.2131         5.82977
           22649         43.5598         48.3434         26.2413         6.84005
           22650         41.7383         46.7366         24.4127         5.85271
           22651         42.6008         48.2267         24.3806         4.84414
           22652         33.9344         37.5889         20.9563        -5.39057
           22653         36.6339         40.4540         23.1801        -5.94207
           22654         34.8371         39.0369         21.0284        -4.77608
           22655         38.1833         38.7729         27.0899        -9.50646
           22656         38.7297         40.0426         26.9466        -9.11910
           22657         41.3484         39.3220         31.2060        -11.7861
           22658         41.5184         40.2872         30.7152        -11.4705
           22659         39.7260         38.9536         29.1751        -10.7403
           22660         43.1717         38.0201         35.0859        -13.1809
           22661         44.3369         38.8520         36.1100        -13.6051
           22662         47.4272         42.1867         37.8948        -14.5174
           22663         45.8674         40.2668         37.2107        -14.0964
           22664         52.7008         44.1035         45.5610        -15.9776
           22665         52.8332         43.6765         46.4145        -15.8811
           22666         53.6750         44.6818         46.9755        -16.0914
           22667         56.2427         44.3827         53.7584        -15.1591
           22668         55.7996         44.5077         52.4225        -15.4678
           22669         58.2919         46.5291         56.6710        -14.8125
           22670         58.7988         46.6104         58.0497        -14.3843
           22671         61.3306         48.6719         63.9323        -11.7879
           22672         61.3044         47.9730         64.1434        -11.8266
           22673         61.7287         47.8751         65.3329        -11.2225
           22674         64.6454         48.5088         71.7728        -7.21568
           22675         64.3583         48.1868         71.1978        -7.78230
           22676         64.8371         47.9134         72.1021        -7.39593
           22677         65.1290         48.2359         72.6662        -6.82696
           22678         65.1535         50.1610         72.9917        -4.56075
           22679         65.7040         49.6751         73.8693        -4.55310
           22680         66.2514         49.7471         74.8059        -3.64851
           22681         67.7312         49.4742         77.0538        -2.21381
           22682         67.3776         49.2985         76.5224        -2.95337
           22683         68.1024         49.0155         77.5713        -2.60220
           22684         70.8116         49.3452         81.0906         1.30175
           22685         69.3064         49.6598         79.1779     183.417E-03
           22686         70.0478         49.3033         80.1799     257.784E-03
           22687         74.6426         48.5726         85.5457         4.05488
           22688         76.0589         48.1054         87.2111         4.48640
           22689         76.5670         48.1687         87.6048         5.40024
           22690         75.1266         48.6430         85.9279         4.96812
           22691         79.6336         47.3246         90.8318         7.07219
           22692         77.9878         48.0034         88.8827         6.93582
           22693         78.4900         47.6559         89.6335         6.50630
           22694         85.4647         45.0716         97.2479         8.13919
           22695         83.7964         45.6695         95.5368         7.57148
           22696         93.2686         41.5554         105.826         7.54339
           22697         94.8979         41.0617         107.353         8.22501
           22698         99.9958         38.3776         113.387         2.66035
           22699         100.658         38.1165         114.133         1.03047
           22700         102.273         37.6074         115.724         1.34317
           22701         101.614         37.8577         114.971         2.96887
           22702         103.067         37.7543         116.427        -3.54789
           22703         101.638         38.0069         115.095        -2.10075
           22704         100.103         38.7299         113.497        -3.40172
           22705         88.9541         45.1428         101.099        -8.52253
           22706         90.2798         44.2464         102.693        -7.97246
           22707         89.3699         44.4564         101.899        -7.23911
           22708         87.4404         46.1612         99.2811        -8.96597
           22709         90.1174         44.9243         102.101        -9.40233
           22710         78.8869         49.7489         90.0949        -6.14315
           22711         77.6264         50.4777         88.5370        -6.00551
           22712         78.2908         50.5699         89.0547        -6.94940
           22713         70.4236         51.4966         80.2418     580.676E-03
           22714         70.2510         51.8675         79.9456     288.111E-03
           22715         70.9745         51.7057         80.9161    -323.759E-03
           22716         71.1398         51.3375         81.2044    -23.8747E-03
           22717         68.8437         51.8056         78.0024         2.01786
           22718         68.4395         51.4858         77.4348         2.81791
           22719         67.6699         52.0172         76.1948         3.22539
           22720         68.0538         52.3389         76.7575         2.42553
           22721         66.3654         50.8272         74.1135         5.63123
           22722         66.7225         51.0861         74.7057         5.08546
           22723         67.2828         50.6746         75.6769         4.72462
           22724         66.9135         50.4149         75.0853         5.27149
           22725         64.5937         51.5826         70.6135         7.47743
           22726         63.7813         52.0116         68.6900         8.50897
           22727         62.6611         49.9117         66.7928         10.1276
           22728         62.8101         50.5939         66.8306         10.0044
           22729         63.0746         49.6877         67.8578         9.60123
           22730         61.6998         49.2101         64.8795         11.0846
           22731         61.3983         49.4389         63.9339         11.5301
           22732         61.9584         49.9762         65.0077         11.0160
           22733         59.1691         49.1265         57.8376         13.9493
           22734         59.4487         50.1448         57.3904         14.1871
           22735         57.3097         48.4328         53.1843         15.1213
           22736         58.1697         48.8881         55.1047         14.7321
           22737         57.5369         47.8468         54.7523         14.6412
           22738         54.8134         45.0307         51.4604         14.6728
           22739         55.3899         46.2444         51.1338         15.0497
           22740         56.1071         46.7353         52.3427         14.9479
           22741         53.5242         45.5020         47.3960         15.3258
           22742         53.3943         45.8963         46.4648         15.4710
           22743         54.5001         47.3114         47.0737         15.7384
           22744         50.3494         44.5496         41.4856         15.0278
           22745         49.1490         43.5954         40.2964         14.6969
           22746         49.8070         44.8649         39.9556         14.8776
           22747         50.9975         45.8191         41.1387         15.2085
           22748         38.5713         37.9965         28.0544         10.3751
           22749         38.6307         38.7630         27.3108         10.0420
           22750         40.3137         40.2559         28.5534         10.6271
           22751         34.7939         38.6505         19.9600         5.47165
           22752         37.2674         40.6050         22.8004         6.97724
           22753         35.5783         38.6623         21.7870         6.79949
           22754         29.0000         32.2025         17.1944        -4.54819
           22755         30.8636         33.7647         19.3468        -5.52119
           22756         31.4178         34.8692         18.9607        -4.92777
           22757         29.6463         33.3056         16.8055        -3.95517
           22758         37.8183         37.6733         27.4401        -9.86141
           22759         35.5034         35.2272         26.0077        -9.29727
           22760         36.5257         33.9729         28.6488        -10.5277
           22761         36.9047         32.9665         30.1673        -10.9486
           22762         38.2713         34.8159         30.5465        -11.2984
           22763         39.5656         35.0640         32.2636        -11.9207
           22764         41.0239         36.6201         33.0403        -12.3856
           22765         39.7403         36.3845         31.3097        -11.7523
           22766         46.2952         37.3108         41.2219        -14.0229
           22767         47.3562         38.1279         42.2453        -14.3170
           22768         47.8904         39.2271         41.9128        -14.6305
           22769         46.8428         38.4214         40.8971        -14.3387
           22770         51.6803         40.5999         47.9665        -14.9348
           22771         51.4187         40.8230         47.0654        -15.0948
           22772         50.5819         39.8132         46.6298        -14.7827
           22773         50.8564         39.5877         47.5329        -14.6233
           22774         52.8221         41.5087         49.3011        -15.0889
           22775         53.2352         41.4112         50.3935        -14.9047
           22776         53.5947         42.5826         49.6132        -15.3873
           22777         55.8667         42.0025         55.9776        -13.8394
           22778         56.2465         42.5776         56.1511        -14.0078
           22779         55.9322         42.6677         55.2559        -14.2864
           22780         55.5380         42.0748         55.0565        -14.1357
           22781         57.7703         43.7210         58.5484        -13.6353
           22782         58.0720         44.3239         58.6220        -13.7787
           22783         57.7324         44.5632         57.4539        -14.2189
           22784         57.4162         43.9623         57.3712        -14.0789
           22785         58.8512         45.0996         59.8050        -13.5405
           22786         59.3161         45.0719         61.0245        -13.0821
           22787         59.5454         46.0165         60.7453        -13.3346
           22788         59.1058         46.0433         59.5289        -13.7929
           22789         61.8895         45.5715         66.7195        -10.6858
           22790         62.3373         45.7014         67.6136        -10.2594
           22791         62.3201         46.1707         67.3627        -10.4006
           22792         63.4258         47.2586         69.3858        -9.20407
           22793         63.8277         47.0272         70.2256        -8.81846
           22794         64.0872         47.4167         70.6886        -8.44138
           22795         66.6544         47.8299         75.2263        -5.60315
           22796         67.3028         47.8692         76.2587        -4.94170
           22797         67.9351         47.9247         77.2214        -4.32347
           22798         68.5265         47.9365         78.0970        -3.76528
           22799         68.1732         48.3034         77.6112        -3.64009
           22800         70.6310         48.1335         81.0151        -1.63304
           22801         69.8053         48.3915         79.9236        -1.90488
           22802         69.3645         48.2290         79.3121        -2.59059
           22803         73.1500         48.0828         84.1724     637.843E-03
           22804         73.6156         47.9370         84.7519     623.767E-03
           22805         74.0430         47.9964         85.2294         1.33806
           22806         74.6528         48.1589         85.8204         2.68487
           22807         73.6990         48.3345         84.7182         2.07869
           22808         74.0086         48.1544         85.1325         1.86025
           22809         74.9582         47.9803         86.2312         2.46273
           22810         81.4626         46.2947         93.3881         5.62707
           22811         81.4368         46.3622         93.2415         6.09388
           22812         80.0476         46.8451         91.6897         5.81277
           22813         80.0788         46.7760         91.8424         5.34212
           22814         90.6840         42.3901         103.622         5.21645
           22815         91.5599         42.0195         104.445         5.70042
           22816         90.0730         42.7462         102.753         6.32764
           22817         89.2424         43.1009         101.978         5.83925
           22818         97.5267         39.2599         111.009         1.33806
           22819         96.4680         39.6830         109.885         2.39031
           22820         95.4715         40.0866         108.930         1.70824
           22821         92.5717         42.0040         105.890        -3.66401
           22822         93.0948         41.8753         106.342        -4.37886
           22823         93.9971         41.2961         107.333        -3.74921
           22824         93.4758         41.4407         106.873        -3.02126
           22825         76.2464         49.8376         87.5445        -3.09280
           22826         75.4495         49.8509         86.6868        -2.18578
           22827         75.3094         50.0904         86.4463        -2.55779
           22828         75.2660         49.7224         86.5189        -1.73821
           22829         74.2894         50.0427         85.3159        -1.32604
           22830         74.4734         50.1750         85.4909        -1.78606
           22831         71.0868         50.4041         81.2677         1.22966
           22832         70.6306         50.9879         80.5940     974.491E-03
           22833         71.4073         50.6126         81.6664     662.339E-03
           22834         66.4103         49.4837         74.3520         6.12861
           22835         65.8186         49.2601         73.3661         6.75688
           22836         65.3962         49.8014         72.5214         7.04264
           22837         65.3316         48.4165         72.7095         7.25085
           22838         65.0443         48.9642         72.0653         7.49383
           22839         63.3568         48.7607         68.8588         9.17494
           22840         63.7213         48.4217         69.7385         8.73974
           22841         63.1880         47.7708         68.9677         9.10639
           22842         60.7788         46.6519         64.6118         10.9123
           22843         59.8635         46.4968         62.6320         11.7062
           22844         60.5263         47.2335         63.5289         11.5065
           22845         57.5094         44.8627         58.6736         12.7061
           22846         57.5240         45.9833         57.3052         13.4875
           22847         58.1038         46.2156         58.5377         13.1512
           22848         56.6655         45.4641         55.7218         13.8133
           22849         55.2534         43.7242         54.5115         13.5783
           22850         53.5063         43.4324         50.4980         14.3730
           22851         52.5685         42.1377         50.1749         13.9595
           22852         52.1211         42.3413         48.7949         14.2468
           22853         49.7254         40.8754         45.3472         14.1307
           22854         50.3433         40.9503         46.6720         14.0294
           22855         49.0953         39.3857         46.1380         13.5102
           22856         48.4557         39.3172         44.8146         13.6107
           22857         47.2332         39.9551         41.2811         13.9023
           22858         48.4507         41.6048         41.5368         14.3682
           22859         48.1848         40.4205         42.6201         14.0737
           22860         45.3807         39.1232         38.6972         13.4817
           22861         46.4654         40.5299         38.9624         13.8737
           22862         47.4008         40.9579         40.2618         14.1104
           22863         46.3278         39.5457         39.9883         13.7199
           22864         43.1326         39.1072         34.5084         12.7768
           22865         43.7461         38.9195         35.8851         13.0113
           22866         42.3129         37.1697         35.3694         12.5494
           22867         41.6501         37.3554         34.0028         12.2924
           22868         38.3743         36.9934         28.7916         10.6492
           22869         36.5213         35.4859         27.3183         9.96132
           22870         36.7394         36.4807         26.5841         9.69597
           22871         30.5239         33.7085         17.6456         5.12777
           22872         27.4058         30.4147         15.3829         4.36869
           22873         24.4132         26.9569         14.6057        -4.07139
           22874         26.6386         29.5426         15.6816        -4.25081
           22875         30.4742         28.2610         24.8257        -8.47102
           22876         29.4885         26.8840         24.6763        -8.19144
           22877         39.2547         32.6414         34.2599        -11.8324
           22878         37.9204         31.7375         33.0186        -11.3782
           22879         38.6279         31.5128         34.4275        -11.5284
           22880         43.0723         35.9793         36.9961        -13.2048
           22881         41.4192         34.3641         35.9726        -12.6068
           22882         41.8787         33.9562         37.2071        -12.6470
           22883         43.5043         35.5608         38.2228        -13.2452
           22884         46.2544         36.0288         42.7925        -13.5642
           22885         44.9612         34.8695         41.7878        -13.1216
           22886         44.9884         34.2888         42.6321        -12.8133
           22887         46.2695         35.4370         43.6367        -13.2574
           22888         49.0963         37.0020         47.3924        -13.5262
           22889         47.6396         36.1322         45.5092        -13.3823
           22890         54.9379         40.0136         56.5029        -12.7199
           22891         55.4660         40.7268         56.7601        -13.0096
           22892         54.9384         40.6147         55.6316        -13.3324
           22893         54.3978         39.8988         55.3746        -13.0414
           22894         60.8154         44.0722         65.3969        -10.9784
           22895         60.0701         43.1890         64.5493        -11.0202
           22896         60.7859         43.4939         65.8239        -10.5412
           22897         62.4433         43.9868         68.8300        -9.20818
           22898         63.1613         44.4055         69.9342        -8.79718
           22899         62.2182         44.2666         68.1834        -9.67557
           22900         65.3497         45.7757         73.2217        -7.42803
           22901         64.7046         45.7941         72.0972        -8.02499
           22902         64.4567         45.3221         71.8315        -8.09025
           22903         65.1009         45.3118         72.9547        -7.48971
           22904         67.0208         46.9192         75.7655        -5.91107
           22905         67.5548         46.9708         76.5876        -5.45001
           22906         67.3486         47.2280         76.2775        -5.46290
           22907         69.2013         46.9945         78.9627        -4.32226
           22908         69.9910         47.1348         80.0599        -3.69995
           22909         69.7718         47.3037         79.7742        -3.65852
           22910         68.9833         47.1626         78.6768        -4.27968
           22911         71.5419         47.5296         82.1471        -2.26914
           22912         70.6726         47.4298         81.0075        -2.88588
           22913         70.7856         47.2979         81.1263        -3.11611
           22914         75.2719         47.6611         86.7702     505.753E-03
           22915         74.3811         47.6780         85.7066     133.139E-03
           22916         74.0788         47.6866         85.3398    -332.976E-03
           22917         77.6547         47.4288         89.5289         1.96540
           22918         76.7927         47.4803         88.5276         1.72405
           22919         76.4538         47.5743         88.1519         1.27472
           22920         77.3084         47.5247         89.1515         1.51629
           22921         81.0836         46.6039         93.3201         3.78884
           22922         79.5783         47.0135         91.6662         3.12457
           22923         82.6051         46.1071         94.9792         4.31700
           22924         84.1393         45.5141         96.6418         4.71926
           22925         87.3091         44.1276         100.104         4.90591
           22926         86.6758         44.3102         99.3262         5.31600
           22927         85.7536         44.8104         98.3886         4.97403
           22928         92.1749         41.9278         105.678    -642.004E-03
           22929         92.5544         41.6278         106.058     148.246E-03
           22930         91.6902         42.1310         105.175     705.504E-03
           22931         91.3072         42.4264         104.801    -85.0971E-03
           22932         91.6805         42.2722         105.159        -1.31966
           22933         92.3051         41.9478         105.769        -1.85474
           22934         86.8430         45.4119         99.5544        -5.45735
           22935         87.6469         44.9804         100.424        -5.50434
           22936         87.6998         44.9146         100.599        -4.90446
           22937         86.9034         45.3488         99.7386        -4.86270
           22938         80.4895         48.2194         92.6471        -3.52892
           22939         81.0043         48.1077         93.2670        -3.43905
           22940         80.0147         48.4069         92.1406        -3.13442
           22941         78.8714         48.7175         90.8454        -2.59311
           22942         79.2308         48.5876         91.2159        -3.07632
           22943         74.3184         49.2970         85.4785     309.991E-03
           22944         74.6062         49.3415         85.8271    -118.470E-03
           22945         75.4763         49.2470         86.8903    -437.794E-03
           22946         75.1798         49.2038         86.5393    -9.47760E-03
           22947         74.0025         49.1951         85.0911     770.731E-03
           22948         73.1036         49.2911         83.9581         1.14869
           22949         73.4118         49.3940         84.3463     688.950E-03
           22950         70.4561         49.0443         80.4762         3.12006
           22951         71.8185         49.2049         82.3000         2.08515
           22952         68.5313         48.9473         77.7457         4.53659
           22953         68.6128         48.6306         77.9024         4.56213
           22954         67.6994         48.8802         76.5043         5.18247
           22955         65.4276         47.2015         73.2823         6.86842
           22956         66.0403         47.6017         74.1449         6.51549
           22957         66.5514         47.4223         75.0359         6.00567
           22958         63.4913         46.0780         70.4558         7.96656
           22959         63.5124         47.0439         69.9532         8.52675
           22960         64.1857         46.9386         71.2491         7.84143
           22961         59.9633         44.2823         64.9419         9.88264
           22962         60.7763         45.0230         65.9424         9.78460
           22963         61.1234         44.6939         66.9558         9.09144
           22964         55.9904         41.0766         59.9270         10.2955
           22965         56.8323         41.7273         60.9757         10.2480
           22966         55.8924         40.6172         60.3500         9.71827
           22967         55.0683         41.3691         57.3460         11.6176
           22968         54.8797         41.9446         56.0974         12.3625
           22969         55.6034         42.3536         57.2726         12.1581
           22970         50.5425         38.0131         51.5691         11.6972
           22971         50.2257         38.4132         50.2184         12.3046
           22972         51.0261         38.9166         51.3336         12.2712
           22973         45.3886         36.0694         42.8809         12.4772
           22974         46.2164         36.4540         44.1103         12.5079
           22975         44.3001         34.6577         42.6261         11.8558
           22976         39.0430         32.9612         34.6082         11.2682
           22977         40.4136         33.4413         36.5419         11.5706
           22978         30.8417         28.9128         25.1583         8.36097
           22979         32.4995         30.4658         26.1856         8.94672
           22980         32.5005         29.6892         27.0904         9.04130
           22981         30.8593         28.1430         26.0607         8.45643
           22982         26.7142         28.2486         18.1145         5.75151
           22983         27.8410         28.9714         19.4929         6.33881
           22984         26.6242         27.2917         19.4560         6.23069
           22985         25.4464         26.5504         18.0693         5.65228
           22986         24.5574         27.3382         13.5634         3.76485
           22987         23.4892         25.8235         14.1789         4.08228
           22988         20.8106         22.2780         14.3710        -4.09888
           22989         23.3068         24.6772         16.2399        -4.87382
           22990         22.4366         24.5182         14.1515        -4.03997
           22991         25.7352         23.2078         22.4695        -6.83834
           22992         26.7184         24.5609         22.6633        -7.15635
           22993         27.7245         25.8874         22.8773        -7.46893
           22994         28.5041         25.5556         24.4607        -7.87768
           22995         40.5058         31.9884         37.1168        -11.9319
           22996         38.8581         30.4161         36.1013        -11.2482
           22997         39.2578         30.0864         37.1998        -11.1260
           22998         43.2864         31.6094         42.9606        -11.3564
           22999         43.4746         31.1514         44.0317        -10.8396
           23000         45.1743         32.6299         45.4507        -11.4498
           23001         45.4937         32.3173         46.6427        -10.9102
           23002         47.1002         33.7808         47.9345        -11.5301
           23003         49.0499         34.9985         50.4774        -11.5422
           23004         49.0603         34.4254         51.4959        -10.6887
           23005         50.4408         35.5644         52.8657        -11.0273
           23006         53.1202         37.0520         57.0079        -10.1859
           23007         52.7883         37.0911         56.0354        -10.7905
           23008         51.7177         36.2074         54.9406        -10.5599
           23009         55.6763         38.8172         60.3238        -9.92835
           23010         54.5298         37.9239         59.0427        -9.80421
           23011         54.7864         37.8821         59.8920        -9.09735
           23012         59.3686         41.3575         65.2141        -9.28081
           23013         60.1441         41.8849         66.2514        -9.10409
           23014         59.2058         41.6188         64.4432        -10.0386
           23015         62.9382         43.4473         70.4150        -7.62929
           23016         63.0666         43.4243         70.8102        -7.13023
           23017         63.9117         43.9237         71.9626        -6.77417
           23018         63.7705         43.9422         71.5655        -7.27752
           23019         65.3811         44.8933         73.7029        -6.73100
           23020         65.5911         44.9145         74.1625        -6.21236
           23021         66.4845         45.3573         75.4080        -5.68176
           23022         68.5929         46.4117         78.1448        -4.87035
           23023         67.7195         46.0578         76.9384        -5.43759
           23024         68.8367         46.4513         78.5239        -4.55695
           23025         72.6734         47.5961         83.5403        -2.10106
           23026         73.2434         47.6832         84.2626        -1.69652
           23027         72.9143         47.5934         83.8637        -1.78843
           23028         73.6668         47.8633         84.7685        -1.58181
           23029         74.2533         47.9355         85.4984        -1.18085
           23030         79.4748         47.8750         91.6707         1.77386
           23031         79.8121         47.6148         92.0400         2.15237
           23032         78.9945         47.5362         91.1008         1.97255
           23033         78.6621         47.7969         90.7318         1.59416
           23034         81.7141         47.3948         94.2034         2.67056
           23035         82.1057         47.0325         94.6111         3.04493
           23036         80.9470         47.3567         93.3168         2.64015
           23037         83.2808         46.6561         95.9215         3.33079
           23038         83.8237         46.7517         96.5724         3.12926
           23039         86.6459         45.3788         99.7234         3.10055
           23040         86.4468         45.2720         99.4575         3.38284
           23041         85.8992         45.7649         98.8834         3.25088
           23042         88.6453         44.0295         101.909         2.64282
           23043         88.3781         44.0662         101.570         3.06222
           23044         87.8783         44.5232         101.066         2.93115
           23045         89.3887         43.7716         102.811         1.22536
           23046         89.3620         43.8638         102.807     751.058E-03
           23047         89.9059         43.3501         103.344         1.13438
           23048         90.3987         43.1172         103.878    -618.097E-03
           23049         91.0869         42.6410         104.571    -900.649E-03
           23050         88.5779         44.5595         101.919        -2.19457
           23051         88.2496         44.9129         101.605        -1.88061
           23052         87.8066         45.2648         101.116        -2.12725
           23053         86.9615         45.5714         100.051        -3.40714
           23054         87.5258         45.2040         100.680        -3.26389
           23055         86.6877         45.9064         99.8105        -3.00872
           23056         78.5437         49.3227         90.5450        -1.14196
           23057         77.7619         49.2794         89.6239    -933.968E-03
           23058         78.0279         49.0712         89.9371        -1.29212
           23059         78.8141         49.1147         90.8576        -1.49974
           23060         74.3609         49.2863         85.5072         1.04100
           23061         73.1728         49.1124         84.0207         1.75186
           23062         71.9863         48.8576         82.5116         2.45721
           23063         70.7953         48.5187         80.9764         3.14143
           23064         71.0687         48.5958         81.3288         3.00402
           23065         70.5780         48.4134         80.7161         3.16511
           23066         69.7951         48.1921         79.6553         3.77161
           23067         67.2182         46.9991         76.3427         4.80289
           23068         66.1207         46.5299         74.7987         5.55134
           23069         66.8571         46.9415         75.7378         5.33541
           23070         65.3734         46.0843         73.8347         5.80137
           23071         64.8268         45.6531         73.3378         5.41502
           23072         64.5577         45.6111         72.7832         6.04570
           23073         55.7446         40.1580         60.6948         9.09784
           23074         54.8059         39.4364         59.5583         9.12915
           23075         54.9585         39.8963         59.2122         9.74658
           23076         53.7391         38.2077         58.9806         8.22327
           23077         53.8131         38.6136         58.4828         8.99689
           23078         47.2843         34.9671         48.7081         10.7053
           23079         47.3545         34.6601         49.3590         10.2567
           23080         46.3258         33.6599         48.5172         9.87005
           23081         46.2403         33.9574         47.8624         10.3205
           23082         43.1274         33.1292         42.3071         11.1675
           23083         42.2433         32.7846         40.9882         11.1567
           23084         43.4446         34.3150         41.3089         11.8463
           23085         40.1496         31.0508         39.1390         10.5082
           23086         38.7350         29.4082         38.4683         9.78151
           23087         38.0072         29.4659         37.0458         9.92478
           23088         39.4637         31.1076         37.7140         10.6544
           23089         24.9492         22.7869         22.0896         6.28813
           23090         27.0505         24.6296         23.5901         7.06243
           23091         26.8852         23.5185         24.5134         6.95958
           23092         21.4355         16.9973         21.5149        -4.94552
           23093         21.0296         15.6733         21.8571        -4.52513
           23094         23.5051         17.2279         24.2967        -5.28968
           23095         23.9063         18.5457         23.9497        -5.71957
           23096         27.5039         19.7015         28.3331        -6.42276
           23097         27.7624         20.9045         27.7541        -6.91965
           23098         25.8573         19.6727         25.8948        -6.33679
           23099         25.5972         18.4669         26.4706        -5.84031
           23100         34.6980         24.6680         35.4072        -8.46940
           23101         32.7627         22.7798         34.0267        -7.56707
           23102         35.3585         24.4736         36.8024        -8.11454
           23103         40.2784         27.6197         42.4352        -8.77123
           23104         39.7813         27.8833         41.0480        -9.39306
           23105         37.9027         26.1303         39.6210        -8.54996
           23106         38.4538         25.8675         41.0090        -7.92947
           23107         43.0107         28.9173         46.4755        -8.11754
           23108         44.6310         30.4369         47.8083        -8.85096
           23109         44.1919         30.5760         46.5212        -9.59582
           23110         42.5307         29.0565         45.1877        -8.86284
           23111         47.0861         31.7749         51.5380        -7.93527
           23112         48.4426         33.0244         52.6846        -8.56909
           23113         47.9829         33.0100         51.4436        -9.38804
           23114         46.5929         31.7585         50.2968        -8.75359
           23115         53.4943         37.0728         57.9824        -9.57176
           23116         52.8722         36.3194         57.9654        -8.59564
           23117         53.8800         37.1739         58.9318        -8.92420
           23118         54.9972         37.8897         60.5388        -8.52265
           23119         54.7255         37.5679         60.6565        -7.81151
           23120         55.5055         38.0965         61.7174        -7.56530
           23121         61.0558         42.0727         68.6387        -6.68953
           23122         61.3510         42.3077         68.6747        -7.37691
           23123         60.6700         41.8429         67.8809        -7.36073
           23124         64.7179         44.4010         73.2562        -5.86346
           23125         64.5591         44.4133         73.1903        -5.45112
           23126         65.2815         44.9038         74.1706        -4.98610
           23127         65.4315         44.8850         74.2375        -5.40259
           23128         66.6915         45.5004         75.7656        -5.30432
           23129         66.4136         45.4218         75.4682        -5.16666
           23130         67.1786         45.9574         76.5347        -4.49642
           23131         67.4523         46.0114         76.8337        -4.63919
           23132         70.3966         47.0560         80.5736        -3.68676
           23133         69.5537         46.7285         79.4614        -4.20951
           23134         69.7932         46.9136         79.7902        -3.95709
           23135         70.6462         47.2415         80.9070        -3.43285
           23136         73.2758         48.4207         84.2061        -1.95120
           23137         72.8424         48.4619         83.6527        -2.13287
           23138         73.3882         48.9033         84.3033        -1.82248
           23139         73.8256         48.8677         84.8580        -1.64357
           23140         74.8128         49.1129         86.0690        -1.16913
           23141         74.2341         48.6656         85.3907        -1.45877
           23142         74.4038         49.3202         85.5377        -1.35121
           23143         77.0549         49.0858         88.8111    -24.4350E-03
           23144         76.7874         49.3719         88.4666    -219.823E-03
           23145         77.5495         49.8897         89.3435     28.3821E-03
           23146         79.8850         48.3948         92.1511         1.56655
           23147         79.5320         48.8264         91.7384         1.24360
           23148         80.2332         49.1204         92.5478         1.34730
           23149         80.5879         48.6892         92.9600         1.66957
           23150         82.2219         48.7082         94.8465         1.99153
           23151         82.6009         48.2065         95.2666         2.29377
           23152         81.9953         47.9725         94.5619         2.32968
           23153         81.6164         48.4742         94.1414         2.02664
           23154         83.9559         48.0929         96.8353         2.28668
           23155         84.3245         47.5785         97.2314         2.52253
           23156         83.8779         47.3866         96.6974         2.69454
           23157         83.5083         47.9019         96.3012         2.45864
           23158         86.5976         45.6503         99.7177         2.81206
           23159         86.4952         46.0624         99.6593         2.46648
           23160         86.7625         45.7285         99.9334         2.56567
           23161         86.7141         46.0804         99.9304         2.21250
           23162         86.9446         46.0176         100.207         1.96985
           23163         87.2009         45.6167         100.459         2.13398
           23164         86.9720         45.6794         100.185         2.37668
           23165         88.0529         45.2577         101.475     345.549E-03
           23166         88.2145         45.0984         101.646     134.160E-03
           23167         88.5009         44.7596         101.938     330.158E-03
           23168         88.3300         44.9162         101.756     538.038E-03
           23169         87.9256         45.2656         101.288        -1.58708
           23170         88.7218         44.5021         102.116        -1.60779
           23171         88.3954         44.8532         101.797        -1.31716
           23172         87.5785         45.5413         100.893        -1.94583
           23173         87.5457         45.6514         100.881        -1.69227
           23174         87.1075         46.1164         100.416        -1.68283
           23175         87.1344         46.0016         100.422        -1.93477
           23176         85.6169         46.4548         98.5695        -3.42924
           23177         86.1995         46.0656         99.2126        -3.43785
           23178         86.1200         46.3526         99.1885        -3.02119
           23179         85.5423         46.7401         98.5481        -3.01423
           23180         82.6789         49.4894         95.3766        -1.82882
           23181         82.1072         49.4193         94.7044        -1.88241
           23182         82.4759         49.1464         95.1307        -2.03256
           23183         79.7910         50.0155         91.9885        -1.15752
           23184         79.9879         49.5421         92.2319        -1.44669
           23185         76.9598         49.9877         88.6236    -17.8693E-03
           23186         77.7706         50.3672         89.5684    -276.567E-03
           23187         77.4615         50.7624         89.1594    -47.0223E-03
           23188         76.6541         50.3830         88.2144     211.692E-03
           23189         75.4875         50.2917         86.7891     716.564E-03
           23190         74.2841         50.0907         85.3102         1.22114
           23191         72.9285         50.9205         83.5065         1.22864
           23192         72.1075         50.1781         82.5593         1.66212
           23193         72.6204         49.9255         83.2326         1.72589
           23194         71.0257         48.8077         81.2954         2.66774
           23195         71.7957         49.3668         82.2377         2.18431
           23196         71.3069         49.4110         81.6238         2.15173
           23197         62.9996         44.5048         71.3886         4.79839
           23198         63.1850         44.5776         71.4277         5.39576
           23199         64.0827         45.1798         72.5970         4.99890
           23200         58.4003         41.2550         65.6398         6.00019
           23201         57.6883         40.6466         64.8956         5.83505
           23202         57.5336         40.6726         64.3960         6.53632
           23203         53.5256         37.6985         59.3884         7.20381
           23204         55.0170         38.7748         61.3564         6.77886
           23205         43.6393         29.0409         48.9658         5.33474
           23206         45.1651         30.6677         50.2474         6.20614
           23207         42.3674         29.3669         45.8684         7.65258
           23208         41.2690         28.7198         44.3955         7.79693
           23209         42.2833         30.1102         44.7319         8.70238
           23210         39.0168         27.7875         41.0259         8.30763
           23211         36.4849         25.7023         38.5692         7.62178
           23212         38.1108         27.6808         39.3691         8.68036
           23213         31.4842         21.9151         33.4245         6.48818
           23214         33.2385         23.9738         34.5130         7.44572
           23215         33.9570         23.7360         35.9957         7.03289
           23216         26.6854         18.8085         28.2607         5.51439
           23217         24.5374         17.8588         25.7410         5.17205
           23218         26.4424         19.8165         27.1801         5.95434
           23219         18.6350         11.2024         20.8169         2.68484
           23220         18.0701         12.5494         19.6853         3.08601
           23221         20.1613         14.8387         21.4041         3.90572
           23222         20.3241         17.7495         19.6002         4.53684
           23223         20.0967         16.2125         20.4584         4.24928
           23224         17.8036         14.0832         18.5908         3.40741
           23225         17.9563         15.6215         17.7329         3.69480
           23226         14.5544         14.3213         13.3465         2.56518
           23227         12.1897         12.6845         10.6625         1.75600
           23228         13.9457         14.6038         11.6686         2.27030
           23229         9.44407         8.76995         9.67392        -1.08520
           23230         11.5739         11.0472         11.2992        -1.73838
           23231         8.78891         9.17026         8.02304    -886.029E-03
           23232         15.6908         11.9782         16.7078        -2.81092
           23233         16.7472         11.5384         18.2569        -2.86800
           23234         18.8962         13.8534         19.9977        -3.75406
           23235         18.5360         9.85573         20.8431        -2.41087
           23236         19.4826         12.8032         21.2488        -3.47333
           23237         17.6109         10.7484         19.5647        -2.71585
           23238         23.7681         12.7024         26.6992        -3.15541
           23239         25.3633         14.8164         28.1541        -4.01092
           23240         24.5437         15.2619         26.8609        -4.39340
           23241         28.8725         16.2070         32.4397        -3.84582
           23242         30.5553         18.3257         33.9163        -4.79661
           23243         29.7544         18.6679         32.5004        -5.39358
           23244         27.9684         16.5500         31.0255        -4.44300
           23245         37.3077         23.9020         41.0026        -6.30855
           23246         35.5874         21.9971         39.6074        -5.32583
           23247         38.0198         23.8364         42.4096        -5.46659
           23248         41.1764         25.8285         46.5658        -4.57287
           23249         42.6976         27.4927         47.8838        -5.50257
           23250         41.9916         27.3404         46.4981        -6.45488
           23251         40.3985         25.6764         45.1802        -5.52493
           23252         45.7426         29.7000         51.8840        -4.44586
           23253         46.3312         30.6735         51.6967        -6.29514
           23254         44.9234         29.2917         50.5114        -5.42426
           23255         50.1224         33.5189         56.9474        -4.26411
           23256         51.2775         34.5984         57.9659        -5.09290
           23257         63.4634         43.8588         72.0090        -5.06409
           23258         63.7057         43.9233         72.1830        -5.45539
           23259         63.0744         43.4282         71.2966        -5.92895
           23260         62.8213         43.3743         71.1218        -5.52964
           23261         68.4201         47.6004         78.1740        -2.91246
           23262         69.3723         48.6070         79.3083        -2.23640
           23263         71.0590         48.3343         81.4048        -2.65077
           23264         71.9547         49.0080         82.4899        -2.14301
           23265         72.1800         48.7928         82.7878        -2.22477
           23266         71.3062         48.1140         81.7285        -2.73001
           23267         73.8404         51.0086         84.6422        -1.11201
           23268         73.3947         49.6530         84.2392        -1.61705
           23269         72.9066         49.9857         83.5906        -1.60742
           23270         76.3456         51.7178         87.6810    -456.892E-03
           23271         76.5538         51.1278         88.0088    -438.863E-03
           23272         75.7290         50.4743         87.0638    -733.982E-03
           23273         77.9913         50.6739         89.8096     111.867E-03
           23274         78.6440         51.4306         90.5296     231.603E-03
           23275         79.1610         50.8555         91.2000     503.901E-03
           23276         81.1879         50.6279         93.6174         1.11472
           23277         80.5555         50.0933         92.8956         1.11142
           23278         80.2107         50.8099         92.4530     833.212E-03
           23279         82.6199         50.7059         95.3050         1.21675
           23280         82.9467         49.9811         95.6996         1.50525
           23281         82.4287         49.6124         95.0946         1.63256
           23282         82.0997         50.3372         94.6997         1.34329
           23283         84.1062         49.7779         97.0681         1.37239
           23284         84.0331         48.8863         96.9606         1.85964
           23285         83.7198         49.5638         96.6073         1.60006
           23286         85.3044         48.6841         98.4630         1.33124
           23287         85.5918         48.0784         98.7730         1.54581
           23288         87.5014         45.9455         100.900    -416.724E-03
           23289         87.6998         45.6920         101.106    -541.973E-03
           23290         87.8338         45.5371         101.248    -401.794E-03
           23291         87.6352         45.7874         101.043    -275.752E-03
           23292         86.3924         47.1800         99.6761        -1.30163
           23293         86.0347         47.7168         99.2914        -1.17905
           23294         85.5009         47.5911         98.6203        -2.07948
           23295         86.0368         47.1097         99.2235        -2.00847
           23296         63.1419         70.1973         40.5509         9.33496
           23297         63.8289         71.3493         41.1231         8.68698
           23298         64.2252         71.1147         41.1704         10.0064
           23299         64.6460         70.8440         41.3164         11.2576
           23300         65.7535         71.7908         41.9811         11.8468
           23301         64.8101         70.1254         41.4589         12.5335
           23302         63.6828         69.1742         40.7861         11.9480
           23303         64.5885         68.4359         41.8563         14.1507
           23304         65.9937         68.6655         43.7936         15.5933
           23305         66.6626         69.4344         44.3077         15.6640
           23306         66.1386         68.3881         44.5230         15.9156
           23307         65.6477         67.4197         44.7896         16.1018
           23308         65.2961         66.1096         46.4988         16.3806
           23309         65.4074         66.2026         46.8571         16.3485
           23310         64.7965         65.1267         46.8998         16.4513
           23311         65.4495         66.0322         48.4387         16.0789
           23312         64.8868         64.9985         48.2625         16.2605
           23313         65.8182         66.7599         47.9323         16.0997
           23314         65.0264         65.4266         51.2711         14.9840
           23315         65.8648         67.1204         50.3720         15.0186
           23316         65.6465         66.8167         50.9786         14.7467
           23317         65.2627         66.5820         52.3330         13.8051
           23318         65.6597         67.2146         51.6338         14.1172
           23319         65.0903         67.1319         53.3831         12.4366
           23320         64.5218         65.7671         54.2765         12.4018
           23321         64.8587         66.3355         53.5885         12.7716
           23322         63.9390         65.3065         55.9538         10.7483
           23323         63.7611         65.0351         56.4797         10.3138
           23324         63.5711         64.1565         56.9368         10.5876
           23325         63.7327         64.4076         56.4105         11.0249
           23326         63.1287         64.0956         58.7427         7.98790
           23327         63.2962         65.3998         57.7699         7.52899
           23328         63.0557         64.2967         58.9155         7.27990
           23329         62.7640         64.0858         60.3756         4.33357
           23330         62.8780         64.1272         59.7601         5.84040
           23331         62.8499         64.7543         59.3796         5.03786
           23332         62.7395         63.3878         61.4214         3.60627
           23333         62.8545         63.4598         62.2311     48.6722E-03
           23334         62.8225         63.8943         61.6743    -606.484E-03
           23335         63.0698         62.8936         63.2108    -844.711E-03
           23336         63.8591         61.7431         65.4518        -2.77096
           23337         63.3959         62.3300         64.2818        -1.68767
           23338         68.5605         60.5258         66.4736        -14.6263
           23339         68.5941         60.9745         64.5232        -15.8986
           23340         70.4668         59.5622         67.9941        -16.7789
           23341         78.7804         56.1400         80.2184        -19.3487
           23342         80.3343         55.5813         80.4521        -21.3183
           23343         83.3085         54.7085         83.6884        -22.5241
           23344         81.7097         55.2536         83.4574        -20.5726
           23345         89.9629         52.3860         88.8536        -26.5125
           23346         67.6283         76.9497         45.2350         5.38343
           23347         66.5973         75.5719         44.0195         6.13750
           23348         66.8464         76.2386         44.8701         4.60520
           23349         69.0239         75.7893         43.7770         11.8558
           23350         67.8177         74.4910         43.1639         11.5835
           23351         68.5781         76.0430         43.8242         10.5260
           23352         69.7877         77.3440         44.4472         10.8073
           23353         69.3380         74.8449         43.9844         13.7038
           23354         70.3236         76.4676         44.3259         13.2014
           23355         70.9328         77.0092         44.6552         13.4884
           23356         69.9588         75.4027         44.3103         13.9806
           23357         69.0152         73.3749         44.4639         14.8853
           23358         68.3888         72.2315         44.4907         15.2080
           23359         68.4471         72.7819         44.0440         14.7596
           23360         70.0281         74.5525         45.1490         14.9822
           23361         69.4964         73.5953         45.2499         15.2327
           23362         68.9592         72.9138         44.9075         15.2386
           23363         69.4895         73.8727         44.8051         14.9888
           23364         70.2489         74.5840         46.0991         15.1136
           23365         69.6418         73.5439         46.3525         15.2935
           23366         68.9792         72.4871         46.0093         15.5131
           23367         69.5769         73.5294         45.7565         15.3315
           23368         68.3391         71.5953         48.3004         14.9388
           23369         68.0334         70.9174         48.0530         15.2531
           23370         66.3954         68.0054         49.4852         15.2763
           23371         66.4314         68.2286         49.9018         14.9725
           23372         65.8254         66.8986         49.9529         15.3193
           23373         67.2561         70.5120         50.2562         13.7769
           23374         67.5464         71.3087         50.1953         13.3837
           23375         67.0470         70.5344         50.7550         13.2176
           23376         64.8524         68.3898         54.1691         9.98311
           23377         65.3543         69.2924         53.3693         10.3208
           23378         65.3941         69.8229         53.2690         9.71199
           23379         64.8886         68.9184         54.0694         9.37480
           23380         63.9281         67.4236         55.8333         7.91581
           23381         64.3956         68.4218         54.8544         8.35644
           23382         64.3962         68.9324         54.6777         7.62929
           23383         62.7017         65.8231         58.9880     818.695E-03
           23384         62.6630         64.9471         59.9907         1.39712
           23385         62.7379         65.4195         59.2776         2.60842
           23386         62.7753         66.2964         58.2868         2.03178
           23387         62.7453         66.4445         58.2160    -613.620E-03
           23388         62.8423         67.2590         57.1777    -776.245E-03
           23389         62.8613         67.0614         57.3375        -1.98732
           23390         62.7623         66.2515         58.3682        -1.82434
           23391         63.1107         64.7437         60.3369        -4.36271
           23392         63.1732         63.9785         61.5596        -3.93709
           23393         62.8669         65.1961         59.7367        -3.04611
           23394         70.4395         59.3304         69.7106        -15.4705
           23395         72.6928         58.6123         69.8241        -18.8501
           23396         72.6176         58.3805         71.5413        -17.5451
           23397         85.4957         58.8523         59.0002        -35.7640
           23398         92.0043         56.3554         61.7956        -40.6312
           23399         90.1145         54.7490         66.6399        -37.9946
           23400         72.9151         82.9745         49.3707         5.50415
           23401         72.0591         82.1289         49.2431         4.71703
           23402         72.9968         83.2962         50.6262         3.84004
           23403         73.8227         84.1442         50.7541         4.62707
           23404         72.4052         81.1009         46.4572         9.56734
           23405         73.5054         82.5385         47.2197         9.27681
           23406         71.4241         78.8920         45.0860         11.5705
           23407         72.5258         80.1637         45.5876         11.6906
           23408         71.8379         79.1171         45.1223         12.0427
           23409         72.8830         80.3211         45.5511         12.1691
           23410         72.0938         78.7553         45.0708         13.0805
           23411         71.7392         78.6236         44.9971         12.6218
           23412         73.0719         79.5422         45.5093         13.6792
           23413         72.3979         78.8609         45.2331         13.4599
           23414         73.2791         80.0885         45.5248         13.2811
           23415         73.2216         79.4363         45.8174         14.0430
           23416         72.6492         78.5961         45.6596         14.1941
           23417         73.2763         79.6512         45.6637         13.8696
           23418         73.8522         80.4852         45.8179         13.7193
           23419         72.6829         78.5891         46.3239         14.1564
           23420         72.2426         77.8287         46.0790         14.4301
           23421         70.2109         74.9602         47.6491         14.2816
           23422         70.4845         75.5880         47.7139         13.9583
           23423         69.4573         73.8026         48.1253         14.2971
           23424         69.5534         75.0393         48.7999         12.7445
           23425         69.7612         75.1219         48.5852         13.0718
           23426         70.2468         76.2394         48.4038         12.5102
           23427         68.6249         73.6912         49.5442         12.5874
           23428         69.3162         74.9217         49.0594         12.3863
           23429         67.2402         72.4576         51.0205         11.0282
           23430         67.6157         73.3958         50.6184         10.6129
           23431         66.9812         72.6601         51.2710         10.0602
           23432         65.4058         70.3376         53.1720         9.00492
           23433         64.8693         69.8540         53.8570         7.95821
           23434         64.8769         69.3755         53.9870         8.69556
           23435         64.4092         69.4464         54.4529         6.88424
           23436         64.4715         69.9620         54.1500         6.27471
           23437         64.0869         69.2117         54.8715         5.88076
           23438         63.4758         68.1413         56.0597         4.59122
           23439         63.6058         68.8906         55.3862         3.98927
           23440         63.3045         68.2350         56.1191         3.23390
           23441         63.2750         68.8459         54.9898        -2.93898
           23442         63.0685         67.8658         56.1298        -3.19400
           23443         63.0775         65.7420         58.6599        -4.90546
           23444         62.8726         65.9811         58.6229        -3.20505
           23445         62.9292         66.9621         57.2711        -3.22363
           23446         66.5752         65.4690         55.9560        -15.0375
           23447         67.2991         66.6866         53.4442        -16.2254
           23448         67.9386         64.5149         56.5375        -17.3638
           23449         69.7010         63.4731         57.4460        -19.7958
           23450         69.1173         62.4471         59.9574        -18.5008
           23451         76.2364         62.2904         56.0518        -27.5777
           23452         80.1767         60.6747         57.5521        -31.2335
           23453         74.9836         60.9092         59.7648        -25.6970
           23454         75.6066         86.1763         52.2056         4.59959
           23455         76.6629         87.4361         53.8231         3.70967
           23456         74.7421         84.5807         49.1153         7.62404
           23457         75.6837         85.0346         48.1618         9.53941
           23458         75.8798         85.0730         47.9321         10.0095
           23459         74.9999         83.8365         47.2585         10.4090
           23460         75.3024         83.4939         46.5736         11.8142
           23461         75.8400         84.1014         46.6779         11.9095
           23462         75.1890         83.0319         46.2895         12.3811
           23463         75.9740         83.8603         46.3521         12.6238
           23464         76.6606         84.8906         46.5570         12.3171
           23465         76.7554         84.9272         46.4805         12.4605
           23466         76.0749         83.9020         46.2841         12.7665
           23467         74.3093         81.1550         46.1719         13.5521
           23468         74.1905         81.0282         46.2630         13.5032
           23469         73.4722         79.8824         46.2787         13.8094
           23470         69.6225         75.7213         48.9040         11.9029
           23471         69.3813         75.6904         49.1116         11.4026
           23472         69.0773         75.0223         49.3146         11.7060
           23473         68.0325         74.7816         50.1274         9.52158
           23474         67.5629         73.8296         50.6009         9.82061
           23475         67.9716         74.2330         50.2624         10.2376
           23476         67.0974         74.2415         50.7509         7.79797
           23477         66.9229         73.7140         51.0274         8.21708
           23478         67.3738         74.2388         50.6253         8.62687
           23479         63.5528         69.7721         53.9710        -2.80564
           23480         63.9726         70.8834         52.7706        -2.82013
           23481         64.0486         70.8850         52.5060        -3.76627
           23482         65.8601         71.3707         49.6289        -10.3731
           23483         65.2069         71.4353         50.3774        -8.36200
           23484         65.9057         72.1689         49.0909        -9.45388
           23485         66.8460         72.5670         47.7626        -11.3599
           23486         69.8283         71.9961         45.5149        -17.2997
           23487         69.5825         69.6097         48.1271        -18.5303
           23488         68.4150         70.3077         48.2641        -16.3437
           23489         79.6238         71.7161         40.1575        -28.6593
           23490         77.7299         69.3557         43.9977        -27.9727
           23491         74.8747         69.9692         44.6486        -24.7727
           23492         79.6376         90.1777         50.8885         8.35675
           23493         78.7485         88.9849         50.0862         8.78067
           23494         78.5698         88.9796         50.7979         8.07049
           23495         79.4774         90.1775         51.5996         7.64357
           23496         79.9711         90.4473         50.4107         8.81168
           23497         80.2512         90.6482         49.9824         9.23278
           23498         79.3296         89.3648         49.2390         9.71049
           23499         79.0377         89.1596         49.6696         9.29128
           23500         76.8881         85.4586         46.9429         11.7849
           23501         76.7607         85.4070         47.0863         11.5792
           23502         77.3447         86.2757         47.4047         11.2750
           23503         78.3379         87.2988         47.0134         11.6862
           23504         79.0293         88.3205         47.2539         11.3384
           23505         79.0729         88.3405         47.0989         11.4151
           23506         77.3841         85.8361         46.3067         12.2603
           23507         76.4872         84.6476         46.1811         12.4030
           23508         77.3021         85.9019         46.1297         11.9883
           23509         77.0977         85.6972         46.0909         11.9097
           23510         74.7138         82.4377         46.3758         12.3636
           23511         74.7077         82.6640         46.3926         11.9810
           23512         73.6987         81.1745         46.6863         12.2790
           23513         73.7971         81.6278         46.6699         11.7529
           23514         72.7675         79.8372         47.0488         12.4337
           23515         69.9130         77.5948         48.5589         9.60600
           23516         70.0352         78.0078         48.3905         9.18149
           23517         69.5178         77.3161         48.7592         9.08035
           23518         69.3955         76.8992         48.9262         9.50179
           23519         69.7872         78.9054         47.8874         6.57181
           23520         69.4135         77.9837         48.4678         7.46883
           23521         70.0331         79.0190         47.8605         7.11575
           23522         67.1179         75.5873         49.8868         4.94921
           23523         66.9400         74.9681         50.3414         5.78767
           23524         67.5351         75.7530         49.8219         6.17545
           23525         67.4661         76.7737         48.7736         2.77710
           23526         67.7946         77.5370         47.8660         1.20473
           23527         67.1491         76.5142         48.7284         1.68657
           23528         66.6335         75.9211         48.7751    -131.059E-03
           23529         67.0832         76.6267         48.0855    -553.408E-03
           23530         66.8500         76.2790         48.1731        -1.20795
           23531         66.4024         75.5857         48.8635    -779.780E-03
           23532         66.1533         74.9252         48.4709        -3.86160
           23533         66.3277         75.3534         48.4409        -2.88068
           23534         66.9608         76.2708         47.4384        -3.38020
           23535         66.7743         75.1492         47.2111        -6.59286
           23536         65.9674         74.0165         48.5040        -6.07514
           23537         65.9783         74.3873         48.6139        -4.91993
           23538         67.8535         73.8281         46.0483        -12.0101
           23539         69.6494         74.8419         43.6918        -14.2681
           23540         76.7101         80.0339         34.5740        -18.7149
           23541         78.2352         79.8629         33.3905        -20.7718
           23542         83.9410         95.7077         59.7265         3.42342
           23543         82.1261         93.5810         54.5348         6.23623
           23544         81.5176         92.8750         54.4789         6.08619
           23545         81.9510         93.4377         55.4664         5.52273
           23546         82.5568         94.1441         55.5322         5.67780
           23547         82.5467         93.7870         51.9715         7.98277
           23548         83.1407         94.5537         52.2767         7.79035
           23549         83.0161         94.3266         51.7083         8.12163
           23550         81.2263         91.8202         49.9579         9.27572
           23551         82.2465         93.1194         50.0150         9.11283
           23552         81.4629         92.0247         49.4554         9.53848
           23553         79.9696         89.7606         46.3873         10.8035
           23554         79.1513         88.5848         46.2443         11.1903
           23555         79.9714         89.6886         46.5904         10.9443
           23556         78.2325         87.4056         46.0066         11.3315
           23557         78.1828         87.1983         46.1744         11.5938
           23558         77.4334         86.8919         45.6101         10.4657
           23559         77.5383         86.8283         45.7625         10.8367
           23560         78.5855         88.2819         45.6294         10.4594
           23561         76.2873         85.7195         45.6381         10.0193
           23562         75.8019         84.8330         45.9034         10.5877
           23563         76.4648         85.7635         45.6966         10.3667
           23564         72.6956         81.4713         46.7958         9.48248
           23565         73.1243         81.8185         46.6976         9.88196
           23566         73.8024         82.8460         46.3028         9.58109
           23567         73.3795         82.5046         46.4028         9.17916
           23568         71.4931         80.3764         47.2434         8.48943
           23569         71.9889         80.9773         46.9714         8.60982
           23570         72.1653         81.5119         46.6809         7.94946
           23571         70.9670         81.0232         46.4638         5.07662
           23572         70.0485         79.8283         47.1340         5.00838
           23573         70.5714         80.3466         46.9449         5.56128
           23574         70.8142         81.6454         44.6760     333.179E-03
           23575         70.0747         80.7091         45.3161     354.437E-03
           23576         70.1535         80.7411         45.6140         1.24827
           23577         70.8881         81.6782         44.9745         1.22915
           23578         69.5825         80.0530         44.9240        -1.94762
           23579         69.1573         79.4272         45.0892        -2.72721
           23580         68.6237         78.7600         45.7729        -2.30847
           23581         69.0684         79.2209         44.9568        -3.41098
           23582         68.3262         78.1115         45.5815        -4.07523
           23583         68.3970         78.3528         45.7711        -3.17778
           23584         71.8974         81.4988         40.6778        -7.90964
           23585         71.0802         80.6387         41.6097        -7.61087
           23586         71.0792         80.8734         41.8103        -6.95197
           23587         71.8910         81.7356         40.8724        -7.25212
           23588         71.7774         80.4398         40.3567        -9.98414
           23589         72.3148         81.5382         39.9681        -8.98934
           23590         73.5137         82.6154         38.5037        -9.61643
           23591         75.4624         80.1430         35.8027        -16.9232
           23592         77.3052         82.2618         33.3209        -16.7317
           23593         78.5595         82.1536         32.0928        -18.5200
           23594         86.1978         98.3657         60.7850         3.58634
           23595         85.2221         97.2791         59.4346         4.03575
           23596         85.1645         97.1186         60.5814         3.38890
           23597         83.0257         94.0104         48.3881         9.36107
           23598         82.6423         93.4677         47.9265         9.59467
           23599         82.4344         93.1776         48.2936         9.67768
           23600         80.8057         90.8596         47.0198         10.5740
           23601         80.0693         89.7912         46.8378         10.9617
           23602         80.4551         90.7523         45.7734         9.93104
           23603         81.0518         91.4356         46.1607         9.98070
           23604         81.2830         91.8561         45.9527         9.63962
           23605         79.3305         89.7961         44.9547         9.05193
           23606         78.9502         89.4204         44.8486         8.87167
           23607         77.2682         87.5417         44.8991         8.59137
           23608         76.3931         86.3469         45.2145         8.94230
           23609         76.7448         86.5900         45.3133         9.35116
           23610         76.3029         87.0385         44.3308         6.82405
           23611         77.1748         88.0551         44.0674         6.84755
           23612         76.7511         87.6553         44.0443         6.53438
           23613         74.6444         85.1112         44.9287         6.66365
           23614         74.9309         85.5723         44.6340         6.30494
           23615         74.2929         84.8998         44.8097         5.99671
           23616         74.0014         84.4324         45.1007         6.35764
           23617         74.4577         85.3827         44.2453         4.96242
           23618         74.4808         85.5621         43.9140         4.29917
           23619         73.6345         84.5747         44.3515         4.20775
           23620         72.5533         83.6051         44.1813         2.30670
           23621         72.3864         83.3098         44.5767         2.93644
           23622         72.9086         83.8983         44.3461         3.20018
           23623         73.0687         84.1893         43.9503         2.56308
           23624         72.0754         83.1749         43.8066     682.764E-03
           23625         72.8302         84.0771         43.2065     621.803E-03
           23626         72.3276         83.4932         43.4152     231.110E-03
           23627         72.3139         83.1050         41.6054        -4.06055
           23628         72.8950         83.6432         40.8345        -4.67502
           23629         72.3661         82.8774         41.0635        -5.32928
           23630         71.7819         82.3464         41.8309        -4.70855
           23631         73.8336         84.3007         39.3991        -6.16125
           23632         73.3396         83.6777         39.7621        -6.40105
           23633         72.8748         83.3476         40.4393        -5.74745
           23634         73.3660         83.9696         40.0859        -5.50160
           23635         76.3732         84.9290         35.1195        -11.0938
           23636         74.7563         83.8575         37.1833        -9.86467
           23637         76.2782         85.4003         35.5806        -9.96261
           23638         76.7461         84.6618         34.3487        -12.2547
           23639         77.2738         84.3946         33.5198        -13.5906
           23640         75.5039         82.5451         35.5035        -13.6296
           23641         85.6956         97.8865         54.7047         6.43437
           23642         86.0824         98.3572         54.2100         6.56406
           23643         83.7316         95.0010         48.4787         8.96539
           23644         84.0788         95.4989         48.2995         8.73520
           23645         83.5513         94.7749         47.7375         9.01843
           23646         83.2058         94.2746         47.9177         9.25238
           23647         84.7118         96.4577         47.4639         8.11263
           23648         84.4276         96.0262         47.7465         8.40975
           23649         84.9601         96.7675         47.9012         8.06265
           23650         83.2040         94.5712         45.9837         8.43460
           23651         83.7401         95.2751         46.1823         8.21131
           23652         83.3389         94.8405         45.6488         8.08699
           23653         82.3426         93.6541         45.0696         8.14246
           23654         81.4842         92.4780         45.1360         8.64716
           23655         82.0494         93.1771         45.2953         8.54300
           23656         79.6204         90.4855         44.4345         8.12483
           23657         80.1020         91.1786         44.1975         7.72982
           23658         79.6540         90.7257         44.0675         7.52155
           23659         77.6424         88.6991         43.7750         6.51601
           23660         78.1126         89.1609         43.8145         6.80029
           23661         76.0245         87.0005         43.9614         5.85084
           23662         76.1277         87.2866         43.5863         5.20298
           23663         75.6900         86.6989         43.9243         5.51102
           23664         75.1903         86.3204         43.7275         4.64954
           23665         74.8227         86.0522         43.5149         3.84942
           23666         74.7282         86.1491         40.5629        -1.97950
           23667         73.9216         85.2803         41.3180        -1.64397
           23668         74.3185         85.7817         41.4203    -855.332E-03
           23669         75.1125         86.6456         40.6687        -1.19049
           23670         74.8709         86.0612         39.6462        -3.61923
           23671         75.7349         86.8998         38.7325        -4.07560
           23672         75.4113         86.4241         38.7215        -4.64938
           23673         77.1607         87.4443         35.9613        -7.27228
           23674         76.6485         87.2245         36.8392        -6.40391
           23675         78.1518         88.4950         35.1927        -7.12259
           23676         77.6804         86.8256         34.2388        -9.93436
           23677         79.1729         88.3669         32.8428        -9.71621
           23678         79.5075         88.1739         32.0476        -10.7317
           23679         78.0130         86.6321         33.4411        -10.9495
           23680         91.3581         104.221         65.6634         2.31290
           23681         90.6154         103.551         63.7946         2.86458
           23682         90.3770         103.113         64.7462         2.56769
           23683         91.1445         103.784         66.6150         2.01586
           23684         87.9529         100.707         57.6510         5.03361
           23685         88.2466         101.095         57.0899         5.15001
           23686         87.6256         100.330         55.8604         5.66526
           23687         87.3224         99.9415         56.4221         5.54822
           23688         88.5183         101.456         56.4605         5.24617
           23689         88.7585         101.780         55.8662         5.29001
           23690         88.1492         101.011         54.7202         5.77589
           23691         87.9021         100.688         55.3141         5.73179
           23692         88.0820         100.950         51.9890         6.13737
           23693         87.8408         100.637         51.2104         6.30681
           23694         87.1581         99.7173         50.8997         6.77756
           23695         87.3990         100.033         51.6734         6.60364
           23696         87.3108         99.9601         49.5432         6.55668
           23697         86.9780         99.4847         50.0120         6.88494
           23698         87.4553         100.133         50.3337         6.54261
           23699         85.6126         97.8963         46.0469         6.66674
           23700         85.9540         98.2941         46.6203         6.71843
           23701         86.0445         98.4854         46.0560         6.29743
           23702         84.7470         96.8643         45.1401         6.68833
           23703         85.2244         97.4366         45.5735         6.65586
           23704         85.5088         97.8492         45.3796         6.28073
           23705         85.0323         97.2787         44.9419         6.31034
           23706         83.5995         95.5649         44.1057         6.47727
           23707         83.3272         95.1605         44.3453         6.86341
           23708         83.7506         95.6507         44.6044         6.87973
           23709         84.0112         96.0442         44.3657         6.48453
           23710         81.1063         92.6481         43.5270         6.64954
           23711         81.6633         93.3864         43.2617         6.22771
           23712         81.2310         92.9432         43.0505         5.99840
           23713         80.8520         92.5734         42.7932         5.69987
           23714         80.5075         92.2519         42.5554         5.35086
           23715         79.9628         91.5658         42.8258         5.68854
           23716         79.8525         91.7170         41.6891         4.08409
           23717         79.3484         91.1106         42.0106         4.38757
           23718         79.7640         91.5290         42.1597         4.69537
           23719         80.2642         92.1346         41.8383         4.39187
           23720         78.0547         89.8042         41.7196         3.35720
           23721         77.5180         89.1708         42.0893         3.61690
           23722         77.9637         89.6187         42.1665         3.98859
           23723         77.0367         88.7862         41.3602         2.09932
           23724         77.2346         88.9793         41.5057         2.46943
           23725         77.9327         89.7559         41.1186         2.40042
           23726         77.5130         89.3455         40.4501         1.07542
           23727         77.1230         88.9217         40.4259     676.992E-03
           23728         76.5965         88.3443         40.9149     979.682E-03
           23729         76.9883         88.7667         40.9396         1.37807
           23730         75.8648         87.4482         40.0062        -1.44463
           23731         76.5198         88.0648         39.1242        -2.20909
           23732         75.6791         87.1834         39.8184        -2.03164
           23733         76.0608         87.3804         38.8203        -3.41740
           23734         76.5868         87.7270         37.9045        -4.39763
           23735         79.3497         90.2336         35.1176        -5.47116
           23736         80.0209         90.9437         34.6798        -5.28532
           23737         80.4165         91.1909         34.0993        -5.70990
           23738         79.7446         90.4798         34.5329        -5.90507
           23739         80.2895         89.9598         32.4244        -8.54752
           23740         80.0068         90.0853         33.2602        -7.65379
           23741         92.3783         105.567         65.4247         2.28534
           23742         92.2608         105.236         66.5229         2.06027
           23743         91.9583         105.499         61.7825         3.01021
           23744         91.3480         104.862         60.2533         3.47255
           23745         91.2185         104.613         61.1831         3.37472
           23746         91.8438         105.249         62.7121         2.91233
           23747         90.9745         104.592         57.2509         3.96381
           23748         90.2945         103.732         56.8228         4.40978
           23749         90.8721         104.413         58.0322         3.96922
           23750         90.0640         103.557         53.6332         4.65575
           23751         89.3896         102.672         53.2217         5.18731
           23752         88.5137         101.636         49.0117         5.29343
           23753         88.4012         101.463         49.4114         5.53588
           23754         88.8228         102.011         50.0251         5.28851
           23755         86.4005         98.9906         45.8650         5.84568
           23756         86.8231         99.5266         46.2045         5.66927
           23757         86.9163         99.6756         45.9544         5.41421
           23758         84.5228         96.9072         43.0047         4.87011
           23759         84.8506         97.3153         42.9735         4.64123
           23760         84.6923         97.1570         42.5912         4.37107
           23761         84.3580         96.7464         42.6245         4.59429
           23762         81.4613         93.4395         41.9915         4.66837
           23763         81.9141         93.9903         41.7017         4.33072
           23764         81.5803         93.6497         41.4414         4.02787
           23765         81.1224         93.0983         41.7314         4.36545
           23766         79.5225         91.4412         41.1200         3.24265
           23767         78.6260         90.4603         41.3444         3.14364
           23768         79.7266         91.6066         37.9717    -626.125E-03
           23769         79.6574         91.5712         38.2932    -267.278E-03
           23770         80.2261         92.1692         38.0362    -168.732E-03
           23771         79.9541         91.6351         36.7734        -2.09019
           23772         79.1888         90.8390         37.2150        -2.21800
           23773         79.0711         90.8012         37.6531        -1.68974
           23774         78.4980         90.0153         37.2858        -2.90088
           23775         79.4204         90.8689         36.3699        -3.29512
           23776         82.9420         94.1599         33.3892        -3.75783
           23777         82.1128         93.3453         33.9383        -3.88760
           23778         81.9453         93.2839         34.3344        -3.51881
           23779         82.9399         93.4877         31.8956        -5.87618
           23780         84.0053         94.5237         31.1285        -5.64376
           23781         93.7861         107.171         66.7186         1.74348
           23782         93.1821         106.966         62.7374         2.31107
           23783         92.6274         106.420         61.2027         2.71435
           23784         92.6148         106.285         62.3054         2.65472
           23785         93.1856         106.831         63.8403         2.25123
           23786         91.5841         105.362         57.6472         3.52081
           23787         90.6511         104.324         53.9853         4.14949
           23788         88.1617         101.200         48.1832         5.34192
           23789         87.9894         100.994         47.7212         5.31014
           23790         87.6429         100.528         47.6034         5.62165
           23791         87.8206         100.740         48.0646         5.64913
           23792         87.6588         100.678         45.8267         4.53592
           23793         87.7793         100.856         45.5449         4.18083
           23794         87.2717         100.221         45.0715         4.38979
           23795         84.8248         97.3340         42.3905         4.09913
           23796         85.0968         97.6334         42.8000         4.32287
           23797         83.0108         95.2646         41.4918         3.94028
           23798         83.4161         95.7424         41.2812         3.64481
           23799         83.1754         95.4832         40.9831         3.40066
           23800         82.7669         95.0057         41.1938         3.69625
           23801         82.5052         94.7295         40.9045         3.42129
           23802         82.0638         94.2159         41.1504         3.71914
           23803         82.3287         94.4913         41.4398         3.99400
           23804         82.5732         94.8094         39.3113         1.93418
           23805         82.1727         94.3771         39.5239         2.10803
           23806         82.7534         95.0161         39.5846         2.18404
           23807         82.0538         94.1659         38.1167     821.306E-03
           23808         81.5435         93.6364         38.3945     922.111E-03
           23809         81.6748         93.8010         38.7046         1.24157
           23810         82.1830         94.3312         38.4277         1.14182
           23811         82.5407         94.5831         37.1225     166.600E-03
           23812         82.5969         94.5873         36.7069    -177.339E-03
           23813         82.0335         94.0110         36.9653    -212.119E-03
           23814         81.9792         94.0066         37.3802     131.913E-03
           23815         82.2049         93.8924         35.3226        -1.88811
           23816         81.9321         93.7014         35.8373        -1.48393
           23817         83.0518         94.6803         34.5948        -1.99065
           23818         82.5178         94.1231         34.8131        -2.22096
           23819         82.7355         94.4462         35.1048        -1.65715
           23820         83.7193         95.1938         33.6729        -2.49311
           23821         83.3003         94.7453         33.8163        -2.74794
           23822         82.9578         94.4746         34.2483        -2.53006
           23823         83.3850         94.9309         34.0997        -2.27397
           23824         84.9121         95.6097         30.9699        -4.85586
           23825         84.8399         95.7033         31.4019        -4.39241
           23826         85.6891         96.5396         30.8961        -4.11727
           23827         94.7738         108.335         67.3953         1.26714
           23828         94.1314         107.973         64.4184         1.65392
           23829         94.2572         107.923         65.8497         1.58619
           23830         93.0025         107.086         59.2684         2.31523
           23831         93.5470         107.555         61.7085         2.00461
           23832         91.9707         106.012         55.2443         2.86838
           23833         92.4801         106.569         57.1122         2.59849
           23834         91.6925         105.736         53.4202         2.71779
           23835         91.3528         105.307         52.9150         3.06280
           23836         90.3455         104.072         50.1094         3.43377
           23837         90.6455         104.468         50.3099         3.04346
           23838         89.3441         102.868         46.7462         2.83469
           23839         89.5942         103.171         47.4990         3.00869
           23840         89.9636         103.649         47.8718         2.61201
           23841         88.4364         101.724         45.4759         3.22098
           23842         87.9833         101.168         44.6849         3.16564
           23843         87.9808         101.149         45.0184         3.48506
           23844         86.8120         99.7130         43.7226         3.72792
           23845         86.9464         99.8663         44.0444         3.87519
           23846         87.2694         100.275         44.1297         3.58712
           23847         87.1434         100.129         43.8065         3.43870
           23848         86.6476         99.5493         42.5234         2.74966
           23849         86.6599         99.5652         42.1578         2.37273
           23850         86.2422         99.0604         41.8860         2.55349
           23851         85.0446         97.6293         40.5756         2.31697
           23852         85.3333         97.9631         40.5802         2.13008
           23853         85.2505         97.8548         40.2825         1.93533
           23854         84.9626         97.5238         40.2780         2.12234
           23855         83.9555         96.3547         39.6681         2.07818
           23856         83.7472         96.1077         39.3743         1.89257
           23857         83.3514         95.6796         39.6459         2.18942
           23858         83.5686         95.9327         39.9380         2.37658
           23859         83.5251         95.7796         38.2971         1.17081
           23860         83.9151         96.2392         38.6444         1.35090
           23861         83.6167         95.5703         35.9025    -308.647E-03
           23862         83.7287         95.6178         35.4653    -590.558E-03
           23863         83.1858         95.1290         36.0661    -416.007E-03
           23864         85.4180         96.9523         32.9871        -1.47436
           23865         85.1247         96.6311         33.0285        -1.76471
           23866         85.0325         96.6492         33.5005        -1.28728
           23867         86.4821         97.3187         30.4464        -3.84026
           23868         87.3541         98.0551         29.6618        -3.85578
           23869         94.4712         108.602         62.9986         1.05973
           23870         94.7977         108.869         64.1873     841.330E-03
           23871         94.3014         108.525         61.7949     966.526E-03
           23872         93.3893         107.700         57.9549         1.32429
           23873         93.8156         108.128         59.4740         1.05102
           23874         93.7084         108.061         58.6545     825.137E-03
           23875         93.2869         107.627         57.1429         1.10032
           23876         90.9391         104.874         50.0187         2.25316
           23877         91.2216         105.238         50.3707         1.83489
           23878         90.9135         104.861         49.4388         1.77677
           23879         90.6303         104.495         49.0864         2.19491
           23880         87.5096         100.608         43.0339         2.12861
           23881         87.6535         100.783         43.4604         2.39762
           23882         86.8693         99.8056         41.4948         1.25424
           23883         86.5519         99.4118         41.0954         1.29928
           23884         86.6686         99.5609         41.3589         1.44324
           23885         86.1041         98.8664         40.7040         1.50479
           23886         86.0688         98.8074         40.4007         1.24005
           23887         85.7985         98.4825         40.2039         1.36703
           23888         85.3629         97.8660         38.8251     666.895E-03
           23889         85.1497         97.6240         38.7946     871.493E-03
           23890         85.3256         97.8659         39.2387         1.03019
           23891         85.5383         98.1090         39.2697     822.646E-03
           23892         84.2690         96.6343         38.6891         1.28104
           23893         84.5435         96.8986         38.3071     954.696E-03
           23894         84.4879         96.6296         36.6943     262.747E-03
           23895         84.2068         96.3236         36.6781     275.609E-03
           23896         84.1828         96.3538         37.0814     441.806E-03
           23897         84.6494         96.6339         35.5926    -98.4895E-03
           23898         84.7017         96.7097         35.7138    -39.5271E-03
           23899         84.8147         96.7997         35.5199    -78.3653E-03
           23900         85.1002         96.9032         34.3543    -462.223E-03
           23901         84.9345         96.7252         34.3618    -582.508E-03
           23902         84.7726         96.6154         34.7129    -478.564E-03
           23903         84.9387         96.7936         34.7056    -358.101E-03
           23904         85.7831         97.4233         33.2497    -632.547E-03
           23905         85.5258         97.2212         33.6242    -607.092E-03
           23906         96.1410         109.689         69.6542     56.5062E-03
           23907         95.8694         109.568         68.4575     205.026E-03
           23908         96.4396         109.770         71.1152     105.245E-03
           23909         93.6803         108.073         58.0580     105.200E-03
           23910         93.8940         108.268         59.0537     352.941E-03
           23911         94.2248         108.566         60.4805     113.509E-03
           23912         93.9991         108.368         59.4752    -130.784E-03
           23913         92.1154         106.359         52.1372     134.279E-03
           23914         91.8754         106.071         51.3861    -91.3836E-03
           23915         91.6168         105.757         50.6067     164.882E-03
           23916         91.8537         106.043         51.3542     388.857E-03
           23917         91.1193         105.138         49.3731     829.199E-03
           23918         91.6192         105.755         50.7215     648.707E-03
           23919         91.3554         105.434         49.9140     485.585E-03
           23920         90.5209         104.395         47.7493     399.595E-03
           23921         90.3163         104.138         47.2270     85.8095E-03
           23922         90.0844         103.844         46.7133     352.880E-03
           23923         90.2811         104.091         47.2337     669.416E-03
           23924         89.5286         103.144         45.5503     162.731E-03
           23925         89.2667         102.814         45.0375     5.50093E-03
           23926         89.0326         102.518         44.6159     313.034E-03
           23927         89.2946         102.848         45.1331     468.238E-03
           23928         86.9859         99.9374         41.3209     620.380E-03
           23929         87.0798         100.052         41.3819     321.565E-03
           23930         86.8031         99.7002         40.9346     254.583E-03
           23931         86.7109         99.5878         40.8734     552.851E-03
           23932         85.6647         98.2263         39.0209    -308.520E-03
           23933         85.5863         98.1147         38.8034    -42.9303E-03
           23934         85.7909         98.3866         39.1869     15.1326E-03
           23935         85.8691         98.4981         39.4044    -251.250E-03
           23936         85.2226         97.5957         37.8835     157.373E-03
           23937         85.3162         97.7339         38.1471     21.3254E-03
           23938         85.2106         97.5675         37.7718    -66.5274E-03
           23939         85.0363         97.0820         35.7937    -6.09237E-03
           23940         85.0085         97.0648         35.8729     23.4824E-03
           23941         84.9900         97.1243         36.3784     30.6470E-03
           23942         85.0134         97.1372         36.2993    -3.44070E-03
           23943         85.1901         97.1119         34.9796    -46.7280E-03
           23944         85.0742         97.0644         35.4366    -28.1790E-03
           23945         85.1031         97.0920         35.4161     4.94368E-03
           23946         85.4991         97.2892         34.1136    -147.252E-03
           23947         85.6820         97.4270         33.8024    -119.364E-03
           23948         86.4214         97.9470         32.4715    -615.453E-03
           23949         86.1116         97.6921         32.8428    -656.685E-03
           23950         86.3688         97.9343         32.6630    -360.448E-03
           23951         87.2306         98.6451         31.6861    -5.41685E-03
           23952         86.9628         98.4258         31.9871    -157.880E-03
           23953         86.7360         98.2377         32.2333     86.4590E-03
           23954         87.0039         98.4572         31.9324     238.801E-03
           23955         88.8475         100.055         30.3931    -228.894E-03
           23956         89.3803         100.557         30.1562    -261.048E-03
           23957         95.6789         109.321         68.4492    -596.477E-03
           23958         96.1009         109.535         70.1443    -412.308E-03
           23959         96.3172         109.509         71.5556    -427.622E-03
           23960         95.8735         109.296         69.8603    -611.941E-03
           23961         94.1557         108.447         60.7716    -799.475E-03
           23962         94.0696         108.330         60.8065        -1.07812
           23963         93.3294         107.710         56.7623    -540.902E-03
           23964         93.1571         107.511         56.3450    -924.488E-03
           23965         93.0367         107.396         55.6764    -697.533E-03
           23966         92.7740         107.095         54.8993        -1.03618
           23967         92.5803         106.885         54.0348    -896.742E-03
           23968         92.8391         107.186         54.8070    -561.239E-03
           23969         91.1807         105.203         49.8401        -1.35284
           23970         91.6957         105.839         51.1845        -1.11490
           23971         91.5422         105.644         50.9580        -1.42127
           23972         90.4048         104.236         47.8660        -1.41619
           23973         90.0906         103.844         47.0725        -1.30937
           23974         90.5574         104.436         48.0075    -967.964E-03
           23975         88.1881         101.454         43.3345    -978.916E-03
           23976         87.8824         101.069         42.8201    -931.524E-03
           23977         88.0131         101.232         42.9085    -576.298E-03
           23978         88.3170         101.615         43.4210    -622.673E-03
           23979         86.7987         99.7106         41.2455        -1.03891
           23980         86.8787         99.8038         41.1920    -693.728E-03
           23981         87.1342         100.125         41.5627    -678.221E-03
           23982         85.9041         98.5547         39.5872    -534.151E-03
           23983         84.9222         97.0555         36.4068    -106.624E-03
           23984         84.7994         96.9608         36.6579    -186.043E-03
           23985         84.7141         96.8068         36.2475    -120.439E-03
           23986         84.8454         96.9093         35.9974    -44.9015E-03
           23987         85.1476         97.0472         34.8694     137.180E-03
           23988         85.2781         97.1196         34.4861     202.755E-03
           23989         85.4045         97.2275         34.3318     140.561E-03
           23990         85.0595         96.9193         34.6812     295.373E-03
           23991         85.2174         97.0164         34.2810     390.305E-03
           23992         85.4394         97.2193         34.0858     293.264E-03
           23993         86.4929         98.0478         32.5621    -37.1569E-03
           23994         86.5172         98.0579         32.4922     289.758E-03
           23995         86.9138         98.3553         31.9319     649.758E-03
           23996         86.5438         98.0208         32.2289     847.284E-03
           23997         86.6991         98.1255         31.9789         1.06887
           23998         88.6012         99.8374         30.5659     64.2205E-03
           23999         88.2948         99.5532         30.7378     349.266E-03
           24000         88.5436         99.7696         30.5601     590.218E-03
           24001         95.5211         108.941         69.3370    -842.335E-03
           24002         95.6358         108.799         70.7216    -801.505E-03
           24003         94.4902         108.546         63.6271        -1.18473
           24004         93.3875         107.607         59.0451        -1.75636
           24005         93.0736         107.296         57.8202        -1.90812
           24006         93.1439         107.414         57.4757        -1.66501
           24007         92.1264         106.302         53.6749        -1.99753
           24008         91.7939         105.897         52.8927        -2.27520
           24009         91.6831         105.782         52.1372        -2.07103
           24010         90.8881         104.789         50.4194        -2.65411
           24011         90.6695         104.527         49.6175        -2.54636
           24012         91.1804         105.166         50.7929        -2.28749
           24013         89.5912         103.195         46.7365        -2.31154
           24014         89.2820         102.809         46.0845        -2.28245
           24015         89.3167         102.843         46.4506        -2.60038
           24016         89.0253         102.473         46.0471        -2.76725
           24017         88.9900         102.441         45.6831        -2.45024
           24018         87.4854         100.576         43.2537        -2.41910
           24019         87.1259         100.133         42.8256        -2.48344
           24020         86.4318         99.2776         41.3474        -1.79557
           24021         86.6017         99.4761         41.2193        -1.37306
           24022         85.6823         98.3630         40.4871        -1.77102
           24023         86.1575         98.9256         40.6571        -1.39944
           24024         86.0531         98.8151         40.8803        -1.74243
           24025         85.2248         97.7095         38.8098    -816.722E-03
           24026         84.9275         97.3253         38.3274    -753.127E-03
           24027         84.4005         96.5728         36.9596    -375.953E-03
           24028         84.5111         96.6515         36.6731    -261.448E-03
           24029         84.6533         96.8198         36.7736    -275.445E-03
           24030         84.5464         96.7445         37.0576    -388.650E-03
           24031         84.7877         96.7446         35.3622     141.512E-03
           24032         84.8299         96.8407         35.6724     25.7816E-03
           24033         84.6590         96.6971         35.9226    -15.6424E-03
           24034         84.2460         96.0951         34.9891     623.749E-03
           24035         84.0972         95.9004         34.8195     868.514E-03
           24036         84.4995         96.2489         34.3551     947.155E-03
           24037         84.6469         96.4434         34.5241     701.878E-03
           24038         85.8356         97.3349         32.6526         1.37884
           24039         86.2670         97.7281         32.3027         1.24123
           24040         86.1899         97.7036         32.5373         1.00611
           24041         86.3812         97.7876         32.0630         1.48450
           24042         85.9189         97.3581         32.3957         1.62895
           24043         86.0107         97.3888         32.1508         1.88959
           24044         88.7416         99.9286         30.3771     839.892E-03
           24045         88.9362         100.092         30.2383         1.08098
           24046         89.2818         100.438         30.1286     787.415E-03
           24047         92.3950         106.327         58.8969        -2.87949
           24048         92.5880         106.601         58.5878        -2.69085
           24049         93.0494         107.043         60.4218        -2.37439
           24050         92.8616         106.769         60.7343        -2.55413
           24051         91.9184         105.814         57.3890        -3.23555
           24052         91.4447         105.281         55.9421        -3.57078
           24053         91.6611         105.583         55.6069        -3.31905
           24054         92.1332         106.119         57.0460        -2.98689
           24055         91.1419         105.062         52.0402        -3.06240
           24056         91.2775         105.248         51.9277        -2.78016
           24057         91.5591         105.588         52.7944        -2.67202
           24058         91.4243         105.402         52.9154        -2.95200
           24059         90.5342         104.301         50.7323        -3.43805
           24060         90.1865         103.843         50.4664        -3.82776
           24061         90.2547         103.963         49.7901        -3.40927
           24062         89.3672         102.856         47.7683        -3.58514
           24063         88.8252         102.185         46.5620        -3.56103
           24064         87.8476         100.972         45.0956        -3.72566
           24065         87.8481         100.944         45.5882        -4.12906
           24066         87.3355         100.303         45.0756        -4.32584
           24067         86.6593         99.5577         42.7596        -2.98698
           24068         86.5144         99.3714         43.0350        -3.39150
           24069         86.0337         98.7914         42.6556        -3.49157
           24070         86.1754         98.9753         42.3797        -3.08740
           24071         85.5843         98.2649         42.1147        -3.33854
           24072         85.5261         98.1842         42.3834        -3.63308
           24073         85.1039         97.6930         41.9369        -3.51182
           24074         83.9411         96.3354         39.6091        -2.03937
           24075         84.2768         96.7011         39.4141        -1.76875
           24076         84.5377         97.0123         39.7239        -1.91086
           24077         83.7365         96.0226         38.4212        -1.23704
           24078         83.2264         95.4477         38.2318        -1.13238
           24079         83.6236         95.8649         38.0673        -1.00495
           24080         83.5571         95.7559         37.7329    -812.401E-03
           24081         83.1527         95.3283         37.8320    -835.123E-03
           24082         83.1546         95.2867         37.4462    -586.204E-03
           24083         83.1341         95.1346         36.4640     128.297E-03
           24084         82.7249         94.7772         37.0803    -199.948E-03
           24085         82.3278         94.3377         37.0125     29.8709E-03
           24086         83.4327         95.2405         35.1790         1.02615
           24087         82.6667         94.4721         35.5831         1.19013
           24088         83.1851         94.9390         35.0485         1.34234
           24089         83.8788         95.4208         33.8131         2.13458
           24090         83.7027         95.1982         33.7501         2.40372
           24091         84.1348         95.5795         33.3419         2.47167
           24092         85.5040         96.8040         32.1669         2.52330
           24093         85.6625         97.0071         32.2213         2.24823
           24094         85.2598         96.6606         32.6034         2.19381
           24095         85.1012         96.4591         32.5549         2.46705
           24096         87.3532         98.0550         29.6638         3.85310
           24097         87.2951         98.1287         30.0371         3.48640
           24098         92.6728         105.629         67.3029        -1.85163
           24099         92.1873         105.782         61.8900        -2.89665
           24100         92.6265         106.243         62.7988        -2.60658
           24101         92.6885         106.197         63.8006        -2.46668
           24102         92.2354         105.730         62.8913        -2.75500
           24103         90.7128         104.282         56.7022        -4.16097
           24104         90.3658         103.840         56.4833        -4.40119
           24105         90.1606         103.612         55.6132        -4.57994
           24106         90.6496         104.299         54.5257        -4.20158
           24107         89.7879         103.199         53.3594        -4.87241
           24108         90.0723         103.584         53.1631        -4.61389
           24109         89.0383         102.311         49.8994        -5.02098
           24110         88.5888         101.708         49.6757        -5.42302
           24111         88.3094         101.365         48.8439        -5.44981
           24112         86.5919         99.2617         45.7283        -5.57521
           24113         86.9910         99.7504         46.2281        -5.52317
           24114         86.2751         98.8257         45.8171        -5.93228
           24115         86.8628         99.6403         45.5452        -5.18757
           24116         85.5945         98.1788         43.6253        -4.73459
           24117         86.1851         98.8937         44.0156        -4.59711
           24118         84.0880         96.4325         42.5255        -4.61812
           24119         83.5974         95.8684         42.3007        -4.60901
           24120         83.8784         96.2311         42.0232        -4.20975
           24121         84.9807         97.5605         41.4898        -3.16414
           24122         84.6316         97.1537         41.2035        -3.11007
           24123         85.2570         97.8862         41.2918        -2.82439
           24124         81.3327         93.4477         40.5445        -3.02592
           24125         81.7309         93.8983         40.0699        -2.57825
           24126         82.2481         94.4644         40.1714        -2.72371
           24127         81.0807         93.1886         40.1229        -2.52512
           24128         81.9310         94.1169         39.6684        -2.20464
           24129         81.9127         93.8608         36.8411     410.756E-03
           24130         81.8106         93.8474         37.5805    -245.755E-03
           24131         82.3723         94.1159         35.4599         1.56257
           24132         82.0950         93.9457         36.1473         1.01004
           24133         83.2106         94.7264         34.0969         2.46209
           24134         83.3371         94.9285         34.2929         2.08380
           24135         82.7511         94.3805         34.7686         2.05567
           24136         85.0623         95.9418         31.3145         4.26387
           24137         90.8777         103.761         64.6888        -2.57493
           24138         91.3755         104.418         64.5256        -2.61541
           24139         91.8570         104.747         66.3506        -2.11831
           24140         87.7290         100.532         49.5904        -6.21509
           24141         87.1840         99.7991         49.2063        -6.59977
           24142         87.0107         99.5900         48.5869        -6.60237
           24143         87.3176         100.099         47.3861        -5.84484
           24144         87.3881         100.237         46.8536        -5.49251
           24145         87.7143         100.635         47.4489        -5.47562
           24146         85.2293         97.4868         45.2872        -6.43735
           24147         84.7295         96.8711         44.9740        -6.56004
           24148         84.8643         97.0928         44.7164        -6.24590
           24149         83.7055         95.7420         43.9112        -6.21886
           24150         83.8888         96.0288         43.6246        -5.82826
           24151         84.3992         96.5818         44.1591        -6.05867
           24152         82.7667         94.7915         42.8762        -5.50236
           24153         83.1238         95.2726         42.5706        -5.04144
           24154         83.8197         96.0720         42.8041        -5.03298
           24155         83.4610         95.5910         43.1080        -5.49365
           24156         80.5110         92.5721         40.1366        -2.38152
           24157         80.7769         92.8447         40.5093        -2.87757
           24158         79.1036         91.0619         40.0623        -1.66135
           24159         79.6064         91.6025         39.5908        -1.33425
           24160         79.9998         92.0263         39.6526        -1.62102
           24161         81.2275         92.8629         35.7255         2.28400
           24162         80.4109         92.0888         36.4364         2.10888
           24163         80.1451         91.7103         36.2091         2.71477
           24164         82.4568         93.6891         33.7267         3.82174
           24165         82.6465         93.9779         33.8665         3.38449
           24166         85.1808         95.2122         29.3650         6.42927
           24167         84.9671         95.2809         30.0733         5.82986
           24168         89.0376         102.109         56.8232        -4.98860
           24169         88.3852         101.304         55.6170        -5.48841
           24170         86.7274         99.1460         49.8351        -7.05067
           24171         86.1848         98.4080         49.4300        -7.40868
           24172         86.7353         99.1715         49.3702        -6.99350
           24173         84.4810         96.1703         47.1307        -8.15639
           24174         84.2506         95.9094         46.6445        -8.11361
           24175         85.0524         96.9568         47.2850        -7.78920
           24176         82.8699         94.2865         45.3164        -8.09568
           24177         82.3797         93.6232         45.3097        -8.37026
           24178         82.1431         93.3682         45.1074        -8.30254
           24179         82.6197         94.0137         45.1125        -8.03116
           24180         81.5753         93.0711         43.9423        -7.09765
           24181         81.2127         92.7875         43.4855        -6.58044
           24182         81.2538         93.0444         42.7523        -5.62817
           24183         80.8748         92.5238         43.0710        -6.05681
           24184         80.1964         91.7664         43.0191        -5.98500
           24185         78.5059         90.1032         42.4698        -4.74575
           24186         79.1010         90.8104         42.1878        -4.53566
           24187         79.3170         90.9848         42.4004        -4.93100
           24188         78.7239         90.2751         42.6834        -5.13933
           24189         78.9329         90.7369         41.6749        -3.73604
           24190         79.5808         91.4926         41.2179        -3.38736
           24191         79.4834         91.3444         41.5294        -3.76840
           24192         78.4001         90.2923         40.6029        -1.94903
           24193         78.7852         90.7212         39.9792        -1.34238
           24194         77.0258         88.7902         39.9198     230.496E-03
           24195         76.4265         88.1568         40.6048    -281.276E-03
           24196         76.3672         88.0569         40.1190     619.105E-03
           24197         76.4461         88.0667         39.5473         1.53452
           24198         77.0660         88.7722         39.3699         1.09796
           24199         78.7208         90.2310         37.0882         2.96073
           24200         77.3056         88.7907         38.1747         2.86517
           24201         79.5687         89.4495         33.3411         8.17876
           24202         80.0644         89.6070         32.4504         8.86269
           24203         81.5214         92.2414         33.2035         5.70155
           24204         80.6713         91.2527         33.5588         6.24345
           24205         85.8024         97.8661         60.9466        -3.38608
           24206         86.2624         98.4895         60.2529        -3.86793
           24207         87.0729         99.3283         61.9579        -3.21303
           24208         86.6383         98.7046         62.6514        -2.73111
           24209         87.6401         100.321         57.4781        -5.13425
           24210         87.0084         99.5479         56.3419        -5.62682
           24211         87.2969         99.9140         55.7224        -5.78534
           24212         87.9184         100.685         56.8587        -5.29264
           24213         86.3506         98.7181         55.1922        -6.14949
           24214         85.7140         97.8914         54.1739        -6.64630
           24215         86.0484         98.2974         53.6944        -6.75483
           24216         86.6788         99.1243         54.7106        -6.25808
           24217         84.8493         96.6095         50.9639        -8.00587
           24218         84.9311         96.7032         50.5478        -8.05899
           24219         85.6165         97.6371         51.0227        -7.65039
           24220         85.5257         97.5329         51.4480        -7.59310
           24221         81.5817         92.1251         46.4271        -9.83475
           24222         82.0502         92.8228         46.3687        -9.49005
           24223         82.3827         93.2356         46.6529        -9.43846
           24224         81.9140         92.5403         46.7103        -9.77966
           24225         81.4979         92.1668         45.9433        -9.50182
           24226         81.7247         92.4146         46.1606        -9.54954
           24227         81.3011         91.7993         46.1698        -9.82276
           24228         81.0765         91.5537         45.9569        -9.77746
           24229         79.7673         90.5017         44.6889        -8.55536
           24230         79.2293         89.7164         44.9054        -8.95370
           24231         78.6514         89.0799         44.8357        -8.84165
           24232         79.1866         89.8629         44.6185        -8.44424
           24233         78.1315         89.0914         43.9752        -7.10035
           24234         77.7041         88.4346         44.3223        -7.58102
           24235         77.0461         87.7376         44.3586        -7.35863
           24236         76.5144         87.5672         43.7822        -5.87187
           24237         76.7405         87.9447         43.4607        -5.41996
           24238         77.4719         88.7403         43.3164        -5.61711
           24239         74.7138         86.1126         42.9399        -2.62086
           24240         73.7153         84.9771         43.4555        -2.39284
           24241         74.0286         85.4068         42.9329        -1.77421
           24242         75.9516         87.6343         41.2153    -825.803E-03
           24243         74.6470         86.1621         42.1708        -1.06565
           24244         73.7407         85.0867         41.5364         1.51236
           24245         73.1946         84.4264         41.7403         1.94674
           24246         73.9683         85.2344         40.8639         2.55332
           24247         74.5040         85.8828         40.6381         2.13224
           24248         72.2821         83.2009         41.9302         3.30628
           24249         72.5857         83.4119         41.3398         4.09836
           24250         73.5094         84.4646         40.5532         4.08706
           24251         73.2047         84.2633         41.1325         3.30129
           24252         76.6525         87.3650         37.0462         5.97441
           24253         75.8223         86.3545         37.5360         6.43846
           24254         76.4180         86.8040         36.7674         6.94018
           24255         77.2542         87.8208         36.2925         6.47569
           24256         83.6246         95.4146         58.2348        -4.25435
           24257         84.4449         96.3061         59.8591        -3.54782
           24258         82.7056         94.2958         55.1188        -5.99770
           24259         83.2716         94.9399         54.7400        -6.35381
           24260         83.9811         95.8409         55.9966        -5.72990
           24261         83.4296         95.1969         56.3750        -5.37401
           24262         82.4757         93.7441         52.2741        -7.79077
           24263         83.6104         95.1967         52.9245        -7.42813
           24264         83.1203         94.6364         53.2690        -7.22364
           24265         82.0838         92.8788         49.8087        -9.24741
           24266         83.3121         94.5537         50.4537        -8.67001
           24267         81.7259         92.1736         47.9966        -10.0580
           24268         82.2146         92.8631         48.0749        -9.81288
           24269         82.4319         93.1850         48.4407        -9.64378
           24270         81.9384         92.4890         48.3622        -9.89541
           24271         80.7461         90.7735         46.9761        -10.6072
           24272         79.9295         89.5876         46.8055        -11.0336
           24273         79.9396         89.9112         45.9665        -10.4293
           24274         79.2941         88.9764         45.9842        -10.7658
           24275         79.1075         88.8260         45.8159        -10.6220
           24276         77.4414         86.7338         45.7328        -10.7936
           24277         78.2642         87.7517         45.7395        -10.7479
           24278         77.5633         86.7525         45.8342        -11.0383
           24279         77.6422         87.4483         45.3598        -9.83573
           24280         76.9941         86.6181         45.4917        -9.93834
           24281         77.1077         86.9072         45.3376        -9.61601
           24282         77.7606         87.7381         45.2103        -9.51196
           24283         76.8314         87.0644         44.9375        -8.48375
           24284         76.2119         86.4010         45.0105        -8.28909
           24285         76.6365         87.0825         44.7027        -7.83753
           24286         77.2563         87.7453         44.6289        -8.03197
           24287         74.7847         85.1124         45.0634        -7.15020
           24288         75.1589         85.7354         44.6937        -6.64841
           24289         75.7852         86.4046         44.5450        -6.88652
           24290         75.4094         85.7805         44.9141        -7.38822
           24291         72.6135         82.9187         45.6268        -5.73631
           24292         71.9785         82.2016         45.9184        -5.47299
           24293         72.3481         82.8263         45.4629        -4.92251
           24294         72.9863         83.5446         45.1719        -5.18551
           24295         71.1540         81.4983         46.0061        -4.23386
           24296         70.5648         80.8400         46.2802        -3.81757
           24297         71.0687         81.6248         45.6478        -3.18482
           24298         71.6572         82.2840         45.3735        -3.59948
           24299         71.6673         82.6216         44.4590        -1.47610
           24300         71.0222         81.7441         45.2458        -2.11738
           24301         70.9138         81.7656         43.9221         1.33166
           24302         70.4857         81.2531         44.6086     526.970E-03
           24303         80.6959         92.0133         55.8999        -4.62287
           24304         79.9884         91.0073         53.1795        -6.51875
           24305         80.6956         91.7767         53.0045        -6.92598
           24306         81.3679         92.6771         54.1819        -6.25645
           24307         80.6754         91.9078         54.3568        -5.84920
           24308         81.8458         92.8439         51.3328        -8.35926
           24309         81.2975         92.2406         51.6165        -8.12031
           24310         81.6709         92.4244         50.1929        -9.08476
           24311         79.1433         88.4297         47.0043        -11.4166
           24312         79.8022         89.4343         47.5047        -10.9810
           24313         79.0800         88.3775         47.2381        -11.3492
           24314         76.1046         84.4755         46.1025        -11.9008
           24315         75.3266         83.3548         46.2576        -12.1396
           24316         76.0498         85.1585         45.8381        -10.5512
           24317         75.8924         85.2221         45.7338        -10.0466
           24318         76.4836         85.9096         45.6170        -10.1211
           24319         72.0026         81.3167         46.7670        -7.91100
           24320         71.4126         80.5112         47.1531        -7.97142
           24321         71.2642         80.5886         47.0539        -7.34876
           24322         71.3100         81.4294         46.2726        -5.20140
           24323         68.7292         78.6044         47.4726        -2.76680
           24324         68.9937         78.7517         47.5770        -3.71968
           24325         68.3823         77.9646         48.0381        -3.42914
           24326         68.0369         77.9190         47.4981    -928.472E-03
           24327         68.6890         78.8109         46.8991        -1.10352
           24328         68.4413         78.3745         47.3985        -1.81394
           24329         67.7981         77.4845         47.9962        -1.64002
           24330         67.7296         77.4761         46.6561         2.75076
           24331         68.2779         78.2731         46.1098         2.46561
           24332         67.9131         77.8257         46.7938         1.57554
           24333         67.3680         77.0290         47.3415         1.86542
           24334         68.7496         78.8285         45.3644         3.19683
           24335         68.1671         77.9434         45.8514         3.78790
           24336         68.8746         78.6986         44.7784         4.80030
           24337         69.4530         79.5857         44.2962         4.20412
           24338         69.6971         77.8996         42.8970         9.84616
           24339         69.0737         77.9129         43.8754         8.04486
           24340         68.5661         76.9483         44.4674         8.65275
           24341         71.2105         77.4398         41.0474         13.7578
           24342         70.8735         77.9250         41.3090         12.4272
           24343         69.6151         76.4424         43.1208         12.1061
           24344         77.5676         88.3734         53.2112        -5.09562
           24345         77.3766         88.2420         54.5206        -3.60592
           24346         78.2461         88.4699         50.1994        -8.49876
           24347         78.0456         88.4993         51.0633        -7.54088
           24348         77.0014         86.2855         48.0649        -10.3457
           24349         77.3411         87.0038         48.8201        -9.59388
           24350         76.5743         85.8760         48.1351        -10.0929
           24351         77.4567         86.0468         46.8007        -12.0033
           24352         78.2011         87.1583         47.1308        -11.6242
           24353         77.9795         86.9451         47.2574        -11.5021
           24354         77.2326         85.8321         46.9264        -11.8803
           24355         76.1815         84.0031         46.2470        -12.8219
           24356         75.4063         82.8208         46.1311        -13.1575
           24357         75.6587         83.2647         46.1776        -12.9592
           24358         74.9430         82.1723         46.2041        -13.2420
           24359         75.0530         82.4386         46.2285        -13.0482
           24360         75.7739         83.5308         46.2033        -12.7663
           24361         73.8599         82.0265         46.5950        -11.2230
           24362         69.6814         77.6277         48.6163        -8.94166
           24363         69.9373         77.7326         48.5044        -9.42633
           24364         69.2386         76.8348         49.0033        -9.20551
           24365         70.4419         79.5204         47.6092        -7.25342
           24366         67.3954         76.1765         49.4334        -4.51994
           24367         68.1186         77.1367         48.8148        -4.91955
           24368         67.2107         75.6433         49.8530        -5.19889
           24369         66.6516         75.5869         49.5872        -2.47093
           24370         66.7800         75.9754         49.1138        -1.48100
           24371         67.0880         76.3582         48.9182        -2.04534
           24372         64.5329         72.2293         51.5920         2.01184
           24373         64.4888         72.1698         51.9144     791.150E-03
           24374         64.0571         71.2244         52.8028         1.01736
           24375         65.4974         72.6836         49.4610         7.20231
           24376         65.0905         72.4808         50.1937         5.83032
           24377         64.5886         71.1799         51.3830         6.38559
           24378         69.4053         73.0324         45.0532         15.7472
           24379         67.6459         72.4487         47.0660         13.1886
           24380         68.0625         71.6344         47.2576         14.7536
           24381         73.8818         83.5561         48.5241        -7.67651
           24382         74.4365         83.9241         48.2420        -8.54234
           24383         74.7192         84.4604         48.8651        -7.93236
           24384         74.0605         80.9939         45.7918        -13.3782
           24385         73.7973         80.4825         45.7625        -13.6319
           24386         74.4611         81.4394         45.9296        -13.4540
           24387         72.5489         78.4324         46.4379        -14.1121
           24388         73.3203         79.5748         46.1550        -13.9788
           24389         72.5001         78.2742         46.2607        -14.2640
           24390         72.0715         78.2825         47.1478        -13.3427
           24391         72.8714         79.4920         46.8649        -13.1699
           24392         68.5743         75.2429         49.7108        -10.1680
           24393         68.3169         75.1293         49.8728        -9.70222
           24394         68.7789         75.9868         49.4435        -9.46824
           24395         65.0245         73.1523         51.2208    -306.011E-03
           24396         63.1782         68.2891         55.5484         3.45502
           24397         63.4388         69.2050         54.4503         3.58430
           24398         63.3633         69.2935         54.6002         2.27829
           24399         63.1125         68.3787         55.6975         2.14861
           24400         64.3075         68.7419         53.4945         8.67300
           24401         64.2008         70.1132         52.5468         6.55593
           24402         63.8232         68.8915         54.0156         6.60521
           24403         72.9838         73.4957         41.8913         20.4040
           24404         71.2962         71.5410         44.9564         19.6653
           24405         68.6306         78.0223         45.8334        -5.71571
           24406         69.8573         79.2553         46.4742        -6.38006
           24407         69.2299         78.9205         46.8652        -4.71209
           24408         70.6141         79.4373         45.9322        -8.46607
           24409         70.4141         79.4799         46.1425        -7.73234
           24410         69.3338         78.1058         45.2752        -8.02218
           24411         69.5518         78.0655         45.0666        -8.76295
           24412         70.6456         77.8067         44.6192        -11.8001
           24413         71.6769         79.2716         45.2632        -11.4443
           24414         70.2694         77.6956         44.6103        -11.2122
           24415         70.4254         76.3799         44.4024        -13.4873
           24416         70.5955         76.1449         44.6201        -14.0513
           24417         71.1967         77.2383         44.7736        -13.6232
           24418         71.0947         76.2776         45.2388        -14.6099
           24419         70.6805         75.5494         45.2917        -14.8149
           24420         71.1653         76.2237         45.5138        -14.7441
           24421         71.5823         76.9506         45.4601        -14.5395
           24422         70.4298         75.0714         45.3988        -14.9638
           24423         69.9496         74.2603         45.4463        -15.1420
           24424         70.1786         74.5602         45.6217        -15.1222
           24425         70.6616         75.3792         45.5819        -14.9360
           24426         69.8643         73.9526         46.0113        -15.2496
           24427         69.2453         72.8969         46.1880        -15.4335
           24428         69.6319         73.5283         46.5276        -15.2586
           24429         70.2462         74.5703         46.3581        -15.0739
           24430         69.2879         73.2182         47.7813        -14.7797
           24431         69.5012         73.4539         47.3581        -14.9531
           24432         68.7929         72.1991         47.5507        -15.1856
           24433         68.0061         72.8069         50.1155        -12.3986
           24434         67.4350         71.8879         50.6689        -12.3120
           24435         67.5303         72.4328         50.6614        -11.7870
           24436         66.8636         71.3785         51.3714        -11.5995
           24437         67.6116         72.9049         50.6293        -11.3138
           24438         66.7115         72.3224         51.5354        -9.85146
           24439         66.3142         71.4281         52.0512        -10.0695
           24440         65.9891         71.2165         52.3850        -9.47368
           24441         66.3870         72.1144         51.8695        -9.25289
           24442         65.0574         70.6656         53.3892        -7.33052
           24443         64.7914         70.5518         53.6085        -6.54914
           24444         65.2203         71.5259         52.8685        -6.43215
           24445         64.7523         71.3543         53.1472        -4.79851
           24446         65.1981         72.3093         52.3483        -4.72865
           24447         63.7695         70.3115         53.9986        -1.11387
           24448         63.4492         69.4102         54.9212        -1.12233
           24449         63.7018         70.2892         53.9190    -51.6773E-03
           24450         62.9945         67.4280         56.7007         3.16282
           24451         62.9195         67.5229         56.7341         1.96696
           24452         62.8046         66.7191         57.7996         1.68502
           24453         63.1141         67.2620         56.6328         4.51588
           24454         63.1646         66.2358         57.8636         5.38621
           24455         63.3091         66.9948         56.7272         5.83642
           24456         65.6693         65.3176         56.8427         13.2641
           24457         66.3252         66.2424         54.9104         14.5285
           24458         65.4666         67.1577         54.2126         12.6162
           24459         63.1319         71.5209         41.1567        -6.32691
           24460         63.8979         72.7025         42.0858        -5.34832
           24461         62.6627         71.5266         41.2622        -4.44755
           24462         61.8548         70.3421         40.3318        -5.42772
           24463         67.0989         72.8910         42.7166        -12.6242
           24464         67.9511         74.3029         43.2064        -12.1105
           24465         67.1814         73.8195         42.7974        -11.4264
           24466         66.2988         72.3952         42.3029        -11.9369
           24467         66.4931         71.1455         42.6554        -13.8432
           24468         67.5174         72.2422         43.2138        -14.0723
           24469         68.0177         73.4514         43.2777        -13.3810
           24470         66.9918         72.3617         42.7255        -13.1390
           24471         67.6575         71.3921         44.0149        -15.1185
           24472         66.8637         69.8188         44.2300        -15.5765
           24473         67.8036         71.2322         44.4913        -15.4169
           24474         67.1128         69.9172         44.7328        -15.7299
           24475         67.2688         69.9493         45.1388        -15.8335
           24476         67.7273         70.9122         44.7777        -15.5851
           24477         67.1706         69.3167         46.6006        -15.9756
           24478         67.6897         70.3257         46.0076        -15.8641
           24479         67.3398         69.6845         48.5112        -15.3390
           24480         66.6525         68.5111         49.3214        -15.2233
           24481         67.2481         69.6472         49.0168        -15.0865
           24482         68.3723         71.9240         48.7420        -14.5103
           24483         67.7336         70.7637         49.1557        -14.6343
           24484         68.2938         72.0594         49.1437        -14.1144
           24485         66.1993         69.0975         51.7223        -12.9945
           24486         66.7781         70.3165         51.1987        -12.8284
           24487         67.0460         70.3915         50.6383        -13.4223
           24488         66.4639         69.1735         51.1620        -13.5889
           24489         65.8778         69.6885         52.5809        -11.2980
           24490         65.6657         69.0473         52.8354        -11.5616
           24491         65.3279         68.6075         53.3544        -11.1738
           24492         65.5346         69.2474         53.0836        -10.9181
           24493         64.1542         66.5597         55.5320        -9.96586
           24494         64.5351         67.5903         54.7729        -9.97278
           24495         64.7190         67.4615         54.3679        -10.7914
           24496         64.3340         66.4304         55.1265        -10.7859
           24497         65.3360         70.7824         53.0993        -8.11597
           24498         64.9280         69.7971         53.8281        -8.23789
           24499         62.8008         65.5646         58.8958        -3.55843
           24500         63.1136         66.6692         57.4605        -4.74992
           24501         62.9282         65.6456         58.5814        -4.63491
           24502         62.6798         65.2061         59.6543        -1.64370
           24503         62.6939         64.8024         60.0380        -2.39596
           24504         62.6835         64.3285         60.7351        -1.76196
           24505         62.6846         64.7390         60.3512        -1.00633
           24506         62.7490         64.6195         60.6609     794.412E-03
           24507         62.8812         64.0877         61.4580         1.67597
           24508         62.8561         64.6518         60.6214         2.26335
           24509         64.2132         62.3705         64.3859         5.87313
           24510         63.8682         62.3925         64.3652         4.44812
           24511         64.3212         61.7125         65.7357         4.63009
           24512         64.6759         61.6915         65.7543         6.05490
           24513         65.0601         62.3022         64.0376         8.94655
           24514         65.6437         62.1793         63.8272         10.6090
           24515         65.0527         63.1062         61.9251         10.3697
           24516         66.0984         63.7712         59.4090         13.6795
           24517         65.7105         63.4168         60.6097         12.4675
           24518         66.5871         62.6372         61.6464         13.8021
           24519         75.6683         59.1864         63.7098         25.3933
           24520         72.3504         59.6402         65.3424         20.8569
           24521         74.0530         58.2398         69.0117         21.2020
           24522         59.7309         67.8410         38.4934        -5.62958
           24523         58.2271         66.4056         37.3102        -4.69921
           24524         61.7478         68.7683         39.6080        -8.91974
           24525         62.0174         67.5650         39.7287        -11.3582
           24526         62.2838         67.4165         39.9442        -11.9951
           24527         63.6531         69.1031         40.7785        -11.9932
           24528         62.9529         66.3032         41.0623        -14.1821
           24529         63.1502         67.0147         40.9266        -13.7196
           24530         61.9174         65.1895         40.4216        -13.9674
           24531         63.4667         64.9655         43.0209        -15.8280
           24532         64.0631         65.4739         43.6401        -16.0216
           24533         64.8477         66.8776         43.5855        -15.7883
           24534         64.2590         66.3685         42.9640        -15.5990
           24535         65.9562         67.7189         45.2003        -16.1474
           24536         65.3138         66.6190         45.2526        -16.2756
           24537         65.5213         66.7329         45.7956        -16.3156
           24538         65.6360         66.3844         48.8955        -15.8779
           24539         66.1382         67.3411         48.0713        -15.9767
           24540         65.5920         66.3055         48.3727        -16.0556
           24541         65.0564         65.2567         49.7511        -15.7620
           24542         64.6536         64.4263         50.0250        -15.8089
           24543         64.6499         64.4416         50.5438        -15.5921
           24544         64.6614         65.4195         53.4050        -13.4539
           24545         65.1573         66.5357         52.6817        -13.5194
           24546         64.8378         65.6346         52.9229        -13.7693
           24547         64.1047         64.5045         54.9215        -12.5817
           24548         64.0311         64.6702         55.3385        -12.0299
           24549         64.4104         65.6703         54.6255        -12.1029
           24550         63.9016         65.2597         56.0611        -10.6501
           24551         63.8328         65.6014         56.3326        -9.88625
           24552         62.8592         62.0628         61.0071        -7.39123
           24553         62.9354         62.7717         60.0638        -7.81502
           24554         62.9508         62.4706         59.9709        -8.36932
           24555         62.8493         62.8089         60.8066        -6.50220
           24556         62.8840         62.8874         60.3684        -7.10965
           24557         62.8353         61.9922         61.4556        -6.78762
           24558         62.9860         61.8211         63.7294        -2.81531
           24559         62.9140         61.7159         63.3669        -3.86027
           24560         63.0875         60.9436         64.4260        -3.72169
           24561         62.7575         64.0719         61.3547    -57.5770E-03
           24562         62.7351         63.8584         61.4876        -1.09154
           24563         62.8618         63.1838         62.5145    -646.192E-03
           24564         65.0216         60.2562         68.4329         3.53287
           24565         64.4731         61.0039         66.9862         3.39439
           24566         64.1231         60.9564         66.7058         2.04756
           24567         64.6600         60.2090         68.1537         2.18610
           24568         65.1472         61.6417         65.7784         7.57948
           24569         64.5601         62.3785         64.1693         7.34895
           24570         70.0948         59.1420         71.4835         13.3327
           24571         71.4164         58.7485         71.6464         15.5438
           24572         70.3753         59.3713         69.4636         15.5637
           24573         76.4494         56.9090         75.4547         20.0542
           24574         74.2398         57.6637         74.5020         17.6254
           24575         1.77774     454.243E-03         1.88433    -293.971E-03
           24576         1.77584         1.88259     450.332E-03    -291.242E-03
           24577         9.11140         6.11042         10.3517     769.502E-03
           24578         11.8106         6.76799         13.4201         1.21290
           24579         26.2550         11.9405         29.8606         1.96976
           24580         27.3561         11.1946         31.1154         1.03150
           24581         26.2051         8.46074         29.3902     18.1499E-03
           24582         28.7542         13.8932         32.8003         2.13119
           24583         27.8522         14.3402         31.5844         2.91310
           24584         29.5683         16.7387         33.2189         3.94309
           24585         34.7233         20.8916         38.9340         4.71839
           24586         40.4041         25.5083         45.3645         5.19777
           24587         48.9396         32.4718         55.6359         4.15959
           24588         49.6358         33.0352         56.7040         3.17644
           24589         51.8193         35.0405         59.1609         3.18422
           24590         57.4578         39.8165         65.3456         3.99299
           24591         58.2142         40.7502         66.4151         2.81542
           24592         60.1352         42.4586         68.6077         2.54865
           24593         61.1156         42.9289         69.6461         3.23900
           24594         62.0191         44.0166         70.7460         2.44340
           24595         63.8917         45.4080         72.8782         2.46866
           24596         65.7835         46.6153         75.0617         2.53301
           24597         67.6161         48.0545         77.1983         2.06932
           24598         69.3073         49.3112         79.1647         1.68851
           24599         70.9003         50.3622         81.0279         1.38098
           24600         72.3911         51.1994         82.7897         1.11675
           24601         73.7932         51.8323         84.4670     873.463E-03
           24602         75.1108         52.2781         86.0613     632.703E-03
           24603         78.2431         53.5319         89.7956    -4.40549E-03
           24604         77.5138         52.6694         89.0067     135.921E-03
           24605         77.8908         51.7874         89.5768     23.4016E-03
           24606         82.0160         50.7370         94.5912        -1.17877
           24607         84.9671         48.9225         98.0697        -1.43250
           24608         85.2075         49.0853         98.3639        -1.11279
           24609         85.7124         48.4577         98.9429        -1.04962
           24610         86.7117         47.0257         100.054    -777.790E-03
           24611         86.6643         47.2099         100.015    -480.886E-03
           24612         86.7747         47.0376         100.136    -252.372E-03
           24613         86.8997         46.8194         100.269    -176.300E-03
           24614         86.8223         46.9470         100.188    -35.3227E-03
           24615         86.8032         46.9500         100.165     214.146E-03
           24616         86.6955         47.0464         100.042     544.208E-03
           24617         86.3805         47.4652         99.6946     741.232E-03
           24618         86.0028         47.9666         99.2736     867.179E-03
           24619         85.5597         48.5342         98.7724     957.767E-03
           24620         85.0510         49.1404         98.1872         1.01926
           24621         84.4723         49.7562         97.5106         1.05348
           24622         83.8235         50.3560         96.7410         1.05275
           24623         81.9927         52.2336         94.4936     621.776E-03
           24624         82.3165         51.4175         94.9231     923.255E-03
           24625         81.7857         51.0293         94.3066         1.09112
           24626         77.4703         51.6917         89.0725    -39.0080E-03
           24627         72.4550         50.6395         82.9458        -1.37814
           24628         71.9588         51.0282         82.2676        -1.18299
           24629         70.4149         50.1758         80.4369        -1.47628
           24630         65.9767         46.9169         75.2174        -2.77153
           24631         65.3614         46.9703         74.5174        -2.09481
           24632         63.6253         45.7059         72.5236        -2.17834
           24633         62.6494         44.6431         71.3485        -2.97518
           24634         61.7981         44.2346         70.4310        -2.39872
           24635         59.8527         42.5706         68.1869        -2.79206
           24636         57.7328         40.7646         65.6888        -3.37085
           24637         55.5513         38.9181         63.2497        -3.28432
           24638         53.3746         36.9975         60.8208        -3.21868
           24639         51.1701         35.0108         58.3455        -3.22205
           24640         48.9516         32.9932         55.8367        -3.27664
           24641         46.6997         30.9499         53.2713        -3.36001
           24642         44.4096         28.8883         50.6481        -3.44414
           24643         38.2505         22.6946         43.8851        -2.45697
           24644         39.7118         24.7433         45.2397        -3.53766
           24645         38.8814         24.7148         43.8299        -4.58729
           24646         34.0566         20.8817         38.2824        -4.38430
           24647         17.1213         8.56528         19.3752        -1.85571
           24648         11.7012         6.96970         13.3039        -1.16495
           24649         14.4402         7.65457         16.3759        -1.53934
           24650         6.42293         5.82342         6.86334    -260.918E-03
           24651         8.91287         6.29099         10.0922    -707.237E-03
           24652         4.57666         5.09942         3.74250     72.2376E-03
           24653         4.70736         4.63470    -141.622E-03     28.0058E-03
           24654         10.0637         11.4749         4.54040    -602.975E-03
           24655         9.11180         10.3521         6.11298    -768.813E-03
           24656         11.8127         13.4231         6.77171        -1.21136
           24657         14.6873         16.5947         7.97932        -1.73939
           24658         17.0699         18.8029         11.1326        -2.78227
           24659         26.2736         29.8819         11.9467        -1.96972
           24660         27.3719         31.1290         11.1744        -1.03064
           24661         26.2151         29.3899         8.41749    -17.1587E-03
           24662         28.7799         32.8300         13.9038        -2.13094
           24663         27.8971         31.6357         14.3732        -2.91821
           24664         33.8533         38.7315         18.4038        -2.58336
           24665         38.9308         44.5966         23.0564        -2.79191
           24666         43.6552         50.1007         27.4156        -2.42321
           24667         48.2808         55.3243         32.0449        -2.32696
           24668         49.1041         55.6812         33.0484        -4.42716
           24669         49.7684         56.7408         33.6334        -3.39410
           24670         52.8492         60.3618         36.7198        -2.42297
           24671         52.0020         59.2113         35.8312        -3.46278
           24672         57.9095         65.4785         41.3581        -4.60644
           24673         58.5766         66.4975         42.3657        -3.24851
           24674         57.2621         65.1861         41.2632        -2.37050
           24675         61.4511         69.7279         45.6423        -2.12774
           24676         60.5527         68.6773         44.4117        -3.04076
           24677         61.6495         69.7480         45.1219        -3.96044
           24678         62.5079         70.7992         46.3525        -3.04836
           24679         65.5134         74.0807         49.6981        -2.29726
           24680         64.4763         72.9177         48.2039        -3.24026
           24681         66.5129         75.1173         49.9639        -3.56472
           24682         69.3305         78.1539         53.6568        -2.09084
           24683         68.4512         77.2467         52.0437        -3.17104
           24684         70.2669         79.2119         53.9912        -2.86430
           24685         71.9976         81.0734         55.7940        -2.65814
           24686         72.7666         81.9820         55.8163        -3.38669
           24687         80.3485         89.8226         64.8750        -1.44446
           24688         82.7603         92.4094         67.1680        -1.31366
           24689         84.8839         94.6497         69.2966        -1.09519
           24690         86.7215         96.4961         71.3805    -795.332E-03
           24691         88.0729         97.9387         72.6697    -617.125E-03
           24692         87.2016         97.8370         69.4347        -1.17451
           24693         87.8984         98.1975         71.2794    -835.380E-03
           24694         89.0368         98.9975         73.5111    -440.804E-03
           24695         88.3542         98.7241         71.6136    -707.914E-03
           24696         88.6993         99.5396         70.6477    -441.174E-03
           24697         89.3718         99.7309         72.8314    -249.890E-03
           24698         89.6937         99.6671         74.2187    -237.595E-03
           24699         90.0289         99.9457         74.7387    -39.4573E-03
           24700         89.5730         99.8703         73.2314    -114.375E-03
           24701         89.1466         99.8281         71.6597    -67.1886E-03
           24702         89.5811         99.9063         73.1656     7.98900E-03
           24703         89.7786         99.8207         74.1381     165.385E-03
           24704         89.3938         99.8300         72.6451     151.064E-03
           24705         89.0103         99.6208         71.7016     352.809E-03
           24706         89.3301         99.3109         73.7902     358.139E-03
           24707         88.9092         99.3747         71.9954     483.428E-03
           24708         88.6835         99.0321         72.0593     592.241E-03
           24709         88.3202         98.5858         71.8675     701.908E-03
           24710         87.6234         98.2178         70.0798         1.00692
           24711         84.7858         94.4981         69.3380         1.04816
           24712         82.6127         92.2509         67.0283         1.32295
           24713         80.1230         89.6162         64.5424         1.52281
           24714         77.3755         86.6529         61.9859         1.55464
           24715         74.2548         83.3663         58.7720         1.75930
           24716         73.7907         83.1185         56.6905         3.39568
           24717         73.1957         82.3750         56.9057         2.66594
           24718         70.8172         79.7356         55.1886         2.00241
           24719         71.4983         80.5482         55.1606         2.85176
           24720         66.7990         75.3896         49.8591         4.14080
           24721         66.0212         74.6072         49.8309         3.01043
           24722         67.1324         75.8109         51.4292         2.11365
           24723         63.2320         71.6389         47.4794         2.10020
           24724         64.1657         72.6039         48.0362         2.94692
           24725         63.2171         71.4744         46.6300         3.92889
           24726         62.2439         70.5102         46.0727         3.08291
           24727         59.0329         67.0926         43.0324         2.50583
           24728         60.2275         68.2730         43.9420         3.43014
           24729         58.0572         65.7886         41.6785         3.97355
           24730         54.6309         62.2979         38.5247         2.54071
           24731         54.6686         62.5232         38.7975     21.3655E-03
           24732         38.2499         43.8868         22.2247         2.47881
           24733         39.7212         45.2625         24.2005         3.59566
           24734         38.8702         43.8401         24.0282         4.65422
           24735         33.9522         38.2062         20.0473         4.36191
           24736         33.3622         38.2081         17.7516         2.33215
           24737         28.4286         32.4229         13.5121         2.03834
           24738         28.9261         32.5195         16.1982         3.81132
           24739         23.4240         26.5258         9.72294         1.67736
           24740         23.8414         26.7894         12.7327         3.14755
           24741         16.9786         19.1785         7.57377         1.66828
           24742         18.2553         20.5011         6.60004         1.25281
           24743         12.9507         14.4891         4.30045     730.613E-03
           24744         14.3232         16.2102         6.34545         1.28835
           24745         7.28457         8.37112         3.57803     215.121E-03
           24746         8.63221         9.47310         7.06821     768.705E-03
           24747         6.73626         7.43931         5.58794     354.695E-03
           24748         4.46596         3.76858         4.92662    -102.845E-03
           24749         4.68810    -109.279E-03         4.63243    -14.4837E-03
           24750         9.82667         4.58465         11.2294     556.112E-03
           24751         10.9055     70.3291E-03         10.9405    -10.3013E-03
           24752         14.2076         7.76855         16.1061         1.55112
           24753         16.0170         10.2572         17.8557         2.28448
           24754         16.9094         8.69963         19.1272         1.89670
           24755         28.3518         14.1802         32.3597         2.19597
           24756         27.2549         14.6639         30.8914         2.97284
           24757         28.8658         17.1586         32.3197         4.03391
           24758         33.3155         15.6534         38.2594     33.2055E-03
           24759         38.1148         20.7252         43.9868     36.1620E-03
           24760         42.9187         25.8815         49.5417     26.7522E-03
           24761         48.1428         32.0096         55.1481         2.38517
           24762         47.6768         30.9691         54.9023     25.6225E-03
           24763         52.7230         36.3244         60.2778         2.33754
           24764         52.3255         35.8459         60.0449     26.1256E-03
           24765         57.0468         40.2852         65.1318         2.09287
           24766         56.8011         40.3914         64.9480     24.1440E-03
           24767         61.0906         43.8684         69.6825         1.71668
           24768         61.0449         44.4866         69.5950     17.6802E-03
           24769         64.9372         46.8882         74.0397         1.63850
           24770         65.0055         48.0261         73.9714     19.5436E-03
           24771         68.4814         49.4814         78.1128         1.26636
           24772         68.6379         50.9454         78.0521     15.3751E-03
           24773         78.2141         53.3455         89.7848    -47.2342E-03
           24774         77.4931         52.6277         88.9869     71.5650E-03
           24775         77.8812         51.8628         89.5565    -59.7996E-03
           24776         80.4778         54.8047         92.3947    -9.11223E-03
           24777         82.1850         53.7124         94.6102    -12.0249E-03
           24778         83.6228         52.1910         96.4506    -13.0799E-03
           24779         84.8777         49.6148         97.9937    -767.391E-03
           24780         84.8075         50.4895         97.9113    -15.0151E-03
           24781         85.8310         48.3489         99.0908    -656.297E-03
           24782         85.7252         48.9174         98.9847    -14.5490E-03
           24783         86.4457         47.4799         99.7772    -380.145E-03
           24784         86.3417         47.7753         99.6704    -10.3329E-03
           24785         86.6967         47.1388         100.053    -34.9862E-03
           24786         86.6156         47.2949         99.9669    -1.96282E-03
           24787         86.6014         47.3365         99.9500     339.238E-03
           24788         86.5177         47.5897         99.8654     6.08216E-03
           24789         86.1152         48.1409         99.4130     625.622E-03
           24790         86.0698         48.5944         99.3768     10.8291E-03
           24791         82.0071         52.5273         94.4891     608.641E-03
           24792         82.3147         51.6010         94.9110     905.224E-03
           24793         81.7707         51.0721         94.2881         1.05370
           24794         80.5374         55.3335         92.3964     11.3554E-03
           24795         78.5296         55.7305         89.8126     8.12884E-03
           24796         76.1738         55.3763         86.8705     1.97815E-03
           24797         72.9237         52.0703         83.3296    -758.792E-03
           24798         73.4483         54.2174         83.5889    -3.34033E-03
           24799         69.8233         50.2205         79.6968        -1.15938
           24800         70.3441         52.2751         79.9779    -8.20531E-03
           24801         66.4255         47.8557         75.7766        -1.46398
           24802         66.8686         49.5998         76.0474    -11.3097E-03
           24803         62.7591         44.9980         71.6112        -1.64133
           24804         63.0511         46.2665         71.8158    -14.1695E-03
           24805         58.7303         41.3805         67.0736        -2.12721
           24806         58.9334         42.3440         67.3064    -22.3272E-03
           24807         54.4609         37.5004         62.2902        -2.27664
           24808         54.5609         37.9425         62.5277    -21.0840E-03
           24809         38.2374         22.1401         43.8818        -2.43943
           24810         39.6795         24.0572         45.2443        -3.51737
           24811         38.8081         23.8794         43.8139        -4.56175
           24812         33.3534         17.7376         38.1988        -2.32614
           24813         33.3445         15.3850         38.2593    -26.0980E-03
           24814         28.3996         13.5284         32.3876        -2.05891
           24815         28.5852         10.6434         32.3800    -22.6744E-03
           24816         23.4001         9.72105         26.4984        -1.68273
           24817         23.8194         6.42493         26.3728    -16.5699E-03
           24818         18.2539         6.59713         20.4987        -1.25446
           24819         18.9420         2.99542         20.2612    -8.93092E-03
           24820         12.9508         4.30311         14.4894    -733.235E-03
           24821         13.7523     661.738E-03         14.0712     4.24769E-03
           24822         7.28519         3.57870         8.37180    -215.808E-03
           24823         8.63400         7.06813         9.47535    -769.710E-03
           24824         6.73736         5.58798         7.44080    -355.099E-03
           24825         8.73986         8.61544    -243.352E-03     34.2069E-03
           24826         6.35830         7.03499         1.69850    -17.3738E-03
           24827         7.83760         9.01139         3.92967    -253.102E-03
           24828         9.72293         10.5609         1.99966    -202.432E-03
           24829         11.0968         12.5908         4.53896    -620.847E-03
           24830         12.9791         14.0630         2.59814    -398.481E-03
           24831         12.0103         12.0342     47.8698E-03     15.8812E-03
           24832         31.5491         35.8794         14.0432        -2.21110
           24833         37.0417         42.3423         18.4440        -2.58197
           24834         36.8426         42.0846         15.6531    -28.7105E-03
           24835         42.0401         48.3847         20.7925    -29.7101E-03
           24836         47.2077         54.4944         26.0935    -23.5319E-03
           24837         52.7287         60.6403         32.2674        -2.48925
           24838         52.3131         60.3888         31.4379    -22.9476E-03
           24839         57.6395         66.2282         36.9618        -2.44140
           24840         57.3145         66.0432         36.7198    -21.8831E-03
           24841         62.3409         71.5240         41.5110        -2.35088
           24842         62.1706         71.4376         41.8571    -20.2206E-03
           24843         66.8949         76.5933         45.8504        -2.44742
           24844         66.8376         76.5499         46.7807    -22.5998E-03
           24845         71.2856         81.4663         50.0256        -2.42987
           24846         71.2780         81.3602         51.4476    -24.2095E-03
           24847         75.3877         85.9963         54.1199        -2.08830
           24848         76.3958         87.0042         55.9921        -1.00507
           24849         75.4556         85.8472         55.8168    -18.7653E-03
           24850         87.0780         98.8096         65.3351        -1.44826
           24851         90.2995         101.628         71.0072    -11.1072E-03
           24852         92.6056         104.070         73.3165    -11.2344E-03
           24853         94.5231         106.100         75.2259    -7.31856E-03
           24854         95.2902         107.732         73.2175    -608.357E-03
           24855         96.0460         107.714         76.7290    -5.64095E-03
           24856         96.3564         108.894         74.2115    -419.497E-03
           24857         97.1662         108.902         77.8299    -4.28758E-03
           24858         97.0430         109.627         74.9036    -228.121E-03
           24859         97.8804         109.659         78.5300    -2.22315E-03
           24860         97.2741         109.937         74.9104    -45.1119E-03
           24861         98.1862         109.985         78.8254    -782.050E-06
           24862         97.1130         109.807         74.5923     164.032E-03
           24863         98.0851         109.879         78.7232    -367.757E-06
           24864         96.6427         109.250         74.3177     355.254E-03
           24865         96.9215         109.102         76.1428     199.672E-03
           24866         97.5742         109.336         78.2259     576.641E-06
           24867         91.7933         103.960         69.7793         1.06176
           24868         90.2989         101.628         71.0052     9.97376E-03
           24869         87.6136         98.7842         68.2969     10.6597E-03
           24870         84.5637         95.5491         65.2043     9.99194E-03
           24871         80.6116         91.7200         59.2661         1.74002
           24872         81.1641         91.9382         61.7216     11.9763E-03
           24873         76.9942         87.7565         55.7662         1.90397
           24874         77.4356         87.9650         57.8707     13.5667E-03
           24875         73.1227         83.4982         52.0312         2.02014
           24876         73.4001         83.6432         53.6726     15.2610E-03
           24877         68.9292         78.8597         47.8620         2.30895
           24878         69.0877         78.9927         49.1521     19.9946E-03
           24879         64.3949         73.7970         43.4186         2.56205
           24880         64.5303         74.0310         44.3444     23.3189E-03
           24881         59.6939         68.5321         38.9167         2.53351
           24882         58.4850         67.3075         37.8957         1.26163
           24883         59.7637         68.7753         39.3030     21.6140E-03
           24884         42.0499         48.2433         22.5614         2.59444
           24885         36.8446         42.0860         15.6489     30.6424E-03
           24886         31.6213         35.6164         10.8436     25.6027E-03
           24887         25.7657         29.0710         10.0745         1.83745
           24888         26.3444         29.0090         6.57468     20.2737E-03
           24889         20.1212         22.5040         6.80158         1.32102
           24890         20.9129         22.2877         3.09451     10.0947E-03
           24891         14.0906         15.8028         4.90434     869.113E-03
           24892         15.1270         15.4741     719.725E-03    -3.63706E-03
           24893         6.56126         7.34062         5.24065     238.324E-03
           24894         7.71425         8.86239         3.76141     226.882E-03
           24895         9.44940         10.8236         5.70023     669.680E-03
           24896         120.897         41.5201         122.130        -31.8685
           24897         132.754         37.1995         135.822        -30.7932
           24898         102.218         46.3559         87.4892        -39.5854
           24899         114.379         40.8379         98.4073        -43.7778
           24900         98.0452         51.3896         71.3241        -43.0122
           24901         95.7897         50.4540         76.1103        -39.4856
           24902         81.9622         62.6490         52.8750        -33.2150
           24903         87.3022         60.8378         54.3041        -37.7502
           24904         81.2819         68.4603         43.7908        -31.6240
           24905         79.4183         66.1402         47.9594        -30.5760
           24906         71.3596         73.7566         42.9144        -18.0346
           24907         76.2797         82.3245         34.5531        -15.1869
           24908         78.0885         84.3344         32.3521        -14.9138
           24909         79.1198         84.2715         31.1223        -16.4558
           24910         87.0141         98.0880         30.7997        -2.74731
           24911         86.9193         98.0861         31.0889        -2.37697
           24912         87.5800         98.7179         30.7154        -2.14056
           24913         87.8024         99.0684         30.9721         1.12605
           24914         87.3712         98.6593         31.2219         1.36558
           24915         87.5159         98.7497         31.0060         1.63294
           24916         87.9459         99.1587         30.7562         1.39333
           24917         87.2262         98.1647         30.3434         3.16370
           24918         87.9226         98.7691         29.7843         3.14770
           24919         85.9624         96.2643         29.4415         5.47970
           24920         81.5870         89.7399         29.5863         11.2975
           24921         81.0326         89.7218         30.5962         10.4129
           24922         80.0540         88.0811         30.9539         11.8136
           24923         80.6881         88.0579         29.9114         12.8533
           24924         76.5302         82.4423         34.2451         15.3910
           24925         77.4450         82.3307         33.1585         16.8312
           24926         79.1254         84.2785         31.1121         16.4527
           24927         75.7203         80.2802         35.4963         17.1105
           24928         78.5639         82.1600         32.0828         18.5170
           24929         78.2346         77.3842         35.0906         23.2124
           24930         74.6701         75.4672         39.0964         20.8350
           24931         81.2652         68.4530         43.7988         31.6125
           24932         77.6559         69.3335         44.0629         27.9094
           24933         78.0465         59.9012         60.2779         28.7539
           24934         87.2271         60.7533         54.5718         37.6605
           24935         124.286         36.5406         116.816         39.7247
           24936         109.711         45.4143         108.652         32.1615
           24937         127.797         31.5502         134.226        -22.7628
           24938         112.977         38.3295         119.496        -23.0577
           24939         78.2683         58.2907         44.0071        -33.4500
           24940         76.1958         55.9130         48.6874        -31.7875
           24941         69.1193         70.8175         34.8281        -18.4012
           24942         70.8100         72.9135         32.1618        -18.3333
           24943         72.3447         72.7253         30.9213        -20.3094
           24944         69.5507         73.0493         33.4277        -16.5888
           24945         72.5234         74.9093         29.7558        -18.1826
           24946         71.1400         77.1736         31.1936        -13.4091
           24947         73.5132         78.7802         28.2105        -14.4275
           24948         78.0073         87.0770         27.0159        -6.46396
           24949         76.7564         86.0960         28.4473        -6.29760
           24950         78.5904         88.6983         28.7161        -3.24117
           24951         78.4013         88.6450         29.1574        -2.78888
           24952         79.1454         89.3361         28.5731        -2.53235
           24953         80.1341         90.3324         28.0202        -1.58490
           24954         80.9083         90.9852         27.3409        -1.62769
           24955         80.1561         90.4664         28.2966     77.7861E-03
           24956         79.7769         90.1361         28.6223     414.864E-03
           24957         80.1058         90.4020         28.2877     703.608E-03
           24958         79.8747         89.9902         27.9633         2.32442
           24959         80.6308         90.6306         27.2912         2.31178
           24960         80.4249         90.5232         27.6365         1.97358
           24961         78.6747         88.0242         27.0499         5.50124
           24962         77.2851         86.0101         27.0370         7.52110
           24963         75.7459         83.5094         27.1885         9.91482
           24964         74.4246         82.1019         28.3794         10.3748
           24965         73.5137         78.7816         28.2050         14.4249
           24966         71.9376         77.0401         30.0601         14.7430
           24967         70.1592         75.0847         32.3493         14.9116
           24968         72.9342         76.9217         28.8772         16.2258
           24969         68.8812         70.6046         35.1672         18.3107
           24970         72.3437         72.7192         30.9293         20.3147
           24971         73.0263         67.7525         34.3995         25.0982
           24972         72.9511         53.0997         55.5774         28.0747
           24973         81.6187         54.2991         49.1687         36.3569
           24974         118.273         27.5058         102.715         42.8442
           24975         116.109         29.2387         108.829         36.3531
           24976         129.200         22.8654         121.707         37.1489
           24977         112.703         33.5728         112.912         29.5315
           24978         20.9113         22.2872         3.09737    -6.84325E-03
           24979         20.4011         22.8319         6.97295        -1.35278
           24980         22.0196         24.8130         9.31828        -2.12620
           24981         26.3450         29.0105         6.57740    -16.3730E-03
           24982         38.7126         44.0283         20.7828        -3.79831
           24983         19.5568         9.84689         22.1089         2.19139
           24984         22.1401         11.2164         25.0449         2.45241
           24985         24.6978         12.8272         27.9682         2.70675
           24986         26.3039         15.3319         29.4567         3.68578
           24987         28.5411         10.8719         32.3793     26.2572E-03
           24988         31.6217         35.6178         10.8479    -23.5399E-03
           24989         5.18984         5.10572    -164.049E-03     22.3693E-03
           24990         4.80581         5.46779         3.54011     80.6314E-03
           24991         15.3023         17.2016         9.18659        -1.99138
           24992         18.0175         19.5726         12.5299        -3.15105
           24993         17.6846         19.6972         10.6995        -2.64791
           24994         14.3135         16.0822         5.16028    -930.388E-03
           24995         15.1224         15.4712     723.593E-03     8.02924E-03
           24996         6.28985         5.70941         6.72131     233.359E-03
           24997         8.75253         6.20463         9.91218     673.157E-03
           24998         11.5007         6.99269         13.0704         1.14476
           24999         6.70057         7.47528         5.40254    -268.177E-03
           25000         9.71842         11.1061         6.04330    -752.564E-03
           25001         13.1456         14.9380         7.08031        -1.32858
           25002         45.9723         52.2376         26.9259        -4.69846
           25003         51.7705         59.3013         31.5568        -3.60871
           25004         53.3924         60.8373         33.1131        -4.74681
           25005         54.1484         60.8923         33.9279        -6.80736
           25006         63.5918         72.7846         42.4232        -3.38353
           25007         64.7905         73.9408         43.1339        -4.44961
           25008         65.7850         75.2408         44.4311        -3.43457
           25009         72.4575         82.7120         50.3853        -3.54046
           25010         73.6263         83.9512         50.7742        -4.38021
           25011         74.5065         85.0291         52.4753        -3.13799
           25012         77.3158         88.1101         56.0616        -1.91692
           25013         77.4360         87.9644         57.8757    -16.5624E-03
           25014         81.1651         91.9382         61.7267    -13.8835E-03
           25015         84.5645         95.5494         65.2073    -12.7782E-03
           25016         92.4422         105.196         68.0051        -1.68773
           25017         94.6341         107.345         71.2992    -948.970E-03
           25018         94.6185         107.646         69.8832        -1.15950
           25019         93.9862         107.431         66.7108        -1.67926
           25020         96.7838         109.696         73.3408    -262.656E-03
           25021         96.4833         109.707         71.6489    -262.975E-03
           25022         96.8885         109.844         73.3070    -136.072E-03
           25023         96.5503         109.614         72.4178     336.098E-03
           25024         96.0410         109.373         70.5324     539.029E-03
           25025         96.3700         109.342         72.5527     467.850E-03
           25026         95.4832         108.621         70.6192     859.289E-03
           25027         96.2700         108.813         74.0827     438.932E-03
           25028         97.1659         108.902         77.8279     1.53475E-03
           25029         96.0457         107.714         76.7278     3.18340E-03
           25030         94.5230         106.100         75.2229     5.16012E-03
           25031         84.8350         96.6511         61.2294         2.85135
           25032         81.2608         92.5441         58.9869         2.47266
           25033         80.2109         91.4430         57.0568         3.36325
           25034         79.9794         91.1759         55.1312         4.85980
           25035         71.1004         81.1437         48.8825         3.99906
           25036         63.2535         72.3166         41.9734         3.86970
           25037         62.1421         70.8001         40.6587         4.98303
           25038         60.8802         69.6649         39.8541         3.70939
           25039         57.4296         65.4986         36.6074         4.68054
           25040         57.2782         65.8150         36.6049         2.47702
           25041         57.3144         66.0436         36.7125     21.6928E-03
           25042         52.3125         60.3884         31.4310     22.2193E-03
           25043         47.2081         54.4947         26.0863     24.8394E-03
           25044         34.2323         38.5410         18.3289         4.35529
           25045         17.5215         19.7597         9.03184         2.11741
           25046         18.6127         20.5278         11.8795         3.04296
           25047         11.5286         12.9407         8.00562         1.28503
           25048         13.0520         14.3427         9.67190         1.80892
           25049         8.74441         8.61829    -246.696E-03    -30.6656E-03
           25050         10.9058     69.7681E-03         10.9405     12.5272E-03
           25051         9.92705         4.61397         11.3412    -566.712E-03
           25052         16.3557         1.77187         17.1695    -3.88500E-03
           25053         15.5350         6.14446         17.5324        -1.14364
           25054         21.3536         4.74559         23.3271    -14.0804E-03
           25055         16.2814         10.0758         18.2180        -2.25292
           25056         26.1589         8.65888         29.3905    -20.8266E-03
           25057         30.9255         13.2137         35.3372    -25.3713E-03
           25058         35.7135         18.1609         41.1442    -27.2251E-03
           25059         36.9055         20.5066         42.5336        -1.23913
           25060         42.0420         27.3748         47.4494         4.67699
           25061         42.0796         26.8162         47.9688        -3.50799
           25062         43.5363         28.5568         49.2372        -4.53414
           25063         47.2889         31.5147         53.9103         3.45018
           25064         48.7987         33.1065         55.2620         4.50622
           25065         56.7995         40.3743         64.9489    -24.7117E-03
           25066         56.6703         39.9144         64.6945        -2.25255
           25067         52.3294         36.1161         59.3763        -4.19875
           25068         52.4248         36.4810         58.8008        -5.91812
           25069         60.1711         42.9074         68.5802         2.50799
           25070         58.2553         41.2461         66.3845         2.80730
           25071         61.0455         44.4823         69.5967    -16.9338E-03
           25072         60.8222         43.6082         69.3767        -1.81903
           25073         56.6765         39.7738         64.2447        -4.40237
           25074         65.0042         48.0317         73.9684    -11.1502E-03
           25075         64.6746         46.7984         73.7347        -1.47962
           25076         60.8565         43.2051         69.2415        -3.36805
           25077         61.8258         43.8815         70.2872        -3.69085
           25078         61.1552         43.2446         69.3228        -4.54762
           25079         65.7753         47.0436         74.9893         2.42608
           25080         66.6540         47.2321         76.0026         2.90119
           25081         67.6052         48.3929         77.1333         1.97907
           25082         68.6371         50.9407         78.0520    -9.82325E-03
           25083         70.7191         49.5314         80.8788         2.04028
           25084         70.0293         49.4927         80.0284         1.90184
           25085         71.9096         53.1468         81.8233    -5.63770E-03
           25086         71.4256         51.3078         81.5538    -903.568E-03
           25087         71.5236         50.2985         81.8145         1.55054
           25088         72.3549         51.2970         82.7299         1.06623
           25089         73.7503         51.8767         84.4079     822.155E-03
           25090         74.8090         54.5912         85.2718    -595.339E-06
           25091         75.0697         52.2854         86.0104     576.309E-03
           25092         76.3170         52.5331         87.5378     325.225E-03
           25093         77.3372         55.2442         88.3848     5.39310E-03
           25094         76.7393         51.8373         88.1552     264.615E-03
           25095         79.5135         55.1254         91.1496     10.3191E-03
           25096         81.3671         54.3308         93.5486     12.3558E-03
           25097         81.6823         53.2653         94.0406     295.648E-03
           25098         82.9263         50.4713         95.6731        -1.26871
           25099         83.1059         50.9159         95.8795         1.01033
           25100         83.4144         50.1641         96.2537         1.32148
           25101         84.6402         49.5358         97.7067        -1.08812
           25102         86.3400         47.7819         99.6686     5.89129E-03
           25103         86.4122         47.5194         99.7396     434.776E-03
           25104         85.8194         48.0059         99.0520         1.18061
           25105         85.9090         47.5125         99.1146         1.67253
           25106         86.6134         47.2964         99.9644    -600.542E-06
           25107         86.6971         47.1337         100.053     61.8712E-03
           25108         86.6706         46.9900         100.004     852.742E-03
           25109         86.5206         47.5823         99.8684    -8.27852E-03
           25110         86.6096         47.3326         99.9599    -279.007E-03
           25111         86.9289         46.7613         100.300     116.171E-03
           25112         87.0672         46.5684         100.448    -54.5533E-03
           25113         87.2387         46.3093         100.628     102.551E-03
           25114         86.0702         48.5897         99.3773    -16.0006E-03
           25115         51.5904         58.0543         35.3702         5.58592
           25116         52.5293         59.4610         36.2563         4.65577
           25117         52.7953         58.9872         36.3734         6.59278
           25118         57.0531         64.3859         40.4049         5.11430
           25119         55.7699         63.3134         39.5105         3.74879
           25120         59.1646         67.3010         43.8181     23.0128E-03
           25121         63.4732         71.8109         48.6036     15.9815E-03
           25122         85.3059         50.1152         98.4977    -17.3778E-03
           25123         85.3896         49.2113         98.5871    -778.108E-03
           25124         84.2669         51.8775         97.2301    -15.5335E-03
           25125         82.9746         53.5589         95.5789    -13.0273E-03
           25126         81.4212         54.8745         93.5508    -11.4056E-03
           25127         79.5736         55.6229         91.1480    -5.85403E-03
           25128         78.9267         54.6197         90.4916    -49.6934E-03
           25129         76.3469         52.5516         87.5713     387.470E-03
           25130         75.5700         51.5670         86.7353     667.079E-03
           25131         66.8714         49.6029         76.0503     20.8416E-03
           25132         66.7499         47.9829         76.1585         1.56789
           25133         70.0594         49.1663         80.1125         1.98499
           25134         70.0306         48.2041         80.1338         2.70803
           25135         63.0533         46.2662         71.8188     17.0106E-03
           25136         63.0316         45.1677         71.9198         1.71769
           25137         66.6742         46.6981         76.0968         3.03237
           25138         58.9336         42.3544         67.3048     18.4543E-03
           25139         59.0556         41.7675         67.4521         1.87579
           25140         62.9053         44.2573         71.7016         3.19199
           25141         61.9301         43.3455         70.4937         3.77379
           25142         62.5835         43.5182         71.1386         4.39610
           25143         54.5608         37.9516         62.5262     24.8012E-03
           25144         49.9943         33.1845         57.5009     22.4240E-03
           25145         50.4702         33.7538         57.8429         2.20144
           25146         45.2938         28.1614         52.2478     22.0475E-03
           25147         40.5225         23.0174         46.7893     26.2334E-03
           25148         35.7309         17.8911         41.1422     35.2661E-03
           25149         30.9615         12.9713         35.3374     25.9034E-03
           25150         29.7917         13.3529         34.0632         1.12337
           25151         18.9228         3.01912         20.2508     9.07686E-03
           25152         18.5108         7.72285         20.8923         1.61925
           25153         22.3442         14.0697         24.4246         4.01622
           25154         24.3125         14.4921         26.8621         4.03292
           25155         14.6772         7.97223         16.5821         1.74112
           25156         17.8122         9.72770         20.0005         2.39342
           25157         7.95000    -237.327E-03         7.82839    -39.1925E-03
           25158         7.20925         4.08593         8.30832     256.412E-03
           25159         13.8352         9.36353         15.3539         1.98018
           25160         50.3369         57.0083         34.2031         4.61390
           25161         6.66597         5.99068         7.13598     352.858E-03
           25162         47.6740         54.8986         30.9735     21.6953E-03
           25163         67.5580         76.0406         53.1017     15.9550E-03
           25164         71.3847         79.9696         57.2887     14.7828E-03
           25165         73.5237         82.8856         54.8958         4.90677
           25166         74.9222         83.5809         61.1298     12.1382E-03
           25167         78.1484         86.8635         64.6028     9.82785E-03
           25168         81.0419         89.8047         67.6866     10.4067E-03
           25169         83.5891         92.3899         70.3864     9.70082E-03
           25170         87.5943         96.4555         74.5907     4.60305E-03
           25171         89.0363         97.9216         76.0897     2.61389E-03
           25172         90.0970         99.0023         77.1848     1.14426E-03
           25173         89.7350         99.1789         75.5686     200.358E-03
           25174         89.0002         98.9094         73.6035     436.495E-03
           25175         86.7905         97.9369         67.1990         1.47421
           25176         84.9834         48.8126         98.0909        -1.38514
           25177         85.0938         48.0863         98.1750        -1.93286
           25178         90.4829         99.3963         77.5807     229.862E-06
           25179         88.3993         99.3822         69.8372     566.606E-03
           25180         90.9670         99.8905         78.0773     69.9088E-06
           25181         86.7784         46.9941         100.140    -155.719E-03
           25182         86.6712         47.1269         100.021    -385.539E-03
           25183         91.0642         99.9867         78.1834    -1.25202E-03
           25184         86.9273         46.7751         100.298     240.880E-03
           25185         87.0686         46.5677         100.449     77.0203E-03
           25186         87.2371         46.3075         100.625     244.996E-03
           25187         90.7736         99.6913         77.8825    -3.78512E-03
           25188         86.6859         47.1182         100.032     651.179E-03
           25189         86.6551         47.0392         99.9838     969.579E-03
           25190         86.3679         47.5837         99.6811     829.981E-03
           25191         90.0975         99.0034         77.1840    -4.81282E-03
           25192         85.8017         48.1217         99.0305         1.25462
           25193         85.8732         47.5083         99.0692         1.73907
           25194         86.3788         97.5996         66.3586        -1.70495
           25195         89.0366         97.9223         76.0891    -5.77524E-03
           25196         85.0418         49.3582         98.1744         1.06128
           25197         84.4653         49.9822         97.4977         1.08106
           25198         87.5946         96.4551         74.5927    -7.32841E-03
           25199         83.8186         50.5780         96.7282         1.06531
           25200         83.3997         50.2708         96.2333         1.32230
           25201         83.1027         51.1234         95.8668         1.00756
           25202         85.7771         94.6100         72.6902    -11.1845E-03
           25203         83.5899         92.3902         70.3881    -11.0014E-03
           25204         78.1493         86.8637         64.6059    -12.5676E-03
           25205         74.9236         83.5808         61.1356    -13.6760E-03
           25206         73.3999         51.5761         84.0084    -976.972E-03
           25207         71.3856         79.9684         57.2959    -16.5250E-03
           25208         70.3399         79.0861         55.4711        -1.00724
           25209         71.1590         80.0878         55.6014        -1.91733
           25210         72.7384         81.9888         54.4102        -4.80525
           25211         72.4242         50.3387         82.9464        -1.48302
           25212         69.5072         78.0436         55.2439    -18.0816E-03
           25213         67.5661         76.2035         50.3551        -4.46483
           25214         65.5471         73.9638         50.8899    -21.4979E-03
           25215         61.3454         69.5901         46.2483    -17.3378E-03
           25216         60.8019         42.6103         69.2594        -3.44187
           25217         61.7660         43.2180         70.3046        -3.78309
           25218         61.0899         42.4309         69.3470        -4.65619
           25219         56.9381         64.9432         41.3447    -21.4648E-03
           25220         57.6895         40.1736         65.7220        -3.41864
           25221         56.6279         39.0374         64.2891        -4.44932
           25222         55.5026         38.3308         63.2754        -3.31215
           25223         52.3662         60.0404         36.2313    -21.1881E-03
           25224         52.2687         35.3920         59.3981        -4.22351
           25225         52.3563         35.5115         58.8618        -5.93500
           25226         50.0576         55.9473         34.0084        -6.37108
           25227         47.6752         54.8991         30.9841    -19.7931E-03
           25228         48.9072         32.3750         55.8523        -3.29188
           25229         46.6605         30.3151         53.2882        -3.36651
           25230         42.9126         49.5400         25.6821    -21.8483E-03
           25231         44.3747         28.2352         50.6647        -3.44020
           25232         43.4855         27.7677         49.2568        -4.52616
           25233         42.0488         26.1473         47.9834        -3.49514
           25234         38.1241         43.9850         20.4309    -31.0274E-03
           25235         33.3482         38.2583         15.3439    -27.9811E-03
           25236         27.1759         30.5109         15.0655        -3.66540
           25237         18.9287         20.2509         3.00335    -8.22124E-03
           25238         24.5795         26.5293         16.0758        -4.77487
           25239         13.7306         14.0587     681.669E-03     6.38890E-03
           25240         11.7248         12.7759         2.56581    -384.106E-03
           25241         12.9456         14.6509         5.38339    -971.254E-03
           25242         19.1086         20.3737         13.7076        -3.71601
           25243         15.8648         17.0809         11.6607        -2.77717
           25244         18.0588         18.6524         14.2298        -3.70322
           25245         15.8742         8.58920         17.8996        -1.96339
           25246         13.8431         15.3639         9.37019        -1.97858
           25247         10.9243         10.9383     28.1845E-03     16.5638E-03
           25248         10.3111         7.66935         11.4588        -1.16577
           25249         11.9395         9.10929         13.0557        -1.63792
           25250         6.66662         7.13603         5.99232    -352.947E-03
           25251         7.96687    -254.070E-03         7.83653     37.7101E-03
           25252         7.96713         7.83659    -254.452E-03    -37.7029E-03
           25253         10.3083         11.4557         7.66992         1.16387
           25254         11.9356         13.0508         9.11216         1.63545
           25255         13.7544         14.0713     657.456E-03    -4.33365E-03
           25256         15.8740         17.9005         8.60172         1.96143
           25257         16.7523         18.2555         11.5684         2.87139
           25258         18.9479         20.2612         2.97977     8.66385E-03
           25259         23.8288         26.3727         6.39122     15.7237E-03
           25260         28.5950         32.3799         10.5926     21.0299E-03
           25261         33.3496         38.2586         15.3337     24.7395E-03
           25262         41.2623         46.6011         26.0441         4.70135
           25263         42.9128         49.5405         25.6693     23.7419E-03
           25264         8.78777         8.02010         9.17024     886.089E-03
           25265         9.44188         9.66997         8.77078         1.08425
           25266         19.9657         12.2398         22.0605         3.27439
           25267         28.5839         10.6504         32.3800     21.4798E-03
           25268         78.5286         55.7338         89.8108    -2.77578E-03
           25269         82.1854         53.7193         94.6100     13.3916E-03
           25270         38.1164         20.7155         43.9882    -27.0669E-03
           25271         28.5933         32.3796         10.5998    -20.2289E-03
           25272         81.0433         89.8040         67.6934    -11.6449E-03
           25273         85.7762         94.6091         72.6894     7.07474E-03
           25274         53.5284         60.8715         37.3281         3.59541
           25275         51.2870         58.3987         35.1302         3.52965
           25276         38.1262         43.9865         20.4130     25.3652E-03
           25277         49.5809         33.6004         56.4992         3.44085
           25278         51.8574         35.6516         59.0690         3.41160
           25279         57.5278         40.4968         65.3181         4.00740
           25280         61.1500         43.4749         69.6078         3.17273
           25281         62.0435         44.4348         70.7100         2.38190
           25282         63.8965         45.8167         72.8217         2.38383
           25283         69.2922         49.5637         79.1064         1.61641
           25284         70.8758         50.5325         80.9707         1.32272
           25285         78.4670         55.2783         89.8107    -3.04573E-03
           25286         85.2175         48.8922         98.3771        -1.06365
           25287         85.7235         48.2891         98.9559    -984.874E-03
           25288         86.7228         46.9724         100.068    -663.433E-03
           25289         86.9024         46.8052         100.272    -56.3182E-03
           25290         86.8228         46.9497         100.188     64.8226E-03
           25291         86.7995         46.9952         100.162     319.487E-03
           25292         85.9900         48.1293         99.2598     938.535E-03
           25293         85.5482         48.7311         98.7590         1.01366
           25294         82.2321         54.2837         94.6109     14.2396E-03
           25295         71.9369         50.8354         82.2679        -1.26340
           25296         70.3857         49.9207         80.4384        -1.55794
           25297         65.9247         46.3994         75.2254        -2.86985
           25298         65.3186         46.5975         74.5236        -2.16271
           25299         63.5809         45.3122         72.5319        -2.23910
           25300         62.5967         44.1104         71.3613        -3.05274
           25301         61.7503         43.7953         70.4413        -2.45585
           25302         59.8028         42.0641         68.2023        -2.84634
           25303         53.3186         36.3996         60.8339        -3.24065
           25304         51.1207         34.4062         58.3611        -3.24048
           25305         38.1268         20.4268         43.9878    -26.6142E-03
           25306         33.9215         19.9918         38.1843        -4.33320
           25307         16.9791         7.56447         19.1773        -1.66999
           25308         14.3240         6.34315         16.2100        -1.29121
           25309         54.2792         62.1749         33.8221        -3.62672
           25310         56.7391         64.9854         36.0654        -3.61626
           25311         68.0414         77.7389         46.3720        -3.68967
           25312         70.2425         80.2328         48.4389        -3.50112
           25313         76.4158         87.1614         54.4001        -2.85642
           25314         78.2418         89.1905         56.1818        -2.66654
           25315         87.6145         98.7834         68.3040    -11.7824E-03
           25316         95.2452         108.032         71.8036    -819.723E-03
           25317         95.7622         108.614         72.2317    -683.076E-03
           25318         96.8345         109.875         72.8959     5.63422E-03
           25319         96.8094         109.820         72.9826     158.180E-03
           25320         96.0712         108.961         72.4863     587.993E-03
           25321         95.6530         108.473         72.2157     710.076E-03
           25322         92.6048         104.069         73.3152     7.45197E-03
           25323         79.5263         90.6202         57.3386         2.62894
           25324         77.7160         88.6088         55.6219         2.77180
           25325         72.0710         82.3156         50.4179         2.97700
           25326         70.0560         80.0565         48.4576         3.16306
           25327         67.8873         77.5890         46.3084         3.52067
           25328         65.6030         75.0234         44.2178         3.53055
           25329         58.5168         67.0094         37.7003         3.60201
           25330         56.1296         64.3047         35.5121         3.55555
           25331         42.0414         48.3851         20.7817     28.2853E-03
           25332         32.4169         35.9131         18.5103         5.26729
           25333         25.8957         29.0654         13.1885         3.42446
           25334         18.7210         21.0921         7.78393         1.75005
           25335         15.8016         17.8586         6.92093         1.46740
           25336         12.7068         14.4615         6.58911         1.18326
           25337         132.076         33.5946         144.852        -8.15552
           25338         128.344         32.9094         141.540        -2.12405
           25339         122.832         34.6789         134.954        -10.8401
           25340         129.312         34.8240         139.563         17.2330
           25341         146.031         30.1937         157.421         11.3282
           25342         137.002         33.9509         150.609        -3.95927
           25343         130.199         34.3911         142.837        -9.63818
           25344         102.566         39.9672         106.246         25.0370
           25345         100.967         49.4354         102.344         27.9017
           25346         138.635         22.7820         140.289        -27.1768
           25347         107.790         47.7830         111.324        -27.4572
           25348         93.3484         39.4181         85.2265        -32.9445
           25349         107.905         33.6100         86.5698        -44.4561
           25350         83.1631         54.3121         78.2373         26.4225
           25351         79.3812         55.8043         76.2323         23.3094
           25352         92.5828         50.7572         80.1200        -34.8460
           25353         84.2080         54.0052         77.1454        -28.2209
           25354         105.502         46.0447         83.3747        -44.3403
           25355         88.6429         41.6585         78.2922         32.9342
           25356         99.4307         39.4441         73.8581         43.9275
           25357         82.7908         44.3278         80.9172         25.3551
           25358         78.5598         46.3907         78.7020         22.1854
           25359         76.6869         47.4416         68.6479        -26.9221
           25360         73.9710         48.0176         72.0326        -21.8797
           25361         71.8445         49.2685         68.2818        -21.8783
           25362         72.7003         49.6560         64.8675        -24.7175
           25363         74.7449         62.1238         57.0905         25.9152
           25364         72.4444         61.2958         60.5395         22.6333
           25365         72.4639         51.3166         59.8231         26.5125
           25366         70.6653         50.6718         63.6154         23.1123
           25367         73.0139         63.5632         55.3181        -24.1306
           25368         72.0575         62.2957         58.3122        -22.6849
           25369         73.9731         53.7475         53.6720        -29.3671
           25370         81.6876         54.4088         49.0483        -36.4027
           25371         71.9310         63.6699         55.6828         22.8397
           25372         77.6224         63.9456         52.4042        -29.1033
           25373         83.7850         64.8538         48.4177        -34.6877
           25374         75.7505         61.7623         39.9939         30.5186
           25375         66.0981         57.6621         51.1337         21.4310
           25376         79.6196         71.7159         40.1561         28.6556
           25377         66.0725         68.9431         38.7191         16.1520
           25378         67.6486         70.9397         36.1241         16.3460
           25379         66.3907         69.2957         38.2186        -16.2640
           25380         67.9287         71.1929         35.7348        -16.4617
           25381         72.7611         78.4391         39.1036        -15.0517
           25382         74.5081         80.4138         36.7175        -15.1601
           25383         73.2594         78.7121         38.4921         15.4865
           25384         74.8998         80.6091         36.2511         15.4938
           25385         68.1967         73.1420         34.8746         14.5556
           25386         75.8301         82.6666         35.0887         13.9747
           25387         73.7421         80.6293         37.6684        -13.6025
           25388         66.9783         71.5155         36.6892        -14.7126
           25389         75.2453         82.8222         35.9554         12.7470
           25390         79.8467         86.2344         30.4160        -14.5705
           25391         70.6893         77.5502         31.9325        -12.1055
           25392         70.5221         77.8712         32.3664         11.2882
           25393         74.9589         82.0663         27.3989         11.2811
           25394         81.5802         89.7344         29.5947        -11.2971
           25395         80.5112         89.6458         31.5923         9.65610
           25396         82.5106         91.2903         29.3934         9.89002
           25397         78.6076         88.0715         33.6805         9.21014
           25398         71.7778         79.3750         31.0858        -10.8438
           25399         71.4994         79.6435         31.8072        -9.84231
           25400         73.3119         82.8987         31.7227         6.47746
           25401         72.6622         82.0415         32.0002         7.07842
           25402         79.8122         89.5638         27.1633        -3.79993
           25403         78.8024         88.7415         28.1932        -3.73376
           25404         78.2356         88.1771         28.5665         4.01945
           25405         77.4403         87.4209         29.1886         4.25471
           25406         77.9917         87.9707         28.8110        -4.01293
           25407         77.1262         87.1307         29.4606        -4.30843
           25408         86.3872         97.3646         30.8513        -3.41056
           25409         85.5935         96.5866         31.3012        -3.68691
           25410         79.3226         89.4653         28.3509         2.62573
           25411         78.8403         88.8921         28.4283         3.31016
           25412         78.1218         88.2054         28.9571         3.58147
           25413         87.7077         98.8154         30.5782         2.21618
           25414         87.2019         98.2391         30.6150         2.80275
           25415         86.5433         97.5956         30.9656         3.05923
           25416         78.3215         88.6879         29.5331        -2.28990
           25417         77.5602         87.8890         29.9346        -2.94092
           25418         77.4862         87.9361         30.3056        -2.44210
           25419         86.9124         98.1665         31.3406        -1.95507
           25420         86.1616         97.3909         31.6342        -2.51665
           25421         86.1586         97.4751         31.8824        -2.09435
           25422         87.7964         99.0866         31.0451    -895.262E-03
           25423         87.9007         99.1380         30.8427        -1.23678
           25424         87.4424         98.7181         31.1597        -1.41426
           25425         87.3367         98.6664         31.3621        -1.07228
           25426         80.9088         90.9858         27.3414         1.62678
           25427         80.1828         90.3637         27.9525         1.65691
           25428         79.6901         89.9029         28.3090         1.96929
           25429         79.1364         89.3781         28.6964         2.27066
           25430         79.2055         89.6214         29.1194        -1.04970
           25431         79.3783         89.7138         28.7906        -1.45604
           25432         78.8530         89.2493         29.2805        -1.65957
           25433         78.6795         89.1566         29.6093        -1.25277
           25434         89.0850         100.199         30.0743         1.32922
           25435         88.5253         99.6774         30.3633         1.38389
           25436         88.0966         99.2587         30.5624         1.65808
           25437         87.6034         98.7749         30.7902         1.92774
           25438         88.5441         99.7762         30.5762    -464.924E-03
           25439         80.0974         90.4036         28.3177    -552.106E-03
           25440         87.7454         99.0722         31.1698     390.687E-03
           25441         87.9890         99.2755         30.9513     622.033E-03
           25442         79.0926         89.5669         29.3455     462.734E-03
           25443         79.4083         89.8166         28.9774     734.343E-03
           25444         88.3761         99.5773         30.5572         1.11910
           25445         88.1767         99.4185         30.7400     869.387E-03
           25446         79.9517         90.2152         28.2891         1.33173
           25447         79.6707         90.0069         28.6228         1.02790
           25448         79.5974         89.8447         28.4472        -1.84991
           25449         79.9158         90.2009         28.3635        -1.19109
           25450         78.9562         89.2555         28.9496        -2.11157
           25451         88.0380         99.2211         30.6432        -1.55969
           25452         88.3601         99.5745         30.5990        -1.00278
           25453         87.4771         98.6859         30.9478        -1.79608
           25454         122.293         33.6897         135.101        -6.31527
           25455         116.060         35.9822         127.601        -12.7105
           25456         128.855         32.9544         142.114         1.22985
           25457         125.118         35.8540         136.828        -13.5752
           25458         79.1598         89.3369         34.0826         7.49226
           25459         79.7243         90.2198         34.1232         6.59686
           25460         78.5898         89.0111         34.9283         6.88936
           25461         77.8350         87.9588         35.1664         7.70386
           25462         78.2355         88.0704         34.4228         8.38837
           25463         80.5058         90.9919         33.5187        -6.53418
           25464         79.5401         89.9478         34.1249        -6.85505
           25465         71.6441         80.4605         32.2740         8.44891
           25466         71.9652         81.1875         32.4391         7.50395
           25467         71.0358         80.1274         33.2116         7.82786
           25468         70.5784         79.2883         33.2761         8.67533
           25469         71.2955         80.3324         32.8871        -7.96024
           25470         72.4915         81.5355         31.7033        -7.89144
           25471         71.3936         80.0245         32.3339        -8.85323
           25472         69.1125         76.9207         34.2281         10.3445
           25473         82.1560         93.0054         33.0311         5.18390
           25474         83.3813         94.2519         32.2890         4.82130
           25475         82.5956         93.5922         33.0697         4.61888
           25476         75.5838         85.1912         29.8399        -5.97347
           25477         74.5952         84.2172         30.6687        -6.16891
           25478         74.5234         84.3804         31.1575        -5.53690
           25479         75.5127         85.3546         30.3283        -5.34223
           25480         81.4078         92.5396         34.1569        -4.38982
           25481         81.4933         92.4845         33.7865        -4.86392
           25482         80.7217         91.7434         34.3838        -4.87776
           25483         83.9843         94.6979         31.5691        -5.11795
           25484         83.1088         93.8500         32.1755        -5.28085
           25485         83.1227         94.0359         32.5485        -4.75939
           25486         83.9993         94.8838         31.9406        -4.59652
           25487         73.7944         83.5713         31.6222         5.89373
           25488         74.9968         84.8231         30.7126         5.52065
           25489         89.8284         52.8775         91.2994         24.2571
           25490         95.1404         51.1607         96.2140         26.4544
           25491         90.0230         44.4494         94.2510         21.8674
           25492         95.9362         42.1307         99.5267         23.9188
           25493         85.6773         53.6611         84.2171        -25.0848
           25494         83.9288         94.9684         32.3515        -4.11510
           25495         84.7716         95.7892         31.8118        -3.91111
           25496         75.3580         85.4055         30.8703        -4.76945
           25497         76.2525         86.2830         30.1517        -4.55129
           25498         88.1702         99.4254         30.7798    -697.921E-03
           25499         87.5172         98.8885         31.4173     178.034E-03
           25500         87.2139         98.6188         31.6615     429.426E-03
           25501         79.6462         90.0037         28.6925    -821.176E-03
           25502         78.7987         89.3392         29.7372     217.647E-03
           25503         78.4391         89.0291         30.1172     510.459E-03
           25504         86.8777         98.2000         31.5531        -1.57151
           25505         78.2191         88.6832         29.8644        -1.83618
           25506         86.2799         97.3768         31.2122        -3.00652
           25507         77.7790         87.9269         29.3336        -3.52069
           25508         77.4156         87.5494         29.5509         3.74981
           25509         77.3880         87.6472         29.8691         3.29907
           25510         85.8908         96.9782         31.3865         3.22200
           25511         85.9342         97.1129         31.6058         2.83930
           25512         85.3932         96.6546         32.1134        -2.73980
           25513         85.5092         96.6367         31.6914        -3.23328
           25514         76.7395         87.1057         30.5943        -3.18720
           25515         76.9540         87.1397         29.9951        -3.77081
           25516         76.5221         86.7294         30.3505         3.86305
           25517         76.5414         86.5980         29.9940         4.36502
           25518         85.0591         96.2034         31.9734         3.34703
           25519         85.0006         96.0330         31.7197         3.77520
           25520         65.9697         72.6798         37.8387        -11.3722
           25521         66.1942         71.9930         37.5023        -12.8084
           25522         72.0625         78.8080         39.7662        -13.3522
           25523         71.4483         79.1283         40.5846        -11.6597
           25524         65.5057         69.7781         38.8624        -14.4161
           25525         64.7478         70.2607         39.6629        -12.5074
           25526         70.4091         74.3519         43.2175        -16.0706
           25527         71.1781         76.6357         41.3005        -14.7497
           25528         64.7696         67.2035         40.9819         15.8473
           25529         64.2492         64.8342         43.3001         16.9009
           25530         71.7664         76.9992         40.5627         15.2698
           25531         70.9162         74.7245         42.5380         16.4772
           25532         64.7706         65.2981         42.4470        -17.3335
           25533         65.0559         67.5787         40.4632        -15.9434
           25534         69.9966         50.3945         65.2760        -21.5136
           25535         67.4343         51.7782         63.6675         19.2305
           25536         69.3441         50.5894         65.5540         20.5615
           25537         71.2708         61.3042         61.2759        -21.0005
           25538         74.1356         59.9210         62.7246        -24.0119
           25539         70.6034         62.7119         58.3484         20.8698
           25540         70.9046         60.8360         62.6808         20.0898
           25541         76.8092         86.5917         35.6930         8.52957
           25542         70.1507         78.7609         33.6425        -8.86464
           25543         66.1513         52.6889         62.0109         18.4554
           25544         65.0872         52.8759         63.0263         16.3375
           25545         66.3486         51.9770         64.6834         17.1138
           25546         71.8377         49.3304         74.3728         16.9774
           25547         74.1543         48.1029         74.4998         20.1527
           25548         76.8253         57.6840         67.7393        -25.1233
           25549         71.7420         74.0387         42.3957         18.3186
           25550         63.3457         58.4915         51.7523         17.7030
           25551         70.2130         72.3457         44.9144         17.5881
           25552         68.7345         70.7397         47.5834         16.5548
           25553         109.476         37.6652         120.951        -12.8177
           25554         107.958         39.1892         118.198        -16.1293
           25555         100.813         41.9974         106.965        -21.9855
           25556         100.861         48.8405         105.288        -24.7942
           25557         100.393         42.4760         108.799         18.7852
           25558         98.4654         42.6109         107.785         16.8809
           25559         103.684         40.7166         113.575         16.5105
           25560         109.866         41.6294         119.394         18.7333
           25561         106.215         41.6837         116.512         16.5905
           25562         111.758         39.1737         122.743         15.2489
           25563         108.614         41.5867         118.467        -17.8867
           25564         109.673         39.7167         120.653        -15.1171
           25565         105.573         41.3513         116.222        -15.6439
           25566         102.753         43.3159         112.626        -17.0869
           25567         103.112         40.3839         113.610        -15.0787
           25568         100.307         41.9404         109.731        -16.9691
           25569         107.917         38.8590         118.472         15.3216
           25570         100.952         40.9677         111.451         14.8051
           25571         112.682         36.8458         124.258         12.6207
           25572         71.6096         79.6523         40.3766         11.0944
           25573         70.3411         78.1500         42.0129         10.9341
           25574         62.6391         68.0660         42.9572         11.0947
           25575         63.8575         54.4418         59.4338         16.5044
           25576         62.9114         54.9443         59.1957        -15.1361
           25577         63.1397         53.9464         62.1498        -13.7425
           25578         68.7447         61.6532         62.4228        -17.0945
           25579         70.0508         65.0464         54.2490         20.5087
           25580         68.4285         66.1997         53.4734         18.0792
           25581         28.5578         31.2345         17.8070        -5.13349
           25582         74.3153         83.6042         37.7492         9.38236
           25583         72.8748         82.0846         39.3185         9.20801
           25584         73.0222         81.7461         38.8692         10.2697
           25585         66.5732         74.6917         37.4831        -9.08921
           25586         65.9520         74.5738         38.6231        -7.67992
           25587         66.8630         75.4415         37.4067        -8.20565
           25588         66.3886         73.8973         37.4334        -10.1916
           25589         65.9587         73.1897         37.9361         10.5071
           25590         67.2499         74.5845         36.2892         10.7920
           25591         66.4395         74.0428         37.4091         10.0382
           25592         68.1046         75.8726         35.3835         10.2344
           25593         67.2490         75.0212         36.4564         10.0030
           25594         83.0778         94.1440         32.9274        -4.26295
           25595         83.7917         94.9833         32.8107        -3.61274
           25596         74.5291         84.5821         31.5405        -4.94682
           25597         74.3111         84.5585         32.1521        -4.35788
           25598         75.1357         85.3799         31.4862        -4.18560
           25599         61.3284         65.9657         45.5523         10.6391
           25600         61.7169         65.6651         45.2224         11.8539
           25601         61.9479         66.9352         44.2556         10.9685
           25602         63.7487         62.2268         46.3591         17.5815
           25603         68.5159         75.7548         44.6060         10.7246
           25604         68.6153         75.2875         44.5741         11.6744
           25605         69.5017         76.9015         43.1650         11.1488
           25606         119.115         34.3445         132.100         5.63309
           25607         125.096         33.2379         138.272         2.65167
           25608         126.958         33.3566         140.076        -4.34734
           25609         121.582         34.6245         134.236        -8.40312
           25610         84.6871         95.8397         32.2015        -3.45952
           25611         76.0816         86.2924         30.6869        -4.01617
           25612         76.5218         86.6790         36.3728         7.57451
           25613         75.4576         85.2172         36.9600         8.47465
           25614         75.9680         86.6855         37.6783        -5.86733
           25615         75.8766         86.1815         37.1755        -7.11397
           25616         75.1817         85.6342         38.0320        -6.56987
           25617         68.5892         77.1717         35.3576         8.70737
           25618         68.3757         77.2715         35.8692         7.94613
           25619         67.4438         76.2675         36.9124         7.84491
           25620         84.3743         95.2815         31.7717         4.40673
           25621         83.6381         94.6330         32.4194         4.35334
           25622         73.5490         82.9188         31.1703        -6.99844
           25623         72.3997         81.7799         32.2509        -7.09717
           25624         81.0677         91.7722         33.4998        -5.82955
           25625         82.0148         92.6085         32.6070        -5.96014
           25626         75.9785         85.8642         30.0549         5.07999
           25627         75.1804         85.1728         30.8958         4.98729
           25628         94.3405         51.0213         99.0137         22.6940
           25629         93.0327         50.5273         99.1102         20.7125
           25630         97.7066         48.7466         104.230         21.5041
           25631         98.9555         49.2681         104.084         23.5192
           25632         100.746         49.5597         104.147         25.8741
           25633         94.7491         51.3525         97.9013         24.3798
           25634         95.8725         43.9376         102.825         20.0487
           25635         101.254         42.2720         108.525         20.6186
           25636         95.7725         43.4907         101.407         21.6630
           25637         102.456         41.3087         108.148         22.8195
           25638         91.6503         52.1207         95.5252        -22.6346
           25639         85.0081         54.0640         88.8890        -20.0656
           25640         68.8904         77.1178         34.7287         9.50177
           25641         71.1339         68.7785         48.2185        -20.9834
           25642         68.3027         68.0220         50.9900        -17.3851
           25643         66.4591         59.3601         48.2797        -21.8185
           25644         63.4653         59.1628         50.6426        -17.8801
           25645         75.3382         47.5507         74.9891        -21.2697
           25646         72.1950         49.0486         73.8345        -18.0397
           25647         70.8072         49.5195         70.9033        -18.6664
           25648         79.8847         55.7647         73.2419        -25.7669
           25649         83.0066         54.3735         78.9618        -25.7687
           25650         75.9762         57.5097         70.2023        -22.9053
           25651         77.1109         48.4168         81.8820        -16.9480
           25652         69.8429         50.1725         72.5801        -15.6460
           25653         81.3053         55.1908         79.7104        -23.1664
           25654         85.5562         45.9448         90.1964         20.1461
           25655         86.2993         46.4966         92.3577         18.7083
           25656         90.7632         44.9959         96.4221         20.4508
           25657         82.6562         54.9177         85.9345        -19.5846
           25658         80.2988         55.4339         84.3320        -17.6819
           25659         82.3979         55.0795         84.9371         20.1629
           25660         85.8069         54.0264         87.5858         22.3952
           25661         90.4203         52.6556         93.4450         23.0337
           25662         89.9853         52.3603         94.5522         21.3418
           25663         67.2477         67.2584         52.6793         15.9851
           25664         73.2352         81.3575         38.4506         11.4622
           25665         71.5517         80.8384         40.8777        -8.53011
           25666         65.1864         72.0473         38.9230         10.7665
           25667         97.2903         43.3219         106.111        -17.5696
           25668         92.5507         44.9232         100.867        -17.3656
           25669         99.5543         45.5609         108.525        -18.2770
           25670         95.0378         47.7134         103.434        -18.1863
           25671         60.8666         64.8398         46.7958         10.7227
           25672         60.9701         64.1345         47.1464         11.6195
           25673         60.1859         63.3237         48.8063         10.3438
           25674         66.5815         73.1154         47.8425        -9.93915
           25675         67.5605         74.3685         46.1316        -10.5888
           25676         67.2206         74.6685         46.5202        -9.17760
           25677         68.2664         76.0103         44.8765        -9.65932
           25678         60.7973         64.5822         47.0726        -10.7962
           25679         61.6085         65.7429         45.2809        -11.5472
           25680         61.2046         66.1737         45.6346        -10.0719
           25681         62.0441         67.4265         43.9469        -10.5673
           25682         67.5479         74.1784         46.2340         10.8361
           25683         67.5745         73.4091         46.5224         11.9478
           25684         66.4802         72.3537         48.3289         10.7338
           25685         66.5450         75.2897         37.9440         7.67549
           25686         65.6378         74.2390         39.0253         7.55240
           25687         64.4829         71.7922         40.0188         9.58220
           25688         81.9236         93.0325         33.7621         4.37836
           25689         83.1189         94.2398         33.0343         4.06135
           25690         81.3858         92.3945         33.8939         4.82090
           25691         80.7512         91.6335         34.0717         5.33171
           25692         72.9080         82.8661         32.7331         5.47071
           25693         69.3647         50.2277         68.4636        -18.6203
           25694         68.7614         50.5193         70.5754        -15.9214
           25695         84.3220         95.3826         32.1765         3.92000
           25696         75.8296         85.9187         30.6010         4.50496
           25697         104.787         38.1970         116.923        -10.2691
           25698         104.345         39.2101         115.618        -13.1183
           25699         112.298         35.2945         125.244         5.75924
           25700         61.6186         56.1985         57.7290        -13.5428
           25701         62.6323         56.4229         56.0402        -15.9239
           25702         65.0706         52.4922         65.2686         14.6612
           25703         64.1131         53.2315         63.4457         14.4781
           25704         63.0248         53.7343         63.6323         12.3142
           25705         63.9869         53.0016         65.4602         12.5115
           25706         63.2759         54.3738         60.4379         15.0646
           25707         64.3132         53.5487         61.6236         16.0324
           25708         64.9487         53.6020         60.6584         17.4846
           25709         67.1966         61.9229         63.0477         14.2597
           25710         65.8382         62.7059         62.1765         12.0493
           25711         66.4415         62.0038         63.6026         12.4941
           25712         114.851         35.5449         127.649        -7.53301
           25713         25.0243         26.3901         17.3467        -5.37431
           25714         26.3076         26.9259         19.2585        -6.18465
           25715         27.4293         27.5623         20.5250        -6.76081
           25716         20.7413         14.3249         22.2030         4.08589
           25717         23.1915         16.1490         24.5641         4.84242
           25718         28.2676         20.2632         29.0622         6.65192
           25719         82.1856         92.9743         32.8868        -5.36490
           25720         73.4999         83.1436         31.6558        -6.30498
           25721         77.7203         88.0851         35.5803         7.06169
           25722         69.6074         78.2551         34.2519         8.72784
           25723         70.2180         79.2234         33.9476         7.98368
           25724         69.2552         78.1898         34.9274         8.03482
           25725         71.2821         80.6780         33.3403        -7.08158
           25726         70.1629         79.1935         34.0336        -7.92001
           25727         76.7954         87.1179         30.4445         3.33661
           25728         76.1909         86.6111         31.1391         3.21032
           25729         85.3803         96.6089         32.0306         2.88627
           25730         84.8215         96.1275         32.5476         2.80170
           25731         73.5729         50.0094         79.8707         13.2538
           25732         72.3707         50.0416         77.8659         13.7453
           25733         77.3830         48.7337         83.1399        -15.8392
           25734         74.7257         49.6331         80.8433        -14.1109
           25735         74.4066         49.3164         79.5819        -15.2277
           25736         72.1644         50.1975         77.8474        -13.3597
           25737         77.2117         56.6549         77.2562        -19.6664
           25738         67.4182         69.4425         49.8884         15.2586
           25739         66.3220         68.2413         52.1896         13.8979
           25740         61.0399         60.2461         51.1764         13.6679
           25741         62.0887         61.0790         49.1364         15.3967
           25742         62.6975         59.7458         50.3589         16.6746
           25743         61.4803         59.1191         52.4174         14.5608
           25744         70.7983         79.1472         41.4613        -10.1757
           25745         69.8766         78.6520         42.7785        -8.77907
           25746         70.8321         79.9348         41.6682        -8.60445
           25747         74.4840         84.7522         38.4823        -6.96404
           25748         73.4463         83.6008         39.4475        -6.99993
           25749         80.0866         91.1384         34.9064         4.84841
           25750         79.3073         90.2662         35.2992         5.22673
           25751         79.9727         90.7661         34.4691         5.70508
           25752         71.2656         80.9768         33.8396        -6.23553
           25753         72.3799         82.0800         32.7486        -6.25208
           25754         69.7129         79.4682         35.4988         5.93159
           25755         70.3967         80.3220         35.0730         5.51023
           25756         69.8316         79.0421         34.6020         7.45022
           25757         67.2112         68.8852         50.6670        -15.2232
           25758         62.3595         60.2787         49.9081        -16.0496
           25759         108.064         40.0767         119.096         14.8423
           25760         108.015         38.7122         119.940         11.9170
           25761         110.971         36.1395         123.474         8.65780
           25762         66.2881         51.7130         67.2479         15.0021
           25763         67.5674         51.1902         66.6686         17.4450
           25764         68.2201         60.9838         64.9673         15.0129
           25765         69.2582         60.9518         64.0058         17.1863
           25766         30.0359         31.8821         20.1394        -6.38171
           25767         30.3357         32.7366         19.6227        -5.94140
           25768         24.5924         25.2164         18.1433        -5.69352
           25769         29.6426         19.8281         31.5184         6.24684
           25770         30.0367         19.4373         32.4183         5.87571
           25771         24.4581         18.0443         25.0901         5.65166
           25772         83.7393         95.1539         33.4698         2.74217
           25773         84.4204         95.7962         32.9733         2.66827
           25774         75.7811         86.2911         31.7031         3.01271
           25775         74.3136         56.9093         79.3150         12.9966
           25776         75.8152         56.6425         80.2357         14.6806
           25777         73.2001         50.3918         80.4875         11.4976
           25778         62.9022         68.7003         42.4480        -10.8216
           25779         69.3460         77.3488         43.3830        -9.99277
           25780         74.5375         85.1858         38.9420        -5.77452
           25781         74.8990         57.4189         75.0450        -18.1674
           25782         76.8985         56.7303         78.0915        -18.5015
           25783         108.335         36.4823         121.514        -4.93340
           25784         109.903         35.8101         123.200        -3.15085
           25785         107.846         36.1534         121.236        -1.70399
           25786         106.221         36.8090         119.549        -3.48693
           25787         112.853         35.3994         125.966        -4.98257
           25788         109.830         36.5523         122.761        -6.91434
           25789         111.937         36.7329         124.429        -9.46085
           25790         109.129         35.7679         122.505         1.16195
           25791         80.6922         91.8294         34.6648         4.47891
           25792         72.5682         82.8145         33.6452         4.55387
           25793         71.8835         82.2706         34.6396         4.02910
           25794         72.1012         82.2040         33.7598         5.05147
           25795         89.3115         45.9513         97.5010        -16.7220
           25796         92.0363         44.8612         101.054        -16.1212
           25797         88.7917         45.9384         97.6663        -15.5088
           25798         85.2943         47.1941         92.8806        -16.3753
           25799         87.5770         51.4096         94.8468        -17.3869
           25800         91.6259         49.2353         99.7590        -17.6163
           25801         88.0421         50.3503         96.2963        -16.2463
           25802         84.4041         52.1897         92.0362        -15.6307
           25803         83.1933         53.2794         89.9442        -16.1725
           25804         73.2411         83.7645         40.0992         5.73651
           25805         72.2056         82.6253         41.1317         5.58010
           25806         72.4633         82.6794         40.5765         6.41441
           25807         64.7337         73.5068         40.4550         6.43705
           25808         64.7580         73.2156         40.1208         7.32286
           25809         65.6023         74.5287         39.3586         6.66805
           25810         60.0777         63.9803         48.4500         9.45670
           25811         60.4590         64.8268         47.3760         9.65274
           25812         59.6905         64.1953         48.9814         7.89762
           25813         66.7424         73.4421         47.4748         9.89273
           25814         65.9611         72.8338         48.7222         8.58058
           25815         67.8828         76.1298         45.4751        -8.29347
           25816         68.9298         77.4651         43.9746        -8.62563
           25817         61.6123         67.6341         44.5697        -9.12287
           25818         62.4392         68.9024         43.0676        -9.37655
           25819         97.2565         42.5321         107.331         15.2198
           25820         99.2680         41.0161         110.336         13.2084
           25821         29.9343         30.7605         21.2969        -7.10400
           25822         29.8496         31.2031         20.6120        -6.72490
           25823         29.6000         21.3776         30.1820         7.15131
           25824         100.402         39.8051         112.292         10.9004
           25825         100.895         41.7765         112.296         13.1096
           25826         103.216         41.8417         114.059         14.8975
           25827         105.138         40.2185         116.647         13.1804
           25828         76.3730         87.2929         37.6425        -5.22043
           25829         77.5321         88.6356         37.0046        -4.67383
           25830         68.1810         77.8067         36.9878        -5.90386
           25831         69.1923         79.0969         36.3153        -5.31914
           25832         75.1951         85.9570         38.4682         5.55297
           25833         74.1832         84.8139         39.2757         5.72410
           25834         66.4480         75.4675         38.3468         6.91488
           25835         69.0883         78.2985         35.4025         7.32953
           25836         61.3812         59.3613         52.1381        -14.3815
           25837         66.9938         61.9313         63.3000        -13.7362
           25838         68.2163         51.0128         71.9652        -13.4575
           25839         72.5405         58.3217         72.9402        -16.2730
           25840         68.9534         59.7117         69.8625        -12.6482
           25841         68.6861         60.0601         68.2117        -13.5957
           25842         70.6789         58.9807         71.3628        -14.5277
           25843         26.1174         25.9405         20.1300        -6.48515
           25844         22.8504         23.4242         17.1867        -5.18487
           25845         32.1772         34.1099         21.5968        -6.88308
           25846         25.9960         20.0563         25.8221         6.44594
           25847         22.7757         17.1493         23.3390         5.16954
           25848         30.6857         19.2198         33.5742         5.48555
           25849         31.8138         21.4211         33.6865         6.83309
           25850         83.2477         94.6841         33.8210         2.80164
           25851         73.8899         84.4547         33.3642         3.25095
           25852         76.9535         56.0299         82.2382         14.4587
           25853         65.5032         74.4766         39.5531        -6.46080
           25854         65.2340         73.8777         39.6042        -7.18653
           25855         78.1983         49.1653         86.2494        -12.9005
           25856         81.0273         48.3910         89.1493        -14.0257
           25857         80.4485         48.4996         89.2144        -12.7463
           25858         77.6656         49.2645         86.3301        -11.6201
           25859         82.8159         51.8200         91.4111        -13.5904
           25860         81.8360         52.8408         89.6861        -14.1477
           25861         85.4007         51.1678         93.7650        -15.0666
           25862         73.8262         84.6409         39.9335         4.88357
           25863         72.8971         83.5945         40.7541         4.89471
           25864         103.119         39.9395         115.231         10.9936
           25865         106.024         38.4577         118.469         9.71688
           25866         107.187         36.9959         119.761         8.33354
           25867         109.204         38.8390         120.828        -13.0430
           25868         99.9309         40.5627         111.232        -12.6526
           25869         98.7659         41.7097         109.230        -14.6024
           25870         63.8699         71.6953         41.0596         8.10434
           25871         63.0324         70.4700         42.2475         8.15270
           25872         61.4571         66.9974         44.9547         9.64795
           25873         71.6732         81.2375         40.9288         7.90162
           25874         71.6083         81.4784         41.2079         7.03520
           25875         70.7558         80.5509         42.2167         6.73997
           25876         70.8043         80.3071         41.9271         7.59774
           25877         68.8664         76.6484         44.0418         10.0608
           25878         100.378         39.7053         112.336        -10.6475
           25879         64.7904         68.1863         53.6401         10.4671
           25880         60.1847         59.6940         52.9258         11.7904
           25881         60.6129         58.5620         54.1610         12.6856
           25882         77.0268         56.3830         81.1109        -15.7944
           25883         65.1891         64.6426         58.5538         11.9371
           25884         59.9403         58.2482         55.6150         10.7459
           25885         78.7881         89.9151         36.0410         4.63776
           25886         79.5497         90.7120         35.5416         4.48408
           25887         79.2630         90.5921         36.1623         3.82940
           25888         70.8756         80.9551         34.8941         5.06219
           25889         69.7143         79.7459         35.9946         5.01630
           25890         59.5997         59.2670         54.3084         10.1463
           25891         58.8546         59.9272         54.5662        -7.41905
           25892         58.6886         60.8064         53.7836        -6.44568
           25893         58.9622         61.1248         52.7897        -7.75254
           25894         63.8470         67.5057         55.4456         7.91829
           25895         65.1193         65.2939         57.4442        -11.9464
           25896         65.5639         66.3501         55.2781        -13.0170
           25897         60.1544         57.1003         57.7024        -10.3821
           25898         25.5399         28.3924         14.8078         3.97149
           25899         28.0533         31.1667         16.5078         4.38215
           25900         42.8477         47.9477         27.7655         5.69554
           25901         77.4063         50.7669         89.0916    -131.806E-03
           25902         77.4402         51.0686         89.1030    -7.16068E-03
           25903         81.7224         50.1349         94.2614        -1.36811
           25904         82.2680         49.5991         94.9071        -1.62252
           25905         40.7909         26.3958         45.1212         6.38345
           25906         67.1961         60.8273         66.8918        -11.6860
           25907         67.0348         61.2929         65.1533        -12.7190
           25908         63.4866         53.3253         64.7348        -12.2252
           25909         64.0374         52.9073         66.9393        -10.9895
           25910         97.6252         42.5550         107.489        -15.7069
           25911         93.7738         43.8051         103.640        -14.9808
           25912         76.3190         50.7286         87.7667     398.902E-03
           25913         75.8195         49.9460         87.2370     529.566E-03
           25914         77.1152         51.3275         88.6781     136.900E-03
           25915         84.9989         96.1702         64.5536         2.38559
           25916         77.7354         87.7367         58.5004         4.29760
           25917         78.2462         88.3935         58.2945         4.60671
           25918         77.6731         87.7494         57.5568         4.86311
           25919         77.4853         87.3863         58.8553         3.94969
           25920         83.2600         49.1831         96.0526        -1.94093
           25921         83.5222         48.6883         96.3406        -2.20200
           25922         83.9145         48.7487         96.8073        -2.06405
           25923         82.9778         49.6255         95.7318        -1.71136
           25924         28.5367         20.8265         29.6002         6.34812
           25925         29.0461         20.2368         30.8473         5.96766
           25926         27.2823         18.2154         29.5153         5.13159
           25927         27.9924         17.5887         30.8863         4.60057
           25928         40.5132         45.2307         25.8707         5.66750
           25929         44.5346         30.4909         49.0992         6.83092
           25930         45.7558         31.8118         49.9734         7.61593
           25931         46.3494         31.9816         51.1251         6.99368
           25932         43.3128         29.2510         48.0359         6.27230
           25933         82.8396         94.5068         56.7993        -4.92031
           25934         81.9234         49.5811         94.4911         1.78547
           25935         75.1215         50.4504         86.3159    -861.445E-03
           25936         74.0684         50.1546         85.0321        -1.28133
           25937         91.6735         104.809         64.4471        -2.59901
           25938         91.0013         104.140         63.0133        -3.03749
           25939         91.3030         104.529         62.9548        -3.00872
           25940         92.1048         105.181         65.6459        -2.27873
           25941         26.9194         29.0649         17.1077        -5.30545
           25942         24.9373         17.7292         26.4026        -5.11686
           25943         76.0522         85.8191         56.5775        -4.94770
           25944         25.2561         17.3248         26.7211        -5.37409
           25945         23.6106         15.3283         25.5723        -4.49223
           25946         84.2564         95.2378         64.2363        -2.60261
           25947         83.5698         94.6179         62.8581        -3.04018
           25948         83.8219         94.9665         62.8097        -3.01276
           25949         84.7201         95.5844         65.3872        -2.28245
           25950         75.0792         49.9556         86.3138        -1.01818
           25951         74.0230         49.5960         85.0335        -1.44499
           25952         44.4463         49.2800         29.3732        -6.62529
           25953         41.5456         28.5636         45.1821        -7.28696
           25954         45.7783         50.4484         28.1640        -7.70766
           25955         46.9753         51.7082         29.1210        -7.97280
           25956         46.7093         51.9888         28.4688        -7.03595
           25957         47.1244         52.8333         28.4997        -6.39934
           25958         76.6721         49.9250         88.2780     354.250E-03
           25959         92.4902         105.859         64.4167         2.44303
           25960         50.1873         55.8131         31.1292         7.57302
           25961         26.1864         28.6861         15.7655         4.70941
           25962         85.2013         97.2953         58.4242         4.61489
           25963         85.8242         98.0213         59.1761         4.33294
           25964         85.1863         97.3049         57.2523         5.21426
           25965         84.2880         96.1703         59.0868         3.95375
           25966         83.2111         49.0283         96.0009        -1.90692
           25967         83.8665         48.6035         96.7537        -2.04812
           25968         60.9154         65.9585         46.1335         9.57014
           25969         68.1395         76.0049         45.0659         9.31916
           25970         67.7947         75.1125         45.6456         9.98771
           25971         27.2381         27.0633         20.7569        -6.84089
           25972         28.8339         28.2483         22.1859        -7.48165
           25973         29.0324         28.7773         21.9461        -7.40863
           25974         27.0810         20.6333         26.9343         6.78073
           25975         28.6862         22.0485         28.1594         7.40902
           25976         108.274         36.6558         121.362         5.76106
           25977         78.3690         89.4328         36.2454        -4.87399
           25978         79.2397         90.2971         35.5436        -4.88167
           25979         70.0987         80.0274         35.3975        -5.45357
           25980         71.1788         81.1412         34.3544        -5.47297
           25981         77.9542         89.0095         36.5584         4.88881
           25982         76.6371         87.7480         37.7936         4.52708
           25983         77.0588         88.0296         37.1398         5.12800
           25984         76.1526         87.0184         37.7568         5.38420
           25985         69.1125         78.5717         35.6941         6.67070
           25986         69.0237         78.6876         36.0862         6.05128
           25987         68.0684         77.6730         37.1008         5.92948
           25988         70.3795         50.8136         76.3869        -11.8009
           25989         68.9100         51.3919         75.2319        -10.2296
           25990         68.2563         51.4214         73.9345        -10.8054
           25991         71.1159         58.6817         72.9856        -13.7834
           25992         64.3778         72.7770         40.6414        -7.16575
           25993         64.7307         73.4476         40.3908        -6.60050
           25994         71.9026         81.9828         41.0837        -6.55969
           25995         72.7172         82.8192         40.1691        -6.87961
           25996         74.9914         85.8089         38.7617        -5.29723
           25997         73.9209         84.6540         39.7047        -5.25040
           25998         94.6868         43.8818         103.912        -16.3519
           25999         91.1690         44.7576         100.843        -14.7511
           26000         85.8158         46.7329         95.0447        -14.0072
           26001         88.5709         45.8363         97.8754        -14.7251
           26002         71.3060         81.6489         42.0811         5.26195
           26003         72.1580         82.7430         41.4162         4.89807
           26004         66.4538         75.7385         38.6397         6.14461
           26005         63.7266         71.9421         41.5054         7.04046
           26006         111.490         35.5401         124.711         3.93368
           26007         104.530         38.1010         117.460        -7.14873
           26008         106.053         37.4134         119.109        -6.24232
           26009         104.728         37.4654         117.965        -4.76788
           26010         80.6086         53.8043         87.7826        -14.3776
           26011         78.3109         54.2733         85.7726        -12.7177
           26012         61.7817         69.0235         44.3143         7.01682
           26013         69.9377         79.5002         43.0717         6.83219
           26014         69.5838         78.8307         43.3492         7.43233
           26015         64.2666         64.4974         59.6875         9.26226
           26016         64.9264         63.8285         60.3852         10.7901
           26017         58.6029         61.6512         53.1115         5.38459
           26018         58.6021         60.7495         54.0554         5.93168
           26019         62.4222         58.2478         52.8703        -16.2074
           26020         59.1964         62.3635         51.1190        -7.95427
           26021         58.8617         61.9348         52.1937        -6.76275
           26022         66.2536         67.5472         53.1213        -14.0622
           26023         64.0382         69.6233         53.1134        -6.59261
           26024         64.3592         70.9072         51.9268        -5.76966
           26025         64.7766         71.3115         51.0137        -6.97949
           26026         64.2984         71.1529         51.8966         4.86088
           26027         63.9156         70.0971         53.0483         5.03358
           26028         64.3970         66.0640         56.7507        -10.1827
           26029         64.8318         64.3507         59.3354        -10.9503
           26030         64.1376         65.1202         58.6444        -9.17891
           26031         64.7831         67.2727         54.7666        -10.8958
           26032         59.7809         56.9741         58.6812        -8.70898
           26033         59.2543         57.9229         57.5036        -7.74868
           26034         59.5808         58.0498         56.5226        -9.42375
           26035         59.1372         59.0228         55.5180        -8.32854
           26036         73.1993         83.9024         34.4385         2.70792
           26037         71.1977         50.1746         75.9592         14.0599
           26038         73.1431         58.1761         72.0952         17.9067
           26039         72.5379         58.2110         74.0633         15.2661
           26040         83.4009         54.6029         87.0579         19.5684
           26041         78.6354         49.0499         86.4464         13.4765
           26042         80.9397         48.3656         88.4126         14.9593
           26043         27.1046         21.5040         26.2204         7.03733
           26044         27.7650         22.9240         25.9117         7.48263
           26045         28.7442         23.2499         27.1272         7.75645
           26046         27.1784         26.2989         21.5359        -7.06188
           26047         28.7472         27.1381         23.2344        -7.75935
           26048         86.1922         46.8114         94.9020         14.9876
           26049         85.6890         46.6825         95.0973         13.6534
           26050         96.5053         42.3061         108.591         10.4177
           26051         98.5421         42.0395         110.324         11.6872
           26052         96.6875         40.5510         109.025         8.92023
           26053         98.2654         40.2224         110.401         9.84109
           26054         75.2815         57.4670         72.0072         20.9590
           26055         71.8682         58.9652         69.0941         18.1502
           26056         45.7019         30.6313         50.1207         7.60619
           26057         45.6290         30.2720         50.5969         6.76333
           26058         63.5796         72.6095         42.7525         3.94488
           26059         63.3810         72.1649         42.6471         4.76892
           26060         64.0934         73.0359         41.6491         5.19484
           26061         63.9625         72.6078         41.4819         6.06819
           26062         63.3023         71.8395         42.4835         5.58016
           26063         70.2137         80.4115         43.3296         4.85451
           26064         70.3045         80.2988         42.9602         5.74146
           26065         71.4176         81.5377         41.7027         6.14532
           26066         88.4604         48.7440         98.0523        -14.3117
           26067         88.5187         49.3948         97.5102        -15.3185
           26068         91.0375         48.4164         100.104        -16.0167
           26069         90.9498         47.7581         100.601        -15.0003
           26070         84.7620         46.7781         94.5350        -12.6715
           26071         87.1198         46.1387         96.7560        -13.7058
           26072         81.0791         54.1949         87.4602         15.5708
           26073         82.0994         53.3085         89.2929         15.1147
           26074         84.9955         52.6289         91.8293         16.8788
           26075         87.0263         53.3689         91.3901         20.4172
           26076         88.8981         52.1213         94.6650         19.6541
           26077         90.8317         45.4706         97.8151         18.8214
           26078         87.0247         46.5858         94.0287         17.7206
           26079         86.9666         46.6866         94.9294         16.3696
           26080         71.0916         58.5772         73.4386         13.3082
           26081         69.1896         60.2007         66.9886         15.3662
           26082         70.7015         59.7767         66.6379         17.9651
           26083         66.2456         51.7848         69.3802         12.7284
           26084         66.2952         51.9979         71.0733         10.5755
           26085         69.7034         50.8742         75.1690         12.1677
           26086         76.2540         54.6380         84.0141        -10.9751
           26087         22.3350         16.9906         23.1445         4.75190
           26088         24.4612         19.0958         24.7552         5.58575
           26089         75.3010         84.9487         55.2038        -5.65632
           26090         73.0510         49.7810         83.7890         1.71330
           26091         73.4397         49.5578         84.3048         1.64108
           26092         84.9844         96.3713         63.6065         2.51443
           26093         84.3706         48.3011         97.3315         2.09754
           26094         84.6974         47.7352         97.6830         2.30573
           26095         47.5347         51.7234         32.2251         8.41762
           26096         47.6961         31.9845         52.8544        -7.04385
           26097         48.9924         33.1605         53.9309        -7.75616
           26098         23.5915         24.8637         16.5785         5.02361
           26099         21.6318         23.1558         14.8055         4.29628
           26100         21.0676         21.8451         15.7918         4.55439
           26101         18.8870         19.9716         13.8888         3.75660
           26102         23.1639         16.0736         24.5704        -4.81104
           26103         21.5381         14.6274         23.1102        -4.23818
           26104         72.7595         48.9547         83.5069        -2.00291
           26105         74.5091         84.0246         55.1264         5.30799
           26106         84.5986         48.1638         97.5841        -2.20205
           26107         85.6377         96.9901         64.7686        -2.13611
           26108         48.3659         33.7405         53.2319         7.37717
           26109         47.4819         52.0081         32.0789        -7.93712
           26110         47.2082         51.2790         32.0114        -8.48257
           26111         48.4437         52.1842         33.0772        -9.23041
           26112         48.7069         52.9091         33.2047        -8.70382
           26113         47.6519         52.7379         32.0758        -7.12201
           26114         49.2071         53.9789         33.4505        -8.04776
           26115         49.5734         54.9192         33.6690        -7.23116
           26116         23.5790         25.0516         16.2662        -4.87476
           26117         24.1282         26.1072         15.5569        -4.64447
           26118         26.2904         27.8483         17.8108        -5.61054
           26119         81.4156         92.8310         55.7110        -5.12846
           26120         79.9356         91.0900         54.5451        -5.34346
           26121         82.0820         93.5868         55.4000        -5.61266
           26122         73.1940         49.3107         84.0204         1.77897
           26123         72.4243         48.6238         83.1102         2.22338
           26124         84.4144         48.4288         97.3826         2.09738
           26125         84.7482         47.9281         97.7438         2.30852
           26126         93.1792         106.656         65.0299         2.14116
           26127         93.7723         107.346         65.5287         1.85384
           26128         92.5589         106.092         63.3190         2.57655
           26129         47.8274         33.1597         52.8307        -7.03948
           26130         49.1475         34.4630         53.8958        -7.75524
           26131         52.4527         58.5202         32.7663         7.53932
           26132         54.6669         61.1492         34.4135         7.51253
           26133         51.7627         57.1648         32.4747         8.43342
           26134         24.9845         27.0137         16.0381         4.84806
           26135         23.9951         25.4712         16.5154         4.99636
           26136         22.4152         24.2870         14.6600         4.23149
           26137         21.6139         22.9688         15.2619         4.36718
           26138         20.0468         21.7635         13.4587         3.65130
           26139         22.5660         16.5728         23.7361        -4.63821
           26140         22.5285         17.7324         22.9221        -4.97123
           26141         81.1024         92.4595         55.2981         5.28511
           26142         72.8128         49.6254         83.5043        -1.82440
           26143         93.2634         106.767         65.0098        -2.11792
           26144         84.5491         48.0036         97.5256        -2.20213
           26145         52.7341         58.7779         33.0222        -7.67143
           26146         47.0354         31.5706         51.8244         7.43830
           26147         46.6326         31.4285         51.0503         7.85605
           26148         48.0194         32.5539         52.5483         8.07128
           26149         19.4537         18.7350         16.8505        -4.44226
           26150         17.3563         14.6886         17.3410         3.62812
           26151         19.4400         16.8437         18.7180         4.43927
           26152         43.0236         29.3704         47.2795         6.87205
           26153         44.2643         30.6054         48.3352         7.43112
           26154         91.7891         105.060         63.6892        -2.73730
           26155         75.2753         49.6170         86.5919    -964.500E-03
           26156         46.1313         50.2837         31.0944        -8.08966
           26157         45.9427         50.6955         30.6959        -7.17870
           26158         46.3740         50.0168         31.4646        -8.80539
           26159         47.4664         51.0228         32.4127        -9.18210
           26160         48.0014         53.1056         29.6523        -7.73236
           26161         84.6008         96.5646         58.6837         4.30360
           26162         83.9841         95.8581         57.5019         4.83432
           26163         45.8354         30.9777         49.8148         8.22392
           26164         76.9369         87.4893         30.9986         2.31233
           26165         85.6198         97.0255         32.4352         1.98389
           26166         31.2292         29.3865         24.8860        -8.63517
           26167         29.5227         28.2689         23.2992        -7.92155
           26168         32.3817         31.7437         24.3745        -8.57389
           26169         31.5138         31.4469         23.2707        -8.05142
           26170         30.5188         30.2785         22.8534        -7.83788
           26171         31.4125         30.6042         23.9469        -8.35762
           26172         30.6954         24.9895         28.4649         8.54015
           26173         31.3548         24.9849         29.5161         8.66280
           26174         29.4193         23.2313         28.1914         7.87335
           26175         100.239         39.1553         112.759         8.46683
           26176         102.357         38.7260         114.655         9.51547
           26177         76.5571         87.2570         31.7762         1.84099
           26178         76.7278         87.3516         31.3818         2.10521
           26179         85.2995         96.8346         33.0465         1.53261
           26180         85.3797         96.8549         32.7917         1.78403
           26181         74.7532         85.6728         39.1847         4.82514
           26182         66.4828         75.9839         38.9289         5.44432
           26183         65.8677         75.4926         40.0333         4.43379
           26184         65.4482         52.3667         70.1558        -9.88589
           26185         64.8754         52.5350         68.9441        -10.2889
           26186         66.7582         51.7107         71.0711        -11.6433
           26187         69.4322         59.2353         71.5219        -12.0173
           26188         67.9445         59.8308         70.1764        -10.1769
           26189         67.4521         60.3049         68.5168        -10.8082
           26190         64.0731         72.7168         41.3168        -6.19080
           26191         64.8778         73.8298         40.4167        -6.02049
           26192         72.1037         82.4266         41.1147        -5.86885
           26193         72.6203         82.9006         40.4854        -6.28216
           26194         65.0601         52.3605         67.3471         12.6741
           26195         67.1811         61.2242         65.3415         12.8565
           26196         74.6932         57.2134         78.1626        -14.9249
           26197         72.6906         50.2506         79.0602        -12.6636
           26198         60.7588         55.3300         62.1829         8.24793
           26199         61.3527         55.0533         61.6041         10.4838
           26200         63.3403         53.8895         62.0005         14.2012
           26201         59.5345         63.2532         49.8499         8.39719
           26202         59.3577         63.9600         49.7354         6.82948
           26203         59.1359         63.0719         50.7197        -6.96398
           26204         58.8694         62.7398         51.5304        -5.97092
           26205         60.5623         65.1989         47.0002        -9.52596
           26206         59.9614         64.2956         48.4560        -8.73611
           26207         66.3449         73.4825         47.9598        -8.68017
           26208         65.7010         72.5414         49.2255        -8.20773
           26209         64.6793         71.9876         51.0234         4.86025
           26210         65.3917         73.2604         49.5794         5.26249
           26211         65.7222         62.7383         62.1555        -11.8256
           26212         64.7560         63.5572         61.2183        -9.94989
           26213         64.0327         63.5422         61.9019        -7.39629
           26214         63.9839         64.3019         60.2341        -8.25065
           26215         60.1362         56.0600         60.8395        -7.80714
           26216         90.1362         48.7385         99.2112         15.7230
           26217         88.9613         48.3538         98.7149         14.1968
           26218         91.7166         46.8177         101.894         14.2364
           26219         88.5897         44.9320         99.2696         12.0441
           26220         85.9920         46.2701         96.0116         12.6219
           26221         87.8079         44.8552         98.8943         10.8641
           26222         65.9472         73.6759         48.5587         6.84461
           26223         66.8922         75.3728         47.0150         6.50013
           26224         66.0982         74.3091         48.3269         5.85268
           26225         105.797         36.8561         119.163         2.98143
           26226         105.565         36.7098         119.008    -868.713E-03
           26227         72.7019         83.5302         35.4450         2.05417
           26228         82.1472         93.8239         35.3102         1.94728
           26229         69.2171         79.3230         36.7152        -4.59066
           26230         68.4850         78.7212         37.9307        -3.66870
           26231         71.1599         81.6432         35.6239         3.53594
           26232         70.7220         81.3826         36.7563         2.50109
           26233         79.6448         91.0836         36.1760         3.33703
           26234         79.2323         90.8632         37.1120         2.34107
           26235         82.8352         47.5847         92.2275         12.6502
           26236         83.1429         47.1758         93.1417         11.6310
           26237         87.9861         51.5502         94.9051         17.9771
           26238         87.1886         50.1107         95.9628         15.1732
           26239         87.9571         50.7123         95.8889         16.6610
           26240         80.1602         91.4085         35.3002         4.11398
           26241         71.3572         81.5909         34.7565         4.56722
           26242         20.8288         18.9496         18.9357        -5.00049
           26243         19.0426         17.7970         17.1941        -4.33028
           26244         20.8172         18.9149         18.9523         4.99579
           26245         19.0250         17.1750         17.7861         4.32433
           26246         68.5598         77.4964         44.6324        -7.33823
           26247         69.4882         78.6844         43.4379        -7.49245
           26248         66.9569         74.9228         46.8528        -7.85200
           26249         67.6716         76.3548         45.8351        -7.02995
           26250         62.0060         68.9318         43.8468        -8.02191
           26251         60.9671         66.6287         45.8098        -8.78093
           26252         61.3708         67.9483         44.9435        -7.81699
           26253         30.8721         21.2673         32.3188         6.91902
           26254         32.5823         23.3031         33.2087         7.95017
           26255         31.4594         33.0164         21.5408        -6.99539
           26256         33.1623         33.9812         23.4415        -8.00174
           26257         83.5644         47.6260         90.8334         16.2286
           26258         100.116         38.3518         113.622     231.965E-03
           26259         98.3889         38.9233         111.874        -1.16546
           26260         103.157         37.4582         116.619        -1.48719
           26261         102.420         37.5895         115.903    -105.562E-03
           26262         100.877         38.1222         114.375    -730.004E-03
           26263         71.0661         58.1997         75.0458        -11.5319
           26264         72.6717         57.7881         76.4512        -13.1009
           26265         68.6908         59.1979         71.9458        -9.94768
           26266         70.1369         58.7771         73.2403        -11.6211
           26267         70.0866         51.2472         77.4422        -9.26027
           26268         69.4945         51.3110         76.3547        -9.73769
           26269         70.9341         50.8665         77.6004        -11.1007
           26270         68.2585         51.7379         75.2813        -8.36726
           26271         63.4373         65.1838         59.2835        -6.45888
           26272         63.5704         66.0094         57.7008        -7.37956
           26273         63.9732         66.6234         56.4694        -8.70413
           26274         64.3327         67.8029         54.5047        -9.42113
           26275         102.898         37.6492         116.032         5.02299
           26276         104.276         37.6502         117.025         7.46301
           26277         101.688         38.3396         114.524         6.96384
           26278         100.754         38.2907         113.935         4.71387
           26279         101.422         38.0564         114.886         1.96238
           26280         99.5562         38.9155         112.513         6.22910
           26281         98.6903         38.9347         111.944         4.11683
           26282         62.6060         71.1309         43.7995         4.35925
           26283         61.0935         67.0346         45.5154         8.52899
           26284         69.4878         79.2381         43.8079         5.83120
           26285         68.0955         77.5077         45.5629         5.32446
           26286         68.7149         78.0524         44.5953         6.36621
           26287         67.7574         76.2242         45.6876         7.66114
           26288         67.2968         76.8671         37.9746         5.69282
           26289         75.7023         86.7316         38.4705         4.65833
           26290         81.7452         51.3992         91.0723        -11.9342
           26291         78.0204         55.3355         84.0409         14.2914
           26292         79.1056         54.5559         85.8849         14.0316
           26293         77.8670         49.2304         86.4606         11.8419
           26294         86.4705         49.6722         95.8828         13.8926
           26295         84.6791         51.2567         93.2068         14.5288
           26296         83.9513         50.8240         93.1156         13.2506
           26297         85.3832         45.5527         96.6129         9.69825
           26298         87.4237         44.7124         98.8253         9.93294
           26299         72.7498         81.9203         53.1519        -6.07431
           26300         72.0571         81.1687         53.1894        -5.54012
           26301         86.0353         97.5842         64.5721         1.92044
           26302         86.6143         98.0132         66.0250         1.57904
           26303         14.8369         12.2873         15.3574        -2.70840
           26304         13.1734         10.4703         14.0796        -2.08906
           26305         53.1507         58.4875         36.6075         8.27014
           26306         72.6269         81.6823         52.3666         6.77829
           26307         72.0364         80.8682         51.3980         7.40020
           26308         71.6068         80.4575         51.6502         6.88067
           26309         73.8873         83.2916         54.6879         5.35814
           26310         73.0957         82.3338         53.4248         6.01623
           26311         69.8412         47.6143         79.9073        -3.17405
           26312         70.4430         47.7254         80.6527        -3.09987
           26313         85.9312         97.3065         65.1176        -1.97419
           26314         85.9156         97.4917         64.2756        -1.98788
           26315         52.5730         36.9277         58.3685         7.04274
           26316         51.7670         36.4364         57.0715         7.62736
           26317         52.4916         57.1421         36.1288        -9.11662
           26318         51.0709         56.0824         34.9431        -8.19913
           26319         50.6301         54.9949         34.6900        -9.00631
           26320         18.5391         18.8562         15.2193        -3.80759
           26321         20.0630         20.5436         15.9110        -4.25021
           26322         18.7730         19.8231         14.0978        -3.65988
           26323         22.6214         23.6193         16.5705        -4.85320
           26324         25.4294         26.3993         18.2890        -5.71722
           26325         79.2386         90.1893         53.2426        -6.10441
           26326         78.4294         89.3136         53.3001        -5.59128
           26327         93.7129         107.460         64.2212         1.94320
           26328         70.7033         48.5661         80.8803        -2.98399
           26329         69.9737         48.1893         79.9396        -3.46418
           26330         69.7742         48.1989         79.7020        -3.38797
           26331         70.0159         47.5562         80.1194         3.25016
           26332         56.0501         62.2989         35.5039         8.40205
           26333         78.9949         89.7940         52.3782         6.75772
           26334         78.2923         88.8271         51.3112         7.40309
           26335         77.7851         88.3458         51.6220         6.86278
           26336         93.4998         107.335         63.0751        -2.09340
           26337         93.4917         107.435         62.1454        -2.08102
           26338         93.9310         107.814         63.6819        -1.78491
           26339         93.5797         107.119         65.3841        -1.95149
           26340         93.6600         107.351         64.5191        -1.95560
           26341         51.6834         35.4339         56.5962         8.52268
           26342         49.8756         34.0957         54.3806         8.60130
           26343         56.3977         62.2765         35.8477        -9.12414
           26344         57.6567         63.3907         36.7803        -9.74096
           26345         57.9688         64.2955         36.9081        -8.89369
           26346         19.1128         18.9200         16.2962         4.08618
           26347         21.1961         20.7198         17.9118         4.83932
           26348         20.6605         19.1682         18.7663         4.72507
           26349         18.5753         17.3562         17.1507         3.97180
           26350         85.5990         46.7726         98.6653        -2.54914
           26351         85.9670         46.3276         99.0556        -2.65046
           26352         86.0939         46.5591         99.2363        -2.37481
           26353         15.3616         12.6758         15.8573         2.87813
           26354         77.3412         87.3925         56.5063         5.46142
           26355         76.7859         86.7209         56.2978         5.42568
           26356         77.1310         87.0885         57.3610         4.82982
           26357         76.3226         86.1715         55.2978         5.96814
           26358         82.5249         48.7704         95.1718        -2.28795
           26359         83.0166         48.6688         95.7426        -2.31914
           26360         82.9580         49.0487         95.6926        -2.06349
           26361         83.2249         48.3015         95.9634        -2.55209
           26362         27.4665         28.8215         19.0224         6.05891
           26363         29.8888         31.0213         20.9109         6.89051
           26364         29.0866         29.8130         20.8513         6.93010
           26365         25.5823         26.6467         18.1558         5.73187
           26366         27.1581         27.9649         19.5301         6.33135
           26367         28.0823         21.2475         28.5517         6.54756
           26368         26.8328         21.2824         26.5653         6.49910
           26369         45.0029         47.9738         30.6816         9.20739
           26370         47.0694         50.5038         32.1171         9.22715
           26371         45.0649         31.5867         48.7603         8.07747
           26372         43.4904         30.2511         47.1447         7.74270
           26373         46.0396         32.7111         49.2893         8.80346
           26374         75.3868         49.8027         86.7187    -720.092E-03
           26375         75.3239         50.1941         86.5969    -790.714E-03
           26376         91.1682         104.496         61.7116        -3.28935
           26377         91.6460         105.027         62.4447        -3.01694
           26378         91.6492         105.128         61.5436        -3.15988
           26379         30.1512         21.1365         31.2636        -6.96980
           26380         29.6745         21.5795         30.1254        -7.24461
           26381         75.3242         49.0573         86.7073    -928.715E-03
           26382         83.6082         94.9178         61.6266        -3.29451
           26383         84.0716         95.4046         62.3335        -3.02363
           26384         84.2938         95.4535         63.5175        -2.74302
           26385         83.9988         95.4779         61.4734        -3.16959
           26386         43.6465         46.4003         29.7117        -9.08990
           26387         44.8429         47.8093         30.5737        -9.16718
           26388         42.5547         45.9645         28.5041        -8.08000
           26389         45.6640         48.8327         31.1083        -9.16410
           26390         47.8586         52.1543         30.0592        -8.84184
           26391         48.8697         53.5669         30.6062        -8.59405
           26392         49.9669         54.3863         31.6004        -9.28908
           26393         82.4103         48.8461         95.0667        -1.95653
           26394         82.4448         48.3665         95.0936        -2.18990
           26395         82.8987         48.8067         95.6320        -2.00911
           26396         31.1084         32.7150         20.7985         6.95963
           26397         31.8036         34.2476         19.9675         6.42150
           26398         84.5947         96.5897         57.6730         4.86938
           26399         84.2800         96.2074         56.5623         5.46718
           26400         83.6551         95.4637         56.3779         5.42927
           26401         83.1787         94.8640         55.3315         5.96938
           26402         42.1616         28.1486         45.7306         7.77209
           26403         46.2997         31.6277         49.7985         8.91582
           26404         67.5527         51.5500         72.6004        -11.2204
           26405         66.3581         52.0665         71.7060        -9.73331
           26406         71.8260         58.2235         74.7041        -13.3894
           26407         63.8959         72.0288         41.1780        -7.41432
           26408         63.5936         71.9780         41.8467        -6.43448
           26409         70.3692         79.7405         42.4046        -7.66998
           26410         70.3475         80.3611         42.9244        -5.70997
           26411         70.8100         81.1170         42.6686        -4.98768
           26412         62.2177         54.5950         61.4871         12.4720
           26413         63.7647         65.2896         58.6682         7.99319
           26414         63.5875         66.5979         56.8449         7.35959
           26415         63.4081         65.8576         58.1753         6.58991
           26416         63.5948         64.7842         59.8119         6.94522
           26417         59.4801         58.0357         56.7414         9.00332
           26418         59.1278         58.0197         57.5669         7.20823
           26419         59.0234         63.6112         50.7010         5.53577
           26420         58.6752         62.5052         52.2599         4.87502
           26421         58.4660         61.4932         53.7622         4.18316
           26422         58.5115         60.5799         54.5406        -5.26152
           26423         58.6344         61.6587         52.9898        -5.64403
           26424         59.5183         63.6198         49.5958        -7.96820
           26425         59.8940         64.8815         48.2531        -7.74725
           26426         60.3504         65.6538         47.1740        -8.23651
           26427         65.2777         72.4316         49.8738        -6.82858
           26428         66.1092         73.7369         48.3010        -7.34569
           26429         76.2763         87.5161         38.4031         3.87720
           26430         68.0938         77.8914         37.3903         5.29269
           26431         59.2198         64.4883         49.9718         4.95499
           26432         59.4873         65.3671         49.2373         4.47471
           26433         59.2967         65.1069         49.9830         3.32315
           26434         82.9745         94.6728         34.9191         1.67076
           26435         84.2654         47.4924         92.1548         15.5914
           26436         84.9592         51.7940         92.8112         15.5841
           26437         19.6856         17.4877         18.5335        -4.55780
           26438         20.9882         18.0780         19.9900        -5.01567
           26439         22.1067         19.5461         20.3948        -5.45735
           26440         17.2478         15.7775         16.2590         3.68461
           26441         19.6663         18.5011         17.4894         4.55220
           26442         20.9840         19.9474         18.1213         5.01727
           26443         69.3281         78.8743         43.8898        -6.34258
           26444         68.4026         77.6932         45.0088        -6.15802
           26445         68.2942         77.8439         45.3928        -5.08157
           26446         61.6576         69.3136         44.7712        -5.65919
           26447         61.7891         69.1380         44.3232        -6.77510
           26448         78.0921         88.6278         30.1649         1.52958
           26449         86.8140         98.1857         31.7383         1.31272
           26450         72.7694         83.7769         41.5328        -3.23173
           26451         73.3530         84.5625         41.4425        -2.36914
           26452         74.1863         85.4160         40.4830        -2.98496
           26453         65.0826         74.2505         40.4110        -5.48025
           26454         65.2677         74.7275         40.6185        -4.51428
           26455         61.2293         67.9785         45.2303         7.23094
           26456         60.7129         66.9545         46.2355         7.32819
           26457         60.0624         66.0107         47.6832         6.42907
           26458         60.4043         66.8182         46.9083         6.27021
           26459         97.2028         39.3817         110.628        -2.28402
           26460         104.116         37.0723         117.579    -106.804E-03
           26461         104.595         37.0997         118.011        -2.26259
           26462         98.7313         38.9838         112.220        -1.78245
           26463         99.6957         38.5568         113.205    -839.827E-03
           26464         98.3209         38.9715         111.831     243.527E-03
           26465         64.1606         62.7847         63.4046        -6.71704
           26466         29.5463         24.7063         26.9534         8.20599
           26467         35.8157         31.4764         29.9631        -10.6041
           26468         34.8182         29.9797         29.8805        -10.2711
           26469         33.4394         31.7605         26.0203        -9.28841
           26470         31.4027         30.1891         24.3640        -8.49846
           26471         83.5117         47.4080         92.8667        -12.9755
           26472         79.3793         90.9484         36.7825        -2.69667
           26473         80.2213         91.7914         36.1698        -2.68491
           26474         80.2779         91.7239         35.7487        -3.28168
           26475         65.5733         52.4589         71.1754        -8.48075
           26476         64.9725         52.7982         71.0940        -6.65980
           26477         58.4103         61.4215         54.2813         2.98554
           26478         58.3833         60.5827         55.2402         3.34001
           26479         58.4483         60.6569         54.7196         4.53981
           26480         63.5853         69.1118         54.1768         5.02608
           26481         63.5410         67.9043         55.3227         6.39043
           26482         63.3133         68.1215         55.4802         4.80907
           26483         58.7818         58.1262         58.6054         4.02309
           26484         61.6538         69.8953         45.7686         2.58778
           26485         61.1873         69.0600         46.2526         3.13582
           26486         62.0519         70.4106         44.7727         3.68161
           26487         60.8439         67.7705         46.0767         6.01974
           26488         60.0855         66.5615         47.7056         5.14337
           26489         68.2093         77.1427         45.1266         6.98303
           26490         15.1560         13.9443         14.5690        -2.95268
           26491         13.0754         12.4805         12.5050        -2.22839
           26492         82.9089         52.5826         90.6697         14.7830
           26493         80.1084         53.7327         87.5494         13.7782
           26494         79.0110         48.8183         88.0646         11.5947
           26495         80.1191         48.3085         89.6850         11.1731
           26496         78.0603         48.8549         87.6805         10.0394
           26497         78.8758         48.4044         88.9198         9.58812
           26498         80.9469         47.8534         90.9337         10.7237
           26499         72.8885         50.5483         80.8417         10.1430
           26500         71.3306         50.9527         79.1899         9.23344
           26501         76.9883         49.3168         86.1981         10.2626
           26502         78.2322         54.0371         86.0184         12.2378
           26503         75.4174         56.2687         81.0871         13.0278
           26504         67.3524         76.2956         46.4432         5.82430
           26505         42.6702         45.0731         29.1848        -9.18071
           26506         43.9799         45.7341         30.5066        -10.1187
           26507         44.9460         47.0657         31.0473        -10.0381
           26508         45.8522         48.2897         31.5763        -9.97125
           26509         28.2351         21.9859         27.5079        -7.34717
           26510         29.2216         21.8568         29.1629        -7.37368
           26511         29.6901         22.9276         28.9115        -7.80649
           26512         74.2653         48.4393         85.4531        -1.41806
           26513         74.9859         48.5825         86.3365        -1.01336
           26514         74.7033         48.2180         86.0234        -1.07515
           26515         73.9842         48.0745         85.1414        -1.48079
           26516         43.8192         30.8276         45.2915        -10.2418
           26517         78.1077         88.3435         56.7006        -5.48985
           26518         81.3229         47.8269         93.7810         2.33621
           26519         42.4540         29.8053         43.8869         9.93283
           26520         41.0793         28.3287         43.0954         9.10333
           26521         41.8165         29.7395         42.6071         10.2620
           26522         45.0684         31.5954         46.8760         10.2728
           26523         45.9938         32.1603         48.1095         10.2279
           26524         82.8428         47.6758         95.5179        -2.59267
           26525         82.2568         47.9101         94.8585        -2.40450
           26526         81.9999         47.5269         94.5390        -2.62722
           26527         82.5916         47.2935         95.2009        -2.82053
           26528         29.2636         30.3889         20.3481         6.76224
           26529         51.7330         54.8496         33.6120         11.2793
           26530         46.7598         50.4552         29.6598         9.26533
           26531         90.3987         103.628         60.5199         3.74574
           26532         75.5704         48.3866         87.0736     579.770E-03
           26533         46.9906         33.8077         49.8221         9.43898
           26534         42.8263         45.3327         29.2248         9.12481
           26535         27.4406         27.7145         20.3547         6.70069
           26536         29.3754         29.5861         21.6623         7.28526
           26537         29.2735         28.8131         22.3071         7.56915
           26538         32.7131         26.4081         31.1022         8.69404
           26539         33.4970         26.3050         32.5760         8.67590
           26540         31.9109         24.5239         31.7199         7.92950
           26541         30.1833         22.6099         30.7024         7.10315
           26542         32.5100         24.2083         33.0642         7.70385
           26543         30.8454         22.2993         32.0474         6.87465
           26544         44.0734         32.4828         45.2596        -10.1498
           26545         78.1651         88.3876         57.2019         5.20547
           26546         77.9759         88.2014         56.1308         5.79939
           26547         82.9386         48.1957         95.6138        -2.71745
           26548         82.3543         48.4569         94.9523        -2.53763
           26549         82.1091         48.2298         94.6396        -2.80374
           26550         82.6973         47.9690         95.3027        -2.98802
           26551         82.8956         94.1324         60.6662         3.69879
           26552         75.2496         49.4502         86.5898     649.890E-03
           26553         74.6350         49.2079         85.8631     738.945E-03
           26554         75.5303         49.3720         86.9457     347.649E-03
           26555         76.1188         49.7439         87.6252     287.328E-03
           26556         30.8301         24.2760         30.1708        -7.81705
           26557         33.0778         25.7012         32.5055        -8.41443
           26558         32.8032         26.1462         31.5512        -8.60023
           26559         30.7322         24.9391         29.3401        -8.02886
           26560         28.7805         23.2283         27.8603        -7.29648
           26561         31.2658         31.0415         23.3383        -8.03645
           26562         33.9072         35.5675         22.5641        -7.70416
           26563         74.7923         49.3072         86.0425    -792.474E-03
           26564         74.0714         49.2134         85.1529        -1.19217
           26565         74.3391         49.4026         85.4610        -1.16805
           26566         75.0617         49.4970         86.3522    -769.033E-03
           26567         81.4299         48.5400         93.8733         2.52330
           26568         85.1974         97.3168         56.8113        -5.45330
           26569         63.4682         64.1796         60.9691        -5.91407
           26570         60.6575         55.2982         63.0138        -6.71445
           26571         70.7764         51.0817         78.5041        -9.07729
           26572         68.8826         51.5809         76.4268        -7.85990
           26573         62.9793         71.8379         43.6620         3.46014
           26574         72.0748         83.0886         42.5212         2.31239
           26575         71.0582         81.8656         43.3968         2.36059
           26576         89.6172         47.6794         99.7253        -13.7552
           26577         87.7084         48.1013         98.0318        -12.7050
           26578         90.0409         44.1270         101.084        -11.5869
           26579         70.9899         57.7109         76.2329         9.95050
           26580         73.0585         57.0374         78.5086         11.5270
           26581         68.9686         59.4072         71.1225         11.4635
           26582         67.4010         51.6824         72.8395         10.5000
           26583         70.2153         51.2169         77.7469         9.02571
           26584         72.0295         50.7211         79.5123         10.4302
           26585         85.9291         46.9368         99.0815         2.17372
           26586         71.4943         80.4283         52.0644        -6.31065
           26587         86.3659         98.0125         64.6819         1.68281
           26588         85.0515         47.2312         98.0592         2.50417
           26589         84.6799         47.0752         97.6079         2.72085
           26590         50.2340         34.2841         55.0044        -8.33360
           26591         49.0138         52.9054         33.5115         9.18852
           26592         50.8550         55.1960         34.8720         9.09881
           26593         74.9924         84.5293         53.8373         6.60878
           26594         75.6821         85.3785         54.4120         6.40936
           26595         75.3044         84.8926         53.7595         6.77497
           26596         74.2601         83.6878         54.0043         6.16322
           26597         73.6428         82.9547         53.5514         6.22821
           26598         52.5271         35.8047         58.3258        -7.38388
           26599         16.0521         15.2386         15.0155         3.09870
           26600         21.4322         21.4370         17.1072         4.96201
           26601         22.7929         21.8995         19.0381         5.60967
           26602         72.7964         48.1486         83.6222        -2.20969
           26603         73.4898         48.3493         84.4845        -1.84594
           26604         72.3003         48.3079         82.9755        -2.38850
           26605         71.7253         48.1358         82.2572        -2.62844
           26606         84.1668         47.7013         97.0198        -2.81499
           26607         83.6534         47.9594         96.4361        -2.76151
           26608         83.8854         47.7072         96.6841        -2.91515
           26609         84.7171         47.7124         97.6830        -2.53145
           26610         85.0681         47.5300         98.0872        -2.48196
           26611         84.9417         47.9823         97.9806        -2.15468
           26612         84.4554         96.1379         61.2845        -2.95447
           26613         84.1345         95.7410         61.0664        -3.14774
           26614         84.1245         95.8235         60.5527        -3.18960
           26615         85.2191         96.8202         63.0394        -2.42713
           26616         85.5102         97.1333         63.4200        -2.25157
           26617         47.8725         34.8580         50.2189         10.0877
           26618         48.5007         35.1108         51.3267         9.78506
           26619         49.1592         34.8005         53.3713         8.45376
           26620         49.9958         35.3484         54.5319         8.24539
           26621         48.6987         32.8760         53.7139         7.55973
           26622         47.3052         31.5759         52.6031         6.69959
           26623         18.4721         17.9810         16.2464        -3.91933
           26624         72.8659         49.1410         83.6189        -1.96566
           26625         73.5585         49.3076         84.4846        -1.60327
           26626         72.3631         49.1698         82.9713        -2.17518
           26627         71.7890         49.0054         82.2520        -2.41710
           26628         77.8071         88.4653         52.0699        -6.40159
           26629         85.9855         47.0604         99.1528         2.13855
           26630         50.4420         35.7561         54.9608        -8.37444
           26631         85.1045         47.4891         98.1248         2.51304
           26632         84.7425         47.4472         97.6829         2.76210
           26633         71.6821         48.0949         82.2035         2.66844
           26634         72.0789         47.9461         82.7197         2.58670
           26635         52.5791         37.0037         58.1788        -7.37889
           26636         92.2196         105.880         61.3445        -2.93664
           26637         91.8551         105.435         61.1125        -3.13483
           26638         92.9514         106.614         63.1927        -2.40461
           26639         93.2622         106.961         63.6012        -2.22534
           26640         84.0804         47.2908         96.9238        -2.73707
           26641         83.5644         47.5178         96.3413        -2.66773
           26642         84.6506         47.4438         97.6047        -2.50780
           26643         85.0053         47.2906         98.0109        -2.47439
           26644         81.7138         93.0430         53.8420         6.60301
           26645         82.4866         93.9912         54.4160         6.40890
           26646         82.0797         93.4548         53.7318         6.77409
           26647         80.8547         92.0836         54.0812         6.14565
           26648         80.1621         91.2609         53.6388         6.20250
           26649         80.4058         91.6378         54.8675         5.32569
           26650         52.5995         57.2381         33.4562        -9.76657
           26651         51.3326         55.7114         32.6457        -9.73418
           26652         52.1916         56.4378         33.3390        -10.1460
           26653         53.5356         59.0398         33.7998        -8.82188
           26654         54.5435         60.3152         34.5001        -8.71179
           26655         53.7533         60.0551         33.7004        -7.54900
           26656         29.6261         30.0194         21.6134         7.26236
           26657         28.2041         28.6008         20.7466         6.84138
           26658         82.7466         93.8116         61.3412         3.56675
           26659         82.5853         93.4554         62.0890         3.36337
           26660         81.7094         49.6765         94.2427        -1.69560
           26661         81.8111         49.0490         94.3508        -2.08021
           26662         29.7673         19.8495         32.2207         5.58213
           26663         40.0054         28.0468         42.6332         7.99882
           26664         81.5613         50.0849         94.0666         1.47668
           26665         81.3193         49.3653         93.7851         1.82424
           26666         80.9580         49.8689         93.3606         1.51487
           26667         85.9239         98.1848         58.1172        -4.87439
           26668         86.6843         99.0485         59.6192        -4.25474
           26669         77.0118         50.4564         88.6429    -66.3645E-03
           26670         90.6691         103.712         63.0401        -3.08863
           26671         90.5780         103.784         61.3070        -3.52802
           26672         34.4572         36.7712         22.0680        -7.29493
           26673         35.1142         38.1067         21.5981        -6.76858
           26674         32.2127         22.1626         34.4121        -6.45361
           26675         78.8336         89.1681         57.9888        -4.89307
           26676         79.5975         89.9776         59.4541        -4.26397
           26677         76.9631         49.9768         88.6273    -224.279E-03
           26678         30.8619         20.9104         32.5839        -6.70428
           26679         39.5765         43.4863         25.7124        -6.63952
           26680         38.4498         41.6697         25.2611        -7.22310
           26681         39.8565         26.7523         43.8258        -6.44456
           26682         41.0532         28.7885         43.8755        -8.05485
           26683         44.5135         49.1196         27.1732        -7.41769
           26684         46.1403         50.1340         28.9838        -8.72776
           26685         46.8124         50.1582         29.9373        -9.67670
           26686         77.4654         50.4368         89.1947     76.3026E-03
           26687         76.9616         49.4084         88.6740     150.315E-03
           26688         77.7570         49.9203         89.5905    -127.682E-03
           26689         90.1664         103.266         61.2802         3.60894
           26690         89.9148         102.863         62.1264         3.39772
           26691         82.6288         49.3115         95.3263        -1.77811
           26692         33.6451         36.4396         20.8208         6.56618
           26693         44.8390         48.6497         28.1266         8.58258
           26694         42.9192         46.9496         26.4309         7.74864
           26695         58.7267         58.7059         57.1617        -5.49881
           26696         58.8864         58.8143         56.4029        -6.94008
           26697         58.4146         60.4160         55.2286        -4.02763
           26698         58.6409         59.7180         55.4521        -6.02986
           26699         58.5152         59.5545         56.1393        -4.79650
           26700         59.8139         65.3166         48.3177        -6.65319
           26701         63.7656         67.5263         55.4715        -7.63649
           26702         63.8535         68.5308         54.3195        -7.13575
           26703         70.1952         79.9303         42.8582        -6.51565
           26704         71.2227         81.3049         41.8846        -6.14509
           26705         30.8109         22.1442         31.4033         7.48733
           26706         30.2863         21.2168         31.4012         7.00721
           26707         33.7066         33.0129         25.2530        -8.98600
           26708         35.7240         34.5561         26.9278        -9.78934
           26709         33.4972         33.6733         24.3105        -8.48113
           26710         76.7152         87.5414         32.1979         1.10576
           26711         76.2767         87.1279         32.6167         1.27139
           26712         76.3999         87.1814         32.2170         1.54323
           26713         86.2366         97.8135         32.7677     471.248E-03
           26714         85.8134         97.4767         33.3432     466.196E-03
           26715         85.9835         97.5932         33.0263     613.155E-03
           26716         75.3352         86.6466         39.5034        -3.16617
           26717         74.6567         86.0014         40.3333        -2.53879
           26718         65.1670         74.8347         41.3372        -3.22480
           26719         65.7534         75.4509         40.3732        -3.95220
           26720         64.6720         74.1089         41.5789        -3.78138
           26721         66.7767         76.7370         39.4874        -3.71668
           26722         66.0907         75.9939         40.4351        -3.20028
           26723         95.9677         40.4316         108.673        -7.28057
           26724         95.2678         40.4585         108.203        -6.02512
           26725         94.5269         40.9356         107.257        -6.98069
           26726         94.1236         41.3640         106.543        -8.24387
           26727         98.8317         39.3709         112.131        -4.43643
           26728         96.8123         40.1720         110.111        -4.39051
           26729         96.7118         40.5719         109.821        -5.83193
           26730         96.3644         41.1753         109.192        -7.39119
           26731         95.6505         42.0588         108.104        -8.94909
           26732         97.5197         41.4444         109.913        -9.43232
           26733         96.5719         42.5830         108.464        -11.0617
           26734         36.8644         30.4284         32.6910         10.9412
           26735         35.7855         30.0701         31.3375         10.5937
           26736         37.1008         31.5553         31.8834         11.1096
           26737         37.3101         32.1916         31.5651        -11.1880
           26738         38.3751         33.6779         31.7762        -11.5308
           26739         37.6282         26.8686         38.1712         9.35464
           26740         39.0162         28.9932         38.1131         10.5526
           26741         76.7985         88.1971         38.3580         3.21495
           26742         76.6311         88.1507         38.9175         2.43641
           26743         76.1224         87.5533         39.0853         2.79469
           26744         79.7075         91.4277         37.1163         1.83505
           26745         80.1115         91.9115         37.1987         1.33781
           26746         68.3480         78.7320         38.6503         2.70150
           26747         68.0225         78.2579         38.5383         3.34070
           26748         68.7731         79.0390         37.6549         3.69178
           26749         68.6961         78.5034         36.7005         5.49426
           26750         69.3712         79.2725         36.1151         5.38115
           26751         75.6033         87.0280         39.5901        -2.58511
           26752         76.3252         87.7621         38.9116        -2.84015
           26753         77.4553         89.0202         38.3194        -2.41918
           26754         71.1682         81.6621         35.6546        -3.49241
           26755         71.7596         82.0722         34.5658        -4.30893
           26756         67.0135         77.1324         39.6484        -3.03178
           26757         67.7475         77.9325         38.7549        -3.39436
           26758         39.6866         26.7492         42.3845         8.09971
           26759         39.3498         41.2897         26.9209        -8.76342
           26760         40.1460         42.7384         27.0934        -8.34677
           26761         82.5290         46.8973         93.2262        -9.87615
           26762         83.5055         46.3027         94.5643        -9.40571
           26763         79.4348         48.0785         89.7392        -9.30509
           26764         80.4229         47.5023         91.1284        -8.86549
           26765         75.9765         87.2980         38.9029         3.37671
           26766         72.9812         84.1029         41.6221         2.65167
           26767         68.4361         78.5532         37.6590         4.20051
           26768         67.7425         77.8322         38.4832         3.89321
           26769         68.1890         78.1417         37.5798         4.75820
           26770         66.3336         76.2943         40.2107         3.17642
           26771         66.0831         75.8916         40.1362         3.76515
           26772         67.0237         77.0594         39.3417         3.55464
           26773         27.3759         22.3784         25.8238        -7.29551
           26774         26.4857         20.9971         25.7474        -6.78982
           26775         29.1181         23.3752         27.5865        -7.85894
           26776         24.7553         21.8309         22.3234        -6.46121
           26777         23.5437         24.1712         17.5022         5.37849
           26778         23.9218         23.7602         18.8163         5.79450
           26779         24.6589         23.7238         20.1407         6.25586
           26780         25.6971         23.9625         21.6390         6.74330
           26781         84.2994         96.2360         59.6165         3.06293
           26782         84.3553         96.3937         59.1741         2.97216
           26783         83.8318         95.9036         57.7607         3.33790
           26784         72.8909         49.0853         83.6572         1.96125
           26785         73.7401         82.7703         51.5454        -8.08683
           26786         85.0822         46.6308         98.0327         2.91400
           26787         85.3823         46.7446         98.4050         2.67324
           26788         85.4673         46.1798         98.4346         3.07763
           26789         27.0262         22.5537         25.7025         6.85111
           26790         29.0382         25.5356         25.9089         7.77778
           26791         29.1353         24.5744         27.0992         7.67126
           26792         55.5882         59.5897         35.8470         11.4049
           26793         84.3796         47.4175         97.2348         3.02918
           26794         92.1033         105.952         58.8440         3.12472
           26795         80.7061         91.5917         51.8064        -7.86482
           26796         72.3860         47.8717         83.1209         2.45554
           26797         58.9106         64.0206         51.3539        -2.72701
           26798         59.1977         64.9139         50.5071        -2.46299
           26799         59.2603         64.9720         50.0375        -3.54552
           26800         59.5424         64.8403         49.0087         6.24297
           26801         65.5498         73.8261         49.4126         4.19593
           26802         65.6617         74.1497         49.3101         3.56465
           26803         65.2539         73.5073         50.0893         3.04079
           26804         65.3762         73.8583         50.1717        -1.57005
           26805         65.8182         74.5827         49.2908        -2.31724
           26806         65.5154         73.9514         49.6203        -3.20282
           26807         58.9184         58.0223         58.2002         5.61060
           26808         63.1437         64.3972         60.8721         4.27046
           26809         63.2538         64.8425         60.0110         5.36772
           26810         63.0823         64.9766         59.9293         4.46832
           26811         63.3161         65.2367         59.2274         6.02817
           26812         59.5489         56.5651         61.2249         4.51516
           26813         60.1077         55.8326         62.6654         4.74266
           26814         60.3444         55.6287         62.4108         6.41919
           26815         59.1229         57.3085         59.9106         4.29581
           26816         59.4487         56.7070         61.4510         2.99716
           26817         34.7514         33.0145         26.8681        -9.70991
           26818         60.9453         68.7030         47.0492         2.08322
           26819         86.7616         44.7582         98.3718         9.13262
           26820         88.3210         44.0185         100.157         8.95092
           26821         88.0457         46.5726         99.4257         10.4576
           26822         72.0195         47.7517         82.6583        -2.66217
           26823         71.7891         47.5401         82.3777        -2.81551
           26824         71.1491         47.3208         81.5583        -3.19243
           26825         71.3793         47.5151         81.8447        -3.03470
           26826         72.3455         48.0140         83.0556        -2.45822
           26827         84.4653         96.2915         60.5551        -2.96406
           26828         84.1365         96.0367         59.4702        -3.18913
           26829         84.2997         96.2836         59.3525        -3.04800
           26830         84.6293         96.5379         60.4528        -2.82781
           26831         84.2609         96.0381         60.4081        -3.10556
           26832         84.0248         95.8455         59.6773        -3.27791
           26833         49.1546         52.2766         33.8329        -10.1214
           26834         81.0342         92.1355         52.8197         7.17025
           26835         81.0410         92.0473         52.2135         7.63327
           26836         80.3689         91.1738         51.6227         7.92111
           26837         80.3576         91.2682         52.2142         7.45276
           26838         81.5431         92.7673         53.1797         7.04180
           26839         81.2015         92.4105         53.4855         6.73056
           26840         48.4132         33.4963         51.6131         9.77703
           26841         49.6043         34.3855         52.9945         9.86654
           26842         49.2540         33.8120         53.2246         9.11915
           26843         84.5000         46.8457         97.3724        -2.93360
           26844         84.5060         46.5672         97.3455        -3.14805
           26845         84.9648         46.2911         97.8512        -3.21080
           26846         84.9523         46.5784         97.8736        -2.99431
           26847         25.9301         25.6556         20.1007         6.47606
           26848         25.5626         25.9552         19.0743         6.08342
           26849         27.8146         27.4070         21.3829         7.10213
           26850         53.9630         58.4501         34.5080        -10.3567
           26851         54.3026         58.3114         34.9640        -11.0283
           26852         55.4165         59.5626         35.6762        -11.1871
           26853         55.0752         59.6946         35.2409        -10.5135
           26854         53.1567         57.4623         34.0044        -10.3504
           26855         53.4105         58.2245         33.9583        -9.77465
           26856         74.3743         83.7133         52.8643         7.17448
           26857         74.3586         83.6193         52.3131         7.63185
           26858         73.7730         82.8477         51.7435         7.91936
           26859         73.7821         82.9473         52.2805         7.45721
           26860         84.5924         47.2978         97.4775        -3.02258
           26861         84.6058         47.1054         97.4565        -3.27516
           26862         85.0644         46.8178         97.9658        -3.33118
           26863         85.0450         47.0175         97.9819        -3.07725
           26864         92.3108         106.073         60.5697        -2.94183
           26865         92.0286         105.809         59.4160        -3.17020
           26866         92.2396         106.093         59.2862        -3.02477
           26867         92.5211         106.356         60.4552        -2.80141
           26868         92.4488         106.159         61.5046        -2.79822
           26869         72.0955         48.8801         82.6517        -2.39536
           26870         71.8733         48.8014         82.3706        -2.52241
           26871         71.2366         48.6434         81.5485        -2.89315
           26872         71.4581         48.7036         81.8352        -2.76202
           26873         75.7026         53.8913         84.3763        -9.20879
           26874         75.2682         49.7473         84.4961        -9.20814
           26875         74.9936         49.6521         84.5956        -8.21862
           26876         72.7116         50.2954         82.0652        -7.07466
           26877         90.5019         43.5369         102.014        -10.4822
           26878         70.2348         48.4117         80.2877         3.16165
           26879         69.2409         47.9788         79.0326         3.56251
           26880         86.1403         97.9795         63.5120         1.75785
           26881         85.8807         97.6217         63.5116         1.99094
           26882         72.0991         81.0598         52.0821        -6.75286
           26883         71.0105         79.7604         51.2262        -6.89135
           26884         86.2281         46.4808         99.3899         2.32269
           26885         85.6847         46.8612         98.7777         2.42952
           26886         52.5685         57.3184         36.1756         8.99826
           26887         54.1878         59.2694         37.4341         8.95998
           26888         51.9234         35.4983         57.1792        -8.08719
           26889         53.4556         36.6246         59.1124        -7.89166
           26890         69.7045         47.2050         79.7140        -3.60516
           26891         86.0503         97.8641         63.4746        -1.83818
           26892         52.7880         37.4100         57.9622         8.07919
           26893         13.7586         12.1781         13.8806        -2.40554
           26894         93.6480         107.535         63.0044         1.98596
           26895         94.0141         107.994         63.1226         1.67260
           26896         57.3790         63.4168         36.5339         9.17971
           26897         59.3573         65.7754         37.9184         9.18664
           26898         19.5579         20.8684         14.0801         3.76824
           26899         20.4065         21.1820         15.6127         4.26998
           26900         19.2479         19.6976         15.4175         4.01977
           26901         17.4662         17.9607         14.2760         3.41980
           26902         15.9250         16.2406         13.5102         2.98531
           26903         15.3087         16.2059         12.1806         2.63019
           26904         17.7622         16.7778         16.3729        -3.68023
           26905         19.4593         18.0644         17.8947        -4.29643
           26906         52.0449         36.8576         57.0671        -8.10128
           26907         53.3981         37.8171         58.8316        -7.85079
           26908         69.4228         47.0642         79.3592         3.72292
           26909         70.5485         47.6203         80.7825         3.18718
           26910         78.6058         89.3257         52.1219        -6.80496
           26911         77.2330         87.6383         51.0112        -7.13801
           26912         86.2967         46.6524         99.4763         2.30524
           26913         85.7380         47.0741         98.8459         2.42215
           26914         63.6002         63.4197         62.4706        -5.23516
           26915         75.8748         86.6637         32.6248         1.77051
           26916         84.8010         96.3855         33.4884         1.56856
           26917         84.2395         95.8868         34.0253         1.51318
           26918         84.0648         95.6623         33.9203         1.81807
           26919         93.6299         41.0700         106.623        -5.48728
           26920         93.8187         41.0932         106.679        -6.23426
           26921         92.5809         41.6714         105.329        -6.57731
           26922         93.2891         41.5046         105.900        -7.31875
           26923         95.0835         41.2231         108.184        -5.69675
           26924         95.2039         43.8024         106.630        -12.1905
           26925         93.3177         45.2559         104.212        -13.1165
           26926         37.9377         30.6605         34.2394         11.2052
           26927         26.6601         24.1309         22.9963         7.17750
           26928         26.5704         22.8091         24.1727        -7.13601
           26929         27.5224         24.1857         24.3175        -7.51284
           26930         29.3604         25.2100         26.1466        -8.20567
           26931         75.2753         86.6723         39.8395         2.58651
           26932         67.3087         77.4853         39.3954         3.00342
           26933         82.2416         93.3385         33.5300        -4.35849
           26934         81.2753         92.5405         34.5734        -3.91797
           26935         78.3073         89.9053         37.7231        -2.41897
           26936         71.6196         81.8036         34.3823        -4.76017
           26937         71.1286         81.7462         36.1186        -2.87800
           26938         64.4302         74.0206         43.0320         1.37807
           26939         63.8119         73.1697         43.9440     901.898E-03
           26940         63.5007         72.7292         43.7687         1.85883
           26941         63.2806         72.3633         43.6717         2.64559
           26942         63.0313         72.0592         44.5063         1.49318
           26943         91.5529         44.5650         103.400        -10.2047
           26944         91.5925         45.4526         102.814        -11.9120
           26945         93.2138         44.2455         104.844        -11.2218
           26946         88.4450         44.0305         100.215        -9.18778
           26947         90.6599         43.1804         102.507        -9.54305
           26948         79.6021         47.9791         89.9862         9.20926
           26949         77.9664         48.4045         88.3721         8.24110
           26950         80.8517         51.6526         90.2117         11.4096
           26951         70.6236         81.2816         43.6159        -2.81755
           26952         71.3702         82.1341         42.7664        -3.23042
           26953         71.1718         81.7192         42.5873        -4.23965
           26954         63.0363         72.0654         44.6591        -1.16858
           26955         63.2805         72.3817         43.7588        -2.43684
           26956         63.7436         72.8930         42.7252        -3.59541
           26957         64.3397         73.7647         42.2293        -3.16686
           26958         87.4471         99.8764         61.1259        -3.66788
           26959         35.8606         39.4661         21.2623        -6.20390
           26960         40.7389         27.2037         43.9408         7.83521
           26961         41.0050         45.2899         24.6099         6.81089
           26962         89.6229         102.411         62.8797         3.16354
           26963         82.3844         93.0537         62.7581         3.13546
           26964         79.5475         50.4849         91.6801    -875.538E-03
           26965         34.8630         23.6726         37.5987         6.61903
           26966         35.6454         39.6336         22.0884         5.39502
           26967         38.1044         42.4476         23.9720         5.56911
           26968         41.1433         44.2083         27.5464        -8.11121
           26969         34.8558         22.1542         38.2006        -6.08646
           26970         33.0963         20.1489         36.7776        -5.09324
           26971         80.3663         90.7504         60.9179        -3.67092
           26972         79.5441         50.1809         91.7005     767.209E-03
           26973         62.9370         53.7326         68.5986        -4.24595
           26974         63.9236         53.2247         69.9193        -5.35655
           26975         64.5231         61.1253         66.8400        -3.87104
           26976         65.5131         60.4156         68.5189        -5.37563
           26977         65.0541         74.8182         42.0961        -1.97925
           26978         65.0705         74.8677         42.8172    -660.981E-03
           26979         65.5619         75.5031         42.0029        -1.25694
           26980         82.7319         46.2845         94.1034        -8.21357
           26981         83.4457         45.8730         95.0600        -7.81300
           26982         82.0554         46.3167         93.6548        -7.17425
           26983         86.2569         48.2662         96.8766        -11.5675
           26984         85.2575         48.1088         96.2616        -10.3137
           26985         41.0745         42.3973         28.6411        -9.72243
           26986         63.1764         72.1354         43.4510        -3.37178
           26987         69.8418         80.2929         44.3415        -2.89080
           26988         59.7472         65.6557         48.4596         5.54870
           26989         59.8267         66.2729         48.4824         4.06832
           26990         66.2420         74.8674         48.1782         4.78588
           26991         66.8545         75.8480         47.3364         4.69911
           26992         66.6427         75.7663         47.8524         3.48604
           26993         66.0413         74.7956         48.6932         3.56260
           26994         59.6345         66.0001         49.2171         2.95924
           26995         67.1462         76.5790         47.2553         3.16058
           26996         67.5873         77.0473         46.4550         4.20025
           26997         67.9196         78.2473         39.0602        -2.65155
           26998         68.6419         79.0307         38.2418        -2.92731
           26999         67.2799         77.5136         39.6881        -2.54672
           27000         67.2868         77.5866         40.0713        -1.92514
           27001         72.4043         83.3361         36.3534         1.34760
           27002         88.7611         101.525         60.9610        -3.82844
           27003         88.9243         101.809         59.9559        -4.15488
           27004         33.3437         21.2143         36.9601        -5.15718
           27005         32.7372         21.6743         35.6521        -5.87690
           27006         40.2469         43.8332         24.8096        -7.53729
           27007         41.8991         45.0778         26.4597        -8.48833
           27008         80.6859         91.2860         60.1628         4.06367
           27009         80.0397         90.6441         58.6785         4.67967
           27010         34.9196         38.2300         22.2311         6.15139
           27011         36.1286         38.2694         24.3417         7.74064
           27012         34.2128         36.8309         22.4105         6.76188
           27013         87.8768         100.481         60.2405         4.08349
           27014         87.2476         99.7897         58.6945         4.69806
           27015         81.4933         92.2366         60.8305        -3.83037
           27016         81.5614         92.4777         59.8885        -4.15764
           27017         75.8504         86.7259         33.0421         1.38093
           27018         75.3466         86.1567         33.1108         1.87213
           27019         74.7076         85.5512         33.7580         1.88338
           27020         83.7349         95.4383         34.5291         1.43770
           27021         83.5261         95.1727         34.4003         1.76609
           27022         76.6134         49.1452         86.4265        -8.79912
           27023         69.8717         56.7241         76.8647        -6.22725
           27024         69.4734         57.4288         75.7381        -6.87456
           27025         71.0393         50.7366         80.1823        -6.09253
           27026         69.4050         51.1779         78.2811        -5.04037
           27027         69.3929         51.3185         77.9714        -5.87713
           27028         80.7575         51.0524         90.6575         10.4071
           27029         80.5361         50.5978         90.8483         9.47333
           27030         81.7867         47.0881         92.5241         9.44895
           27031         81.9892         46.7897         93.0249         8.79256
           27032         83.7453         46.1870         94.8556         9.37274
           27033         81.3394         47.4600         91.7489         10.0030
           27034         81.1923         92.6111         35.0431        -3.30269
           27035         71.8874         82.5632         35.5788        -2.75459
           27036         73.0865         83.7530         34.4040        -2.87997
           27037         77.8167         88.5214         30.9372     546.545E-03
           27038         86.7042         98.1941         32.2028     459.180E-03
           27039         50.1710         53.9190         34.4371        -9.67421
           27040         50.6782         53.1482         35.1743        -11.1917
           27041         49.2411         35.4688         52.4782         9.55729
           27042         49.2961         36.1339         51.5588         10.4747
           27043         50.0133         36.4917         52.7086         10.2457
           27044         50.0295         35.9057         53.7023         9.27378
           27045         84.5020         47.5306         97.4016        -2.82287
           27046         84.8892         47.3546         97.8461        -2.78798
           27047         74.5417         83.9685         53.4819         6.73872
           27048         73.9565         83.2628         53.0850         6.80337
           27049         84.6583         96.3865         61.4376        -2.81930
           27050         84.9597         96.7233         61.8094        -2.63103
           27051         71.8013         47.8639         82.3709        -2.71429
           27052         54.3824         59.4917         34.5824        -9.65413
           27053         84.4175         47.1440         97.3053        -2.75655
           27054         84.8094         47.0036         97.7522        -2.73921
           27055         92.7740         106.534         61.8965        -2.60686
           27056         72.4158         49.0267         83.0508        -2.21390
           27057         71.8721         48.8823         82.3647        -2.47364
           27058         80.5360         91.6127         53.0927         6.78971
           27059         22.7144         18.8841         22.2903        -5.27294
           27060         26.2571         26.3955         20.0158         6.33532
           27061         25.6839         25.1433         20.5906         6.35657
           27062         23.8935         23.7484         19.0479         5.66997
           27063         24.5031         25.0021         18.4644         5.65718
           27064         92.8701         43.5533         105.052        -9.44008
           27065         91.4382         43.9146         103.754        -8.63792
           27066         94.5948         43.0308         106.685        -10.0940
           27067         91.5649         42.2915         104.019        -7.63235
           27068         91.1623         42.3253         103.797        -6.79607
           27069         89.6065         43.0166         102.132        -6.86378
           27070         94.8913         41.0512         108.132        -4.67423
           27071         93.6694         41.7146         106.839        -5.03517
           27072         93.8372         41.8912         106.852        -6.03957
           27073         92.7979         42.2847         105.841        -5.67237
           27074         92.2317         42.7724         105.115        -6.43177
           27075         91.9509         41.7779         104.987        -4.94787
           27076         92.1091         41.7749         105.009        -5.73641
           27077         65.7674         60.9614         67.3217         7.76465
           27078         66.5355         60.3026         69.0216         7.93252
           27079         67.1972         60.1974         69.1098         9.58817
           27080         68.0964         59.5803         70.9399         9.68596
           27081         63.6829         53.2687         68.8037         7.04960
           27082         64.7246         52.8606         70.5092         7.08629
           27083         65.4029         52.4758         70.7438         8.78408
           27084         70.1763         57.6796         75.8969         8.46841
           27085         67.3273         59.6448         70.6737         8.08307
           27086         65.1903         52.7556         71.8524         5.61163
           27087         65.6857         52.5359         73.0619         4.27910
           27088         58.6461         62.8285         53.2198        -1.05201
           27089         58.6670         62.5614         53.7832    -62.0890E-03
           27090         58.9287         63.8081         52.3656    -325.637E-03
           27091         58.6443         63.0007         52.6914        -2.10365
           27092         58.8833         63.9046         51.8630        -1.62863
           27093         63.6728         70.2822         53.7429         1.08134
           27094         64.4762         72.1369         51.9843    -593.642E-03
           27095         64.1393         71.4134         52.5921        -1.13017
           27096         63.9703         70.9888         53.1725    -202.640E-03
           27097         58.6491         58.5666         58.5466        -1.90086
           27098         63.7991         63.0654         63.0413         5.61558
           27099         78.0876         88.3896         54.6355        -6.56067
           27100         78.7519         89.2152         55.7721        -5.99157
           27101         78.4390         88.7916         56.1970        -5.78644
           27102         82.5775         46.6121         95.1022         3.40765
           27103         80.5999         47.6680         92.9484         2.26358
           27104         80.2327         48.0557         92.5426         1.91592
           27105         80.9531         48.2147         93.3753         1.98900
           27106         32.9453         27.1542         29.8164        -9.46332
           27107         31.8614         25.6590         29.6489        -8.91572
           27108         33.7973         26.6143         31.7570        -9.49775
           27109         30.8183         24.2438         29.3937        -8.37913
           27110         30.1824         24.7954         27.8398        -8.39466
           27111         74.9508         47.9799         86.3557    -724.342E-03
           27112         75.3988         48.2634         86.8757    -621.459E-03
           27113         48.7941         35.3207         49.2915        -12.1748
           27114         42.0612         29.2565         43.8418        -9.55258
           27115         41.6882         29.5758         42.5841        -10.1527
           27116         82.4507         94.0252         57.4701        -4.40473
           27117         82.2874         93.6905         58.2406        -4.39443
           27118         82.8068         94.4767         57.7600        -4.15832
           27119         47.0495         48.8976         32.7650        -10.8207
           27120         49.3488         51.2577         34.4252        -11.3639
           27121         34.7317         33.9822         25.9751         9.30031
           27122         32.9213         32.3537         24.7061         8.67934
           27123         34.8817         34.9350         25.1269         8.99493
           27124         31.2039         30.7821         23.5615         8.08851
           27125         29.5653         29.2392         22.4969         7.54675
           27126         81.0739         47.3616         93.4654        -2.62981
           27127         81.2453         47.6973         93.6873        -2.38674
           27128         51.1529         53.7319         33.5766         11.6369
           27129         46.3754         48.5099         30.5556         10.7404
           27130         46.4660         49.3499         30.0507         10.0602
           27131         48.1404         50.1885         31.8454         11.2954
           27132         45.1190         32.1193         46.1132         10.9357
           27133         44.8564         32.2707         45.3303         11.2354
           27134         46.0405         33.3258         46.2661         11.6964
           27135         46.2733         33.1515         47.0471         11.3790
           27136         47.1054         33.3956         48.5915         11.0342
           27137         83.9212         95.6249         53.4253         7.14549
           27138         84.8460         96.8435         54.8035         6.43218
           27139         89.3629         102.520         57.0282         4.82158
           27140         89.1363         102.201         57.7341         4.74338
           27141         89.7599         102.924         59.0458         4.25475
           27142         73.0845         47.6270         84.0680         1.77788
           27143         75.7996         48.1363         87.3729     294.889E-03
           27144         76.6395         48.4089         88.3608    -57.2406E-03
           27145         76.4048         48.6594         88.0614     227.781E-03
           27146         43.3904         31.3873         45.3064         9.43286
           27147         45.1884         33.1695         46.7176         10.1462
           27148         47.6035         48.2246         33.7457         11.9594
           27149         42.3717         44.0145         29.3765         9.79967
           27150         42.0122         42.7981         29.6471         10.3800
           27151         32.3072         29.7598         26.2210         9.14509
           27152         34.5710         31.0349         28.4576         10.0885
           27153         32.8759         29.4403         27.3923         9.49015
           27154         31.9400         26.5428         29.6642         8.62272
           27155         33.6946         28.4053         30.5742         9.34801
           27156         34.4359         28.2702         32.0178         9.42750
           27157         34.2004         26.1072         33.9947         8.56252
           27158         35.1703         28.1411         33.4297         9.45569
           27159         35.8244         27.9372         34.8518         9.34367
           27160         49.8026         52.1319         32.8037        -11.4979
           27161         47.6788         50.2532         31.1456        -10.6928
           27162         50.8655         53.4920         33.3172        -11.5191
           27163         48.8433         37.1601         48.9058        -11.9772
           27164         42.0283         31.2005         42.7203        -10.0129
           27165         42.3748         30.8200         43.9533        -9.46047
           27166         75.7944         49.2447         87.2803     21.7576E-03
           27167         76.6651         49.3682         88.3185    -313.477E-03
           27168         76.3949         49.4956         87.9840     12.4571E-03
           27169         81.7526         93.0881         57.3055         4.78287
           27170         81.6103         92.8125         57.9502         4.70341
           27171         82.2401         93.4828         59.2287         4.21168
           27172         76.8739         86.8200         53.5849         7.13642
           27173         77.7362         87.9350         54.9105         6.42226
           27174         76.3392         86.1210         53.2586         7.32717
           27175         81.9506         48.0464         94.4230        -3.07803
           27176         81.3676         48.4587         93.7953        -2.58686
           27177         32.2692         26.2526         30.5477        -8.58098
           27178         34.1194         28.1204         31.6124        -9.36280
           27179         32.3531         26.9371         29.9400        -8.77886
           27180         35.9580         37.2233         24.3861        -8.57234
           27181         37.5790         37.7806         26.5981        -9.69942
           27182         37.9259         38.8319         26.0555        -9.36930
           27183         75.0602         49.2253         86.3882    -399.576E-03
           27184         75.4946         49.3345         86.9061    -337.028E-03
           27185         73.4338         49.1286         84.3543        -1.57636
           27186         90.2119         103.599         57.3323        -4.39775
           27187         89.9367         103.201         58.1603        -4.39014
           27188         90.9334         104.511         57.7213        -3.96177
           27189         91.1970         104.777         58.8898        -3.69648
           27190         90.6080         104.096         57.6289        -4.15035
           27191         85.3357         97.4355         54.5990        -6.51495
           27192         86.0104         98.3023         55.7546        -5.96283
           27193         85.6193         97.8276         56.2525        -5.74824
           27194         82.7267         47.5496         95.2453         3.64960
           27195         80.7242         48.5276         93.0496         2.49733
           27196         80.3446         48.8402         92.6301         2.13186
           27197         81.0476         48.8528         93.4539         2.15829
           27198         83.8989         95.6532         34.6750         1.14251
           27199         74.9952         86.0474         34.7124     833.926E-03
           27200         74.5588         85.6326         35.2305     768.742E-03
           27201         86.2555         98.2122         63.1910         1.57028
           27202         77.4778         88.2301         31.3598     752.945E-03
           27203         77.0879         87.8793         31.7833     946.910E-03
           27204         86.4225         97.9490         32.4785     640.808E-03
           27205         86.0688         97.6319         32.7866     799.846E-03
           27206         85.6501         97.2979         33.3455     723.309E-03
           27207         79.9899         91.0295         34.9498        -4.89860
           27208         80.7473         91.6514         34.1193        -5.26309
           27209         85.8635         47.1227         97.4269        -9.14728
           27210         89.7161         46.7456         100.505        -12.3930
           27211         84.9041         45.3472         96.5732        -8.27213
           27212         84.4390         45.7485         95.8117        -8.95135
           27213         86.6527         44.7281         98.3571        -8.81827
           27214         78.6542         51.9253         88.3543         9.51461
           27215         84.8525         96.4973         33.7078         1.25333
           27216         74.1452         49.6920         83.9908        -7.01040
           27217         76.7155         52.6230         86.2690        -8.43554
           27218         74.8713         53.7262         83.8737        -7.97132
           27219         73.6736         49.7772         83.5401         6.56949
           27220         61.0818         68.4170         45.7506        -5.38836
           27221         61.0753         68.6860         46.0709        -4.25560
           27222         67.5996         77.1459         46.5515        -3.76127
           27223         67.1560         76.6710         47.4392        -2.46452
           27224         67.7856         77.5465         46.5541        -2.84364
           27225         67.8938         51.8795         75.4771        -6.75772
           27226         67.8301         51.8566         75.7420        -5.85057
           27227         66.2634         52.3444         73.7762        -4.82174
           27228         66.2785         52.3647         73.4901        -5.72330
           27229         67.2613         52.0422         74.3385        -7.26226
           27230         65.5858         52.5841         72.3709        -5.89988
           27231         68.5807         58.4307         73.6631        -7.46331
           27232         69.2988         57.8426         75.0553        -7.40832
           27233         68.1849         58.3018         73.6095        -6.41050
           27234         67.2945         58.8423         72.1797        -5.87215
           27235         68.3462         57.8852         74.2725        -5.87046
           27236         67.8364         51.7575         76.0989        -4.85056
           27237         41.3712         38.5935         31.8357        -12.0728
           27238         38.8244         30.9414         35.4120         11.4259
           27239         40.2146         32.6843         35.8107         12.0691
           27240         40.4834         31.0441         38.2399         11.5471
           27241         31.1591         26.1957         27.9896        -8.84051
           27242         33.9030         28.5741         29.8905        -9.89249
           27243         31.2252         27.8390         26.4372         8.88935
           27244         78.3239         90.0230         38.1212        -1.73758
           27245         78.3341         90.1010         38.4722        -1.19795
           27246         79.0789         90.8788         38.0036        -1.15094
           27247         69.0784         79.7279         39.1209        -1.13563
           27248         85.6155         45.6987         98.5306         3.46782
           27249         22.8926         21.0798         20.4869         5.53348
           27250         84.7414         96.7649         60.0707         2.70185
           27251         84.8523         96.7404         60.9956         2.67585
           27252         85.3455         97.1778         62.1823         2.33991
           27253         84.6381         96.7734         59.2534         2.68998
           27254         84.2562         96.3987         58.3640         2.95825
           27255         70.1906         46.9536         80.3050         3.82056
           27256         70.6656         47.1727         80.9297         3.48436
           27257         21.6031         22.2617         16.5128        -4.69178
           27258         26.3981         24.4008         22.7390        -6.81295
           27259         27.2542         25.8865         22.5053        -7.04216
           27260         85.6253         46.3718         98.5592         3.55006
           27261         85.5061         46.6804         98.4901         3.13533
           27262         43.0759         39.9626         33.1877        -12.6934
           27263         43.0451         40.6882         32.5680        -12.4071
           27264         40.4548         32.2077         36.7692         11.9935
           27265         40.3088         31.5058         37.3515         11.7450
           27266         42.0065         32.4369         39.3155         12.1375
           27267         81.5624         93.4556         36.7185     769.057E-03
           27268         59.5217         65.7640         49.8805         1.84495
           27269         59.1807         64.8704         50.6448         2.20933
           27270         71.9067         82.8469         37.0131         1.06865
           27271         80.5670         92.4320         37.2282     912.868E-03
           27272         79.9380         91.8268         37.8606     609.522E-03
           27273         62.7538         65.4643         59.4819        -1.66392
           27274         58.8797         57.8546         59.6300        -2.14487
           27275         58.8874         57.9435         59.7170        -1.20704
           27276         85.4055         45.3199         96.9061         8.96628
           27277         77.6313         89.4101         39.2612     671.865E-03
           27278         68.9985         79.6447         39.2706         1.00537
           27279         65.1046         73.3153         50.4348         2.41146
           27280         44.5278         32.4270         44.3565         11.5768
           27281         43.6049         31.0320         44.4914         10.6392
           27282         43.2539         31.1898         43.5123         10.9836
           27283         43.2881         44.5921         30.2663        -10.3117
           27284         41.7246         43.6090         28.7408        -9.42553
           27285         79.2211         48.8013         91.3782        -1.12892
           27286         79.4177         48.3779         91.6123        -1.40798
           27287         80.1145         48.5857         92.4145        -1.56561
           27288         87.6113         100.261         58.2254         4.86673
           27289         87.0240         99.5615         56.9347         5.40454
           27290         86.6487         99.0889         57.4028         5.23686
           27291         38.0246         39.3732         25.6277         9.08995
           27292         36.7075         38.8759         23.8419         8.05294
           27293         38.9382         41.6940         24.6931         8.11573
           27294         40.1756         43.5858         24.9437         7.73225
           27295         88.9156         101.696         61.2267         3.73111
           27296         88.2431         100.979         59.6045         4.32887
           27297         78.7848         49.8105         90.8233    -590.110E-03
           27298         79.0054         49.2226         91.1134    -850.230E-03
           27299         80.9399         91.8164         58.7301        -4.62507
           27300         81.0500         92.0532         58.0037        -4.84084
           27301         81.6627         92.7155         59.1742        -4.37474
           27302         78.4867         48.8823         90.5187     776.547E-03
           27303         77.7860         48.5433         89.7111     577.548E-03
           27304         77.4704         48.8604         89.3217     288.088E-03
           27305         36.6435         24.0562         39.6113        -7.02114
           27306         36.0129         24.2549         38.2189        -7.63628
           27307         79.8884         49.6777         92.1288         1.04999
           27308         79.1981         49.2041         91.3399     933.022E-03
           27309         80.6071         91.1728         60.2253        -4.03548
           27310         80.7752         91.5115         59.4046        -4.38093
           27311         41.2842         43.8495         26.6213        -8.94874
           27312         42.8955         45.0881         28.0929        -9.73884
           27313         43.4778         46.3185         27.9408        -9.28092
           27314         39.5721         29.4758         40.0473         9.55275
           27315         40.9543         31.1944         40.5148         10.4331
           27316         41.9893         31.5278         42.2076         10.3010
           27317         40.6537         29.8095         41.7393         9.41941
           27318         41.5705         30.0763         43.3433         9.10101
           27319         36.1035         26.1857         37.3367        -8.19408
           27320         35.7525         26.6585         36.1694        -8.63247
           27321         34.1730         24.2423         35.8798        -7.36096
           27322         37.7354         41.0369         23.1883        -7.16038
           27323         39.5536         42.4639         25.0038        -8.12149
           27324         88.3014         101.099         58.7539        -4.62078
           27325         88.4948         101.378         57.9716        -4.83652
           27326         89.1081         102.089         59.1861        -4.37205
           27327         78.5721         49.5832         90.5702     979.614E-03
           27328         77.8817         49.3913         89.7644     815.435E-03
           27329         77.5542         49.6312         89.3636     508.500E-03
           27330         79.9479         50.0733         92.1707         1.18014
           27331         79.2711         49.7556         91.3878         1.09862
           27332         87.7851         100.356         60.3713        -4.03146
           27333         88.0495         100.745         59.4867        -4.37639
           27334         79.3008         49.4590         91.4282        -1.32412
           27335         79.5157         49.1350         91.6803        -1.62638
           27336         80.2061         49.2202         92.4841        -1.74803
           27337         80.3236         91.0619         58.2696         4.84437
           27338         79.7345         90.4130         57.0276         5.38435
           27339         79.4393         89.9936         57.4348         5.22061
           27340         78.8233         50.2434         90.8346    -736.451E-03
           27341         79.0635         49.7738         91.1429        -1.01892
           27342         81.6546         92.3928         61.1619         3.70489
           27343         80.9618         91.7285         59.5989         4.30450
           27344         66.9332         77.1441         40.2386         2.15009
           27345         67.2572         77.5710         40.2378         1.68064
           27346         66.8010         77.0427         40.8616         1.31807
           27347         66.4742         76.6171         40.8698         1.79038
           27348         81.8024         46.8345         92.8526        -8.66509
           27349         78.8736         50.7428         89.4264        -7.89244
           27350         79.5865         50.8555         89.9158        -8.86155
           27351         28.3587         23.8068         25.9944        -7.75855
           27352         28.5217         25.9492         24.1025         7.84506
           27353         30.3502         27.7394         25.1526         8.49945
           27354         36.4305         30.8951         31.5210        -10.8466
           27355         35.7753         32.1900         29.1983         10.5044
           27356         57.2343         39.4578         64.6532        -5.47385
           27357         55.9635         38.3751         62.9079        -6.21712
           27358         56.4399         38.7851         63.0561        -7.08853
           27359         68.4704         76.9788         49.9742        -6.10971
           27360         69.2430         77.5790         49.6436        -7.36893
           27361         86.9593         46.5032         100.298         1.13786
           27362         86.8339         46.4880         100.137         1.49193
           27363         87.1300         45.9870         100.435         1.67637
           27364         56.6161         63.1299         39.5930         7.11557
           27365         56.4244         62.1054         39.1923         8.65349
           27366         66.1302         46.5988         75.3006         3.67395
           27367         67.1995         47.0985         76.5546         3.76380
           27368         67.5720         47.1445         76.8936         4.31504
           27369         87.3746         98.9529         66.4431     948.963E-03
           27370         86.5637         98.4889         63.8361         1.32985
           27371         95.7136         109.322         68.6790     599.712E-03
           27372         95.2772         109.024         67.1970     851.518E-03
           27373         95.0290         108.958         65.6309     865.219E-03
           27374         94.6566         108.666         64.3338         1.10875
           27375         63.0601         71.5124         41.1999         6.09443
           27376         61.8628         69.8199         39.9866         6.95523
           27377         62.8798         70.6142         40.6056         7.87449
           27378         62.0431         69.2893         39.8511         8.59224
           27379         66.1586         45.8695         75.4187         3.84658
           27380         67.2529         46.3138         76.7081         3.93694
           27381         66.8600         45.8177         76.1357         4.57238
           27382         57.2768         40.3604         64.5719        -5.42499
           27383         56.0074         39.3926         62.7960        -6.20263
           27384         56.4982         39.9942         62.9080        -7.09578
           27385         10.9994         8.65198         12.0537        -1.30708
           27386         13.2194         12.3813         12.9685        -2.14776
           27387         14.9788         13.9721         14.4430        -2.72904
           27388         86.9859         46.5092         100.333         1.01450
           27389         86.8749         46.5181         100.191         1.38445
           27390         87.1939         46.0648         100.517         1.57967
           27391         73.1829         83.2939         49.6061        -5.44629
           27392         74.4884         84.6998         50.2515        -5.93131
           27393         74.1296         84.0873         49.3195        -6.81308
           27394         75.1105         85.1365         49.6889        -7.18157
           27395         77.1486         88.0224         32.1388     16.1435E-03
           27396         76.8501         87.7817         32.6387     186.031E-03
           27397         51.0080         36.4419         55.1578         8.97161
           27398         50.8353         36.9417         53.9373         10.0472
           27399         85.3886         47.0795         98.4166        -2.72727
           27400         73.1831         82.3050         52.4959         6.98809
           27401         85.2685         97.0929         62.0824        -2.39579
           27402         71.0529         47.5994         81.4211        -3.10948
           27403         55.6900         61.1099         35.4068        -9.60936
           27404         79.6393         90.5104         52.4841         6.97765
           27405         85.3123         46.7666         98.3233        -2.69885
           27406         93.1219         106.953         62.1813        -2.36289
           27407         71.1243         48.6432         81.4121        -2.87020
           27408         25.3121         24.0256         21.3012         6.36410
           27409         27.5691         26.7354         22.0111         7.05370
           27410         27.2068         25.6224         22.7271         7.05932
           27411         21.8624         22.1425         17.2631         4.89586
           27412         23.2565         22.3175         19.6988         5.60892
           27413         97.5212         39.6069         110.961        -2.83699
           27414         96.4105         39.9607         109.884        -2.20803
           27415         95.7141         40.5091         109.070        -3.75027
           27416         92.2162         42.4293         105.345        -5.02609
           27417         65.2863         61.0103         67.2992         6.23999
           27418         65.9354         60.3325         68.8224         6.40774
           27419         64.1409         53.1353         70.1960         5.57054
           27420         81.3971         92.2317         33.5182        -5.37853
           27421         58.4712         61.9429         54.0585        -1.65076
           27422         58.3875         61.1101         54.9075        -2.25286
           27423         58.4106         60.9379         55.4134        -1.22510
           27424         58.5105         61.7723         54.5600    -623.805E-03
           27425         59.2744         64.8279         51.4260     29.4927E-03
           27426         59.2206         64.9228         50.9288        -1.26684
           27427         59.3374         64.9355         49.6292        -4.61708
           27428         59.5959         65.8378         49.1338        -3.54948
           27429         65.0652         73.2988         50.8638    -793.151E-03
           27430         65.7119         74.4534         49.8052    -885.940E-03
           27431         66.5957         75.8577         48.2591        -2.04003
           27432         66.0990         75.0897         49.1063        -1.47852
           27433         62.9557         64.5190         60.7485         3.15032
           27434         63.0962         63.8614         61.8414         3.04298
           27435         63.2848         63.7391         61.9657         4.17097
           27436         63.5446         63.0845         63.1207         4.31963
           27437         63.2758         63.1489         62.9795         2.98402
           27438         59.9334         56.0293         62.7511         3.21062
           27439         60.5407         55.3843         64.1524         3.42849
           27440         82.7029         94.0196         59.7994        -3.93388
           27441         82.2890         93.5108         59.4773        -4.14067
           27442         81.8838         93.1844         57.9458        -4.60239
           27443         81.6779         92.8413         58.4166        -4.57321
           27444         75.8409         48.7057         87.3742    -569.235E-03
           27445         76.4628         48.7537         88.1242    -213.429E-03
           27446         76.0250         48.3111         87.6309    -263.687E-03
           27447         76.8738         48.5334         88.6324     101.000E-03
           27448         81.5378         48.1509         94.0424        -2.17237
           27449         80.9574         48.3068         93.3812        -1.95345
           27450         80.6565         47.8548         93.0207        -2.16277
           27451         80.2478         48.2013         92.5656        -1.80155
           27452         37.0285         37.7643         25.6691         9.22749
           27453         85.0406         97.1163         56.1079         5.80867
           27454         85.6694         97.8926         56.5322         5.61176
           27455         85.4695         97.6205         55.2226         6.23452
           27456         86.1723         98.5084         56.2993         5.71859
           27457         45.6880         34.1160         46.3952         10.8596
           27458         46.2945         35.1088         46.2753         11.4574
           27459         45.5687         48.6745         29.2391        -9.58426
           27460         46.4588         48.7735         30.4676        -10.6034
           27461         44.7578         47.2515         29.1360        -9.97280
           27462         81.6365         48.7350         94.1313        -2.32415
           27463         81.0554         48.9225         93.4643        -2.12086
           27464         80.7778         48.6465         93.1217        -2.37737
           27465         80.3547         48.9262         92.6502        -2.00518
           27466         78.5419         88.9051         56.5637         5.59969
           27467         78.2955         88.6393         55.3368         6.22145
           27468         78.9623         89.4553         56.3793         5.70369
           27469         75.9195         49.5780         87.3986    -330.267E-03
           27470         76.5452         49.5972         88.1567     21.5713E-03
           27471         76.1243         49.3521         87.6696     17.0960E-03
           27472         76.9668         49.4378         88.6755     350.883E-03
           27473         90.2757         103.529         59.8034        -3.93036
           27474         89.8171         102.968         59.4785        -4.13774
           27475         89.4862         102.642         57.8638        -4.59882
           27476         89.1962         102.246         58.3780        -4.57009
           27477         82.2848         93.2305         33.1538        -4.85182
           27478         72.4279         82.7091         33.8631        -4.43807
           27479         73.6193         83.4921         31.9503        -5.64647
           27480         62.9437         71.9143         45.0029     665.049E-03
           27481         62.3678         71.0441         45.6548     736.739E-03
           27482         92.3956         42.1673         104.650        -8.56582
           27483         88.2318         43.6361         100.662        -6.84195
           27484         78.1547         51.7630         88.0953        -8.71888
           27485         77.5707         51.5181         87.7979        -7.69878
           27486         76.1324         52.3708         85.9706        -7.41289
           27487         61.1704         68.1530         45.4182        -6.57166
           27488         60.5575         67.5203         46.7739        -5.11880
           27489         43.2197         41.5406         32.1624        -12.1648
           27490         44.6008         41.8927         33.8480        -12.9940
           27491         43.5110         42.5271         31.8679        -11.8931
           27492         43.4857         33.8893         40.2237         12.7506
           27493         12.3120         10.7397         12.7048        -1.93873
           27494         73.1140         81.8434         50.6523        -8.70284
           27495         73.6756         82.4627         50.5161        -8.97791
           27496         85.9135         45.3530         98.8147         3.71645
           27497         85.2033         45.5608         98.0021         3.85024
           27498         84.3027         46.9154         97.1463         2.95140
           27499         54.0991         37.1805         59.5835        -8.35614
           27500         51.5824         36.4990         54.0474        -11.2565
           27501         52.8957         55.2678         36.8538         11.8610
           27502         52.7112         54.2495         36.9959         12.5668
           27503         28.9452         26.3343         24.8828         7.75558
           27504         29.1158         27.3303         24.0221         7.75136
           27505         17.3438         17.1468         15.1593         3.50821
           27506         70.1532         48.4795         80.1009         3.57365
           27507         70.3883         48.6856         80.4058         3.35335
           27508         83.6482         95.7939         56.8586         3.38368
           27509         92.1148         106.032         57.9629         3.08768
           27510         91.6039         105.442         56.7661         3.48390
           27511         56.9925         60.8355         36.8932         11.9790
           27512         56.5215         59.6239         36.9200         12.6214
           27513         51.8832         38.8362         53.4761        -11.5575
           27514         31.1649         29.9315         24.4958        -8.33677
           27515         20.9154         18.3472         19.9850        -4.76462
           27516         80.0799         90.6893         50.9193        -8.43221
           27517         80.6789         91.3388         50.7284        -8.68721
           27518         85.9294         46.1026         98.8560         3.80432
           27519         85.2895         46.3734         98.1133         3.97638
           27520         42.1737         36.8776         34.5828        -12.8844
           27521         40.6510         35.4712         33.5797        -12.3533
           27522         42.6573         36.5077         35.7372        -13.0941
           27523         75.4182         87.0207         40.7850    -582.686E-03
           27524         76.1660         87.8241         40.1239    -837.654E-03
           27525         67.0539         77.3463         40.6028        -1.37465
           27526         67.6074         78.0342         40.6348    -616.131E-03
           27527         42.8997         31.4134         42.4329         11.3431
           27528         58.7677         62.4230         54.1862        -1.05337
           27529         59.1537         63.5462         53.1973        -1.96381
           27530         59.0063         62.6721         54.1701        -2.19887
           27531         58.5990         62.0420         54.4075     39.6442E-03
           27532         58.4808         62.0161         53.9769         1.62582
           27533         64.8380         72.8102         51.5030     92.0557E-03
           27534         72.2651         83.2726         37.1458     667.944E-03
           27535         63.8359         61.2978         66.0008        -1.54976
           27536         80.8763         46.9750         92.0856         7.75230
           27537         66.4920         76.6515         40.9672        -1.59388
           27538         66.7292         76.8991         40.4282        -2.14267
           27539         63.8301         73.1329         43.0156        -2.66923
           27540         64.6546         74.2469         42.1760        -2.59717
           27541         70.3629         81.0505         44.1948        -1.87798
           27542         70.0538         80.7052         44.9185    -750.910E-03
           27543         70.9607         81.8446         44.2129    -480.811E-03
           27544         79.3468         91.2449         38.4511     298.407E-03
           27545         79.6872         48.0535         91.9171        -1.74091
           27546         44.6852         45.9824         30.0948         10.9624
           27547         86.3919         98.7774         55.7744         5.91741
           27548         81.2064         92.3322         57.4219        -4.96212
           27549         76.9970         48.3239         88.7905     316.925E-03
           27550         44.5608         46.4612         29.5097        -10.4444
           27551         35.4062         27.1333         35.0143        -8.97104
           27552         88.7346         101.706         57.3360        -4.95856
           27553         77.1024         49.3193         88.8426     590.961E-03
           27554         79.8100         48.9005         92.0103        -1.98591
           27555         79.1202         89.6894         55.9149         5.89683
           27556         76.9831         47.7807         88.3039        -4.65634
           27557         76.7526         48.0466         87.8638        -5.29104
           27558         77.6558         47.7019         88.9439        -5.37682
           27559         76.1473         48.4515         86.9758        -5.77846
           27560         74.7649         48.9092         85.3793        -5.28767
           27561         75.1899         48.9626         85.6762        -6.07459
           27562         83.6834         45.6196         95.5389        -7.13038
           27563         83.5175         45.6104         95.4936        -6.61677
           27564         82.5392         46.0637         94.2890        -6.92217
           27565         76.9922         51.3460         87.4273        -6.75515
           27566         98.1041         39.7246         110.756         7.72960
           27567         86.8086         44.5303         98.6951         8.30619
           27568         87.6350         44.0346         99.7628         7.77251
           27569         85.4989         47.5501         96.8518         9.55852
           27570         95.6342         41.7745         108.269         8.19522
           27571         62.8953         67.4770         56.9947     191.747E-03
           27572         63.0472         68.2299         56.1027    -20.5166E-03
           27573         76.6259         48.7303         87.0332         7.37729
           27574         77.3008         48.3483         87.9856         7.07897
           27575         76.7260         52.6602         86.2449         8.50998
           27576         78.8374         51.3277         88.9640         8.80394
           27577         66.2716         59.4462         70.5599        -4.96317
           27578         68.0183         77.9514         46.5574        -1.97496
           27579         61.1255         68.9658         46.3615        -3.05621
           27580         61.3048         69.3338         46.5417        -1.99087
           27581         63.0893         65.6126         58.9181         4.81919
           27582         62.9285         65.1589         59.7938         3.42167
           27583         68.4626         78.9238         38.8438         2.23843
           27584         67.7124         78.0780         39.6265         2.04046
           27585         67.5845         77.8762         39.4362         2.50977
           27586         66.3038         76.4430         41.7845     533.416E-03
           27587         66.0797         76.1611         41.6495         1.06539
           27588         75.8663         87.3917         39.7104         1.98599
           27589         45.8179         33.5677         45.3863         12.0566
           27590         44.5408         33.0401         43.5021         12.0708
           27591         47.0636         34.6742         46.4356         12.4703
           27592         47.2785         34.4353         47.3155         12.1110
           27593         83.9842         95.5593         51.8875         7.91186
           27594         83.4955         94.9296         51.6742         8.06360
           27595         83.7417         95.3248         52.5949         7.59884
           27596         83.3136         94.8507         53.1068         7.33460
           27597         40.0490         37.4992         31.0415         11.5208
           27598         32.7360         31.4164         25.4996         8.86066
           27599         31.0208         29.8487         24.3523         8.27036
           27600         81.1021         47.0852         93.4650        -2.92367
           27601         81.4962         46.7071         93.8524        -3.43428
           27602         49.7689         51.0918         33.4978         12.3279
           27603         51.3719         52.1695         34.9983         13.1451
           27604         49.7044         51.7274         32.9286         11.7448
           27605         89.7105         103.021         55.6314         4.86482
           27606         89.2572         102.479         53.8496         5.28033
           27607         89.5577         102.797         56.3628         4.85035
           27608         72.1944         47.4983         82.9515         2.23928
           27609         72.3955         47.5253         83.2310         1.88245
           27610         50.5452         51.3911         34.3857        -12.8907
           27611         51.3881         52.5358         34.7481        -12.8947
           27612         50.5262         52.2928         33.6709        -12.1844
           27613         51.5707         53.6460         34.1871        -12.2050
           27614         50.2303         39.2967         48.8706        -13.0508
           27615         35.4268         31.0860         30.4788        -10.1197
           27616         33.7343         29.7897         29.0656        -9.51530
           27617         33.3566         28.8699         29.4807        -9.33064
           27618         37.2270         36.0890         27.8463        -10.2137
           27619         38.5006         36.2616         29.8056        -10.9517
           27620         37.3037         36.8254         27.1767        -9.96126
           27621         89.3530         102.585         54.7089        -5.14826
           27622         89.7039         103.035         54.9593        -4.92649
           27623         89.9771         103.347         56.1767        -4.65801
           27624         74.4324         49.2115         85.6212    -567.937E-03
           27625         73.4302         49.2545         84.3733    -983.764E-03
           27626         82.3575         47.5364         94.7271         4.19552
           27627         84.0526         95.7072         52.5368        -7.59401
           27628         83.8881         95.3795         51.2801        -8.19328
           27629         84.6927         96.5836         53.5641        -7.04191
           27630         81.1007         92.5520         54.1762        -5.49274
           27631         82.5079         94.2169         56.6774        -4.41043
           27632         38.7060         31.0107         35.1264        -11.4298
           27633         74.6815         47.7652         86.0536    -566.835E-03
           27634         50.0400         36.6669         50.0610        -12.7674
           27635         49.4826         36.7930         48.5482        -13.2175
           27636         76.8335         86.7254         52.6135        -7.67774
           27637         76.6391         86.4139         51.5010        -8.25106
           27638         77.4629         87.5781         53.6285        -7.10019
           27639         82.1399         46.3689         94.5287         3.84770
           27640         47.7442         36.6012         47.2734         12.0464
           27641         47.1752         35.6879         47.3590         11.5346
           27642         46.7312         34.9083         47.5328         11.0324
           27643         37.5095         33.9894         30.1360         11.0726
           27644         39.5732         35.9845         31.4356         11.7495
           27645         38.9966         34.9073         31.5384         11.6685
           27646         37.5524         31.9266         33.2098         10.7743
           27647         36.3359         30.3408         32.9078         10.2512
           27648         35.2151         29.9158         31.4637         9.94058
           27649         36.4620         31.5097         31.7709         10.4613
           27650         77.0067         86.9309         51.8437         8.00210
           27651         76.1561         85.8420         52.4899         7.77908
           27652         81.5847         47.8950         93.9173        -3.64396
           27653         81.8152         47.9238         94.2257        -3.37676
           27654         82.5867         47.8072         95.1394        -3.26017
           27655         74.9162         49.2325         86.2129     368.315E-03
           27656         81.9075         93.4752         55.9504         4.85612
           27657         81.2963         92.8334         54.1654         5.33941
           27658         81.8488         93.3025         56.6669         4.82726
           27659         69.7968         80.3772         45.2328     506.696E-03
           27660         69.0701         79.4239         45.9387     514.075E-03
           27661         69.9617         80.5719         44.7746         1.36848
           27662         61.8126         70.1816         46.1504         1.21026
           27663         62.1055         70.5552         46.3932    -44.9851E-03
           27664         74.7252         85.8546         35.5188     486.183E-03
           27665         74.3485         85.4960         36.0289     359.917E-03
           27666         84.4028         96.1024         34.1718         1.21738
           27667         68.0459         78.5048         39.6093         1.61916
           27668         11.0128         9.37015         11.6637        -1.49785
           27669         11.0095         11.6590         9.37133         1.49605
           27670         68.3436         78.4409         46.6306     631.473E-03
           27671         68.9038         79.1723         46.3901    -289.384E-03
           27672         68.1839         78.1889         47.0830    -171.830E-03
           27673         62.1568         70.4398         46.9505        -1.23006
           27674         63.2081         53.5680         68.6597         5.46312
           27675         74.8449         53.0705         84.3583        -6.97365
           27676         73.3416         54.3611         82.0395        -7.14455
           27677         73.8950         49.5618         83.9818        -6.14922
           27678         59.4660         64.9867         49.2272        -5.43855
           27679         60.5177         67.7353         47.1133        -3.91136
           27680         67.4025         77.0930         47.3544        -1.63426
           27681         67.6185         77.4163         47.4056    -742.871E-03
           27682         61.0549         68.8027         47.7124    -235.497E-03
           27683         61.6139         69.8448         46.5392    -929.561E-03
           27684         61.0487         54.9554         65.5107         2.26247
           27685         64.8293         61.0064         67.1520         4.77384
           27686         65.4677         60.3276         68.6761         4.94148
           27687         67.1625         58.4801         72.5499        -4.83438
           27688         66.1683         59.0871         70.9372        -3.93070
           27689         66.4656         52.1533         74.3987        -3.77205
           27690         65.1723         52.5883         72.6920        -2.61529
           27691         74.7216         49.3699         84.8483         6.72431
           27692         74.9717         53.9794         83.7280         8.48897
           27693         74.9476         53.4077         84.1874         7.60471
           27694         76.7709         48.2550         87.6727         6.03753
           27695         81.3565         46.6907         92.7437         7.47737
           27696         80.4516         49.7661         91.3909         7.99313
           27697         79.1229         50.0054         90.1352         6.89902
           27698         56.9473         63.2129         39.7738        -7.73269
           27699         55.8694         62.4113         39.0161        -6.80695
           27700         86.7943         98.6765         64.3862        -1.15852
           27701         87.2081         98.9243         65.6790    -957.175E-03
           27702         87.4678         98.9453         66.9427    -964.266E-03
           27703         66.8395         45.9908         76.1631        -4.25627
           27704         67.6414         46.6686         77.2117        -3.61108
           27705         66.8736         46.5367         76.3157        -3.35680
           27706         56.0049         39.6522         62.1989         7.34550
           27707         56.4226         39.8110         63.0618         6.64230
           27708         55.4573         38.9518         62.2252         6.05733
           27709         56.3935         39.6667         63.6524         5.16505
           27710         68.8390         77.1723         49.5111         7.13631
           27711         68.2949         76.6754         49.5364         6.56870
           27712         68.9632         77.6074         50.6019         5.76020
           27713         87.0753         46.2739         100.404        -1.40602
           27714         86.7083         46.7161         100.011        -1.39059
           27715         86.7630         46.7914         100.093        -1.05247
           27716         56.0674         38.4720         62.8612         6.59103
           27717         55.1837         37.7810         62.1294         5.91830
           27718         56.2224         38.7170         63.6142         5.10339
           27719         74.2350         84.1702         49.2491         6.97726
           27720         73.5998         83.6128         49.3903         6.22062
           27721         74.6115         84.9294         50.6988         5.45648
           27722         87.0403         46.2146         100.356        -1.50313
           27723         86.6800         46.6874         99.9725        -1.49047
           27724         86.7425         46.8057         100.065        -1.16260
           27725         62.0606         69.5315         39.9442        -8.13913
           27726         62.5073         70.4733         40.4666        -7.18652
           27727         61.1544         69.1730         39.5236        -6.50145
           27728         94.8645         108.819         65.1423    -995.269E-03
           27729         95.2857         109.092         66.8661    -776.863E-03
           27730         95.3929         109.031         67.9987    -845.296E-03
           27731         66.9086         46.9078         76.1467        -4.08145
           27732         67.7037         47.4334         77.2005        -3.45565
           27733         66.9329         47.1992         76.3059        -3.22611
           27734         38.2490         32.9085         32.3436         11.5223
           27735         83.5511         95.4612         58.0749        -3.61284
           27736         83.4482         95.4416         57.2922        -3.65890
           27737         83.7791         95.8069         57.9091        -3.39604
           27738         83.8868         95.8247         58.7031        -3.35534
           27739         72.2648         47.6499         82.9884        -2.51684
           27740         71.7043         47.4473         82.2778        -2.85653
           27741         71.1042         47.2700         81.5070        -3.20455
           27742         70.3524         47.0041         80.5231        -3.69811
           27743         48.0854         35.5513         49.6479         10.7772
           27744         47.6511         35.6066         48.5714         11.1516
           27745         48.5914         35.7642         50.5025         10.6101
           27746         49.9343         37.0573         51.6329         11.0697
           27747         84.1176         47.2631         96.8903        -3.34553
           27748         84.5247         47.0091         97.3374        -3.45222
           27749         84.1830         47.3635         96.9902        -3.17145
           27750         84.9065         46.7045         97.7299        -3.70134
           27751         85.4601         46.3455         98.3335        -3.80146
           27752         74.8974         84.2847         52.5517         7.60137
           27753         74.4175         83.6426         51.9985         7.90218
           27754         74.8537         84.2774         52.8781         7.31963
           27755         74.0287         83.0567         51.3238         8.37626
           27756         53.9134         58.2228         37.2255        -9.97325
           27757         52.5886         37.6098         57.1244         8.87507
           27758         54.0126         39.1766         58.0528         9.77646
           27759         51.5486         36.6410         56.2323         8.42660
           27760         71.3938         79.7793         49.9623         8.60361
           27761         85.3452         47.4838         98.4197        -2.30867
           27762         85.5655         97.5079         62.0574        -2.13153
           27763         85.1341         97.3318         59.9584        -2.24932
           27764         85.6533         97.4431         62.9156        -2.13271
           27765         69.8992         47.0660         79.9530        -3.70893
           27766         70.6332         47.5735         80.8895        -3.20943
           27767         50.9062         36.0563         53.1151         11.3329
           27768         84.0561         46.4150         96.7960        -3.38624
           27769         84.4393         46.0684         97.1909        -3.60759
           27770         84.8090         46.0419         97.6238        -3.51611
           27771         84.4210         46.4002         97.2242        -3.29655
           27772         85.3585         45.6856         98.2189        -3.61138
           27773         52.9092         36.5101         57.5671         9.20510
           27774         53.4405         36.7074         58.7978         8.35830
           27775         82.0492         93.2254         52.2078         7.80019
           27776         82.6760         94.0318         52.6253         7.58013
           27777         81.9200         92.9727         51.5482         8.21241
           27778         80.6927         91.4418         51.1455         8.38015
           27779         55.2808         61.4862         34.9517        -8.22274
           27780         77.5675         87.6139         49.7428         8.64740
           27781         79.5273         90.5464         53.5360         5.98130
           27782         53.4307         57.0401         34.5238        -11.2341
           27783         54.4139         58.0655         35.2091        -11.4604
           27784         53.2925         57.2632         34.2633        -10.7869
           27785         55.3850         58.8003         35.9865        -11.9862
           27786         91.6578         105.375         58.8394        -3.43651
           27787         91.8086         105.588         58.6046        -3.33770
           27788         91.7606         105.585         57.7582        -3.38057
           27789         23.1552         20.2145         21.7955        -5.57018
           27790         25.7749         23.1624         23.0683        -6.58330
           27791         27.8154         24.6782         24.8120        -7.33397
           27792         29.7708         26.1948         26.4233        -8.04346
           27793         22.9947         23.9251         16.9005         5.00213
           27794         72.0509         48.8785         82.6036        -2.33890
           27795         71.4540         48.8414         81.8245        -2.66877
           27796         71.2035         48.7603         81.4948        -2.86821
           27797         71.7952         48.7988         82.2713        -2.54343
           27798         70.4560         48.5912         80.5055        -3.35006
           27799         91.3445         43.4321         104.020        -7.18894
           27800         91.2931         43.0681         104.254        -5.79345
           27801         90.4092         43.7297         103.173        -6.54867
           27802         90.2877         42.6005         103.189        -5.32371
           27803         91.0732         42.2220         104.068        -5.01498
           27804         68.9065         57.3280         75.4022         5.73782
           27805         69.5294         57.4880         75.6918         7.10834
           27806         67.8772         58.1170         73.5877         5.51594
           27807         68.5736         51.5731         76.8832         5.67531
           27808         66.6530         52.1342         74.5306         4.29855
           27809         67.6639         51.7459         76.0409         4.21695
           27810         83.5429         95.1874         34.3814        -1.76758
           27811         74.6273         85.4408         33.6818        -2.03649
           27812         68.3215         57.4662         74.7173        -5.04986
           27813         69.6812         56.3362         77.0761        -5.26447
           27814         69.5261         50.9553         78.6901        -4.28090
           27815         68.0154         51.5469         76.6152        -4.01661
           27816         70.1510         80.9916         39.6470    -484.225E-03
           27817         69.2415         79.9389         40.4185    -708.504E-03
           27818         68.5202         79.0733         39.3952         1.36238
           27819         78.2155         90.0565         39.1332     301.259E-03
           27820         44.5703         41.1891         34.3747        -13.2188
           27821         44.4111         35.4456         39.9950         13.3417
           27822         44.7599         35.2211         40.9488         13.2713
           27823         43.9778         36.0112         38.5487         13.4092
           27824         43.9689         35.4798         39.1546         13.2986
           27825         65.1160         73.1961         51.3478        -1.19608
           27826         65.2156         73.2018         51.4617        -2.10985
           27827         64.7120         72.2150         52.3263        -2.10924
           27828         39.5770         40.3435         27.2530         9.92465
           27829         41.7066         41.8450         29.2599         10.9037
           27830         78.9702         47.9006         91.0921        -1.57218
           27831         86.6986         99.1567         55.2645         6.06295
           27832         80.6403         91.6826         56.3558        -5.41691
           27833         40.2632         30.1795         38.9958        -11.0532
           27834         77.2453         48.0805         89.0932     618.639E-03
           27835         44.1713         45.3994         29.8191        -10.8717
           27836         41.4717         32.6400         39.6148         11.2283
           27837         37.3833         29.0096         36.4187        -9.76593
           27838         40.4866         39.2623         30.0699         11.1662
           27839         39.3805         37.4957         29.8430         11.1546
           27840         88.1654         101.012         56.2241        -5.41234
           27841         77.3650         49.1587         89.1580     915.393E-03
           27842         79.1044         48.8785         91.1872        -1.86044
           27843         79.3525         90.0230         55.4714         6.03621
           27844         79.3196         47.2065         90.7494        -6.10048
           27845         78.5618         47.3326         90.0374        -5.37152
           27846         79.4269         47.0114         91.0697        -5.36004
           27847         78.7191         47.1444         90.3846        -4.68519
           27848         77.8595         47.4673         89.3543        -4.69633
           27849         91.6763         42.1395         104.284         7.02483
           27850         92.9035         41.4507         105.765         6.07549
           27851         94.5316         41.6996         107.480         6.51205
           27852         96.3276         41.0451         109.238         6.95392
           27853         62.6981         64.9118         60.2138    -363.253E-03
           27854         62.6840         65.5698         59.3246    -354.620E-03
           27855         58.9521         58.0892         59.7727     349.529E-03
           27856         59.1441         57.6848         60.4594     956.615E-03
           27857         58.8726         58.6533         59.0061         1.28640
           27858         65.6237         75.5772         41.8536         1.41515
           27859         64.9954         74.7694         42.8829     664.641E-03
           27860         66.0245         76.0356         41.0695         2.14893
           27861         66.6499         76.7498         40.1971         2.64563
           27862         73.6792         85.0721         42.1049     409.282E-03
           27863         81.0770         91.7695         50.5220         8.86461
           27864         81.1245         91.9391         51.1202         8.46694
           27865         45.8941         32.4908         47.2699         10.8322
           27866         47.4698         34.0448         48.3573         11.5790
           27867         51.2396         51.4634         35.3813         13.4910
           27868         51.4934         51.1530         36.0545         13.8962
           27869         50.3385         49.8301         35.4108         13.6811
           27870         34.1945         31.9858         27.3482         9.53940
           27871         35.4104         32.3720         28.9534         10.0819
           27872         33.8728         31.0933         27.8154         9.51756
           27873         84.5581         45.8053         97.2768        -3.87125
           27874         83.6852         46.3246         96.3441        -3.56656
           27875         55.3511         57.8074         36.5179        -12.9034
           27876         54.9031         57.8730         35.8798        -12.3041
           27877         52.0820         53.7356         34.8039        -12.7006
           27878         31.6156         29.4552         25.8497        -8.66292
           27879         32.5442         29.5002         27.3769        -9.07365
           27880         33.2138         30.5710         27.2961        -9.27294
           27881         31.5770         27.5344         27.9575        -8.70124
           27882         32.9312         27.9345         29.8023        -9.10056
           27883         91.1412         104.878         56.0027        -3.84927
           27884         91.4277         105.190         57.1100        -3.64612
           27885         91.0272         104.683         56.8297        -3.95271
           27886         71.1503         48.9255         81.4235        -2.74237
           27887         73.0367         49.1672         83.8745        -1.40192
           27888         83.1162         95.1372         56.2471        -3.85927
           27889         82.2622         93.9885         55.8539        -4.58942
           27890         51.8510         52.4500         36.7912        -13.0846
           27891         50.7215         51.9280         35.6876        -12.3252
           27892         71.0336         47.2300         81.4372        -3.12776
           27893         71.3502         47.3007         81.8351        -3.02017
           27894         72.0680         47.4672         82.7690        -2.50109
           27895         51.3042         38.4493         52.7154         11.5719
           27896         50.7125         37.4886         52.7776         10.9459
           27897         48.0903         36.3756         48.3976         11.6570
           27898         38.5311         33.5590         32.9545         11.2303
           27899         40.0085         34.6009         34.3491         11.7205
           27900         74.3332         83.3227         50.7743         8.85767
           27901         74.3934         83.4894         51.3209         8.46196
           27902         84.6308         46.6468         97.3394        -4.16544
           27903         84.5418         46.8077         97.2957        -3.83362
           27904         83.7632         47.1424         96.4098        -3.83044
           27905         41.3293         30.0455         41.1775        -10.7547
           27906         41.7153         31.6119         41.5025        -10.4939
           27907         41.6584         41.4429         30.0636         10.9546
           27908         66.8633         76.2550         47.8859         2.18762
           27909         66.9766         76.4738         48.0913     925.265E-03
           27910         66.4776         75.7032         48.6416         1.24103
           27911         59.8907         66.5018         49.6629     473.027E-03
           27912         61.3752         69.4622         46.5324         1.72250
           27913         69.6861         50.8771         78.9324         4.21115
           27914         69.4827         51.2122         78.2804         5.36173
           27915         68.6385         51.3162         77.4551         4.21522
           27916         70.6605         56.7428         77.5096         7.38322
           27917         70.1550         56.3389         77.4913         6.01453
           27918         82.6351         46.1061         94.2823         7.31724
           27919         83.4072         48.2865         94.7526         8.60976
           27920         84.9806         47.4003         96.5718         8.68610
           27921         76.0148         87.0561         33.8711     553.662E-03
           27922         75.6970         86.7601         34.2453     610.062E-03
           27923         85.0791         96.8670         34.2846     531.903E-03
           27924         84.7589         96.6007         34.7123     475.964E-03
           27925         84.9350         97.1580         59.4138         2.36692
           27926         68.9476         48.0591         78.4796         4.34772
           27927         68.4118         47.7389         77.7830         4.62759
           27928         67.6961         47.6940         76.7258         5.18183
           27929         54.3183         57.3418         37.7130         11.5854
           27930         55.4556         59.1185         38.4381         11.1839
           27931         53.7004         37.8659         56.9516        -10.9992
           27932         53.4095         37.9207         56.1059        -11.4645
           27933         52.4950         37.1474         55.1892        -11.2558
           27934         87.0640         45.1022         100.184         3.03097
           27935         87.0023         45.3719         100.165         2.73971
           27936         71.7951         80.1017         49.7429        -9.09921
           27937         70.9986         79.1516         49.4402        -9.03272
           27938         87.1231         45.6232         100.299         2.88713
           27939         87.0297         45.5781         100.158         3.17562
           27940         77.7304         87.6632         49.4417        -9.07222
           27941         78.8825         89.1562         50.1887        -8.74353
           27942         54.4604         39.6831         58.3339        -10.0535
           27943         55.3145         40.7642         58.7800        -10.6301
           27944         54.6359         40.5941         57.4124        -11.1299
           27945         60.0188         64.2926         38.7355         12.3652
           27946         58.7882         63.1750         37.8918         11.8743
           27947         60.4909         65.4001         38.8619         11.7374
           27948         68.3138         46.2537         77.7808         5.00553
           27949         68.1742         46.1861         77.6208         4.98561
           27950         92.5585         106.596         58.1613         2.66667
           27951         92.9166         107.060         58.2189         2.24727
           27952         63.4488         72.6367         44.5771    -398.096E-03
           27953         64.4173         73.9773         43.6961    -192.469E-03
           27954         71.6824         82.7257         43.7149    -238.479E-03
           27955         71.5316         82.5209         44.1786     573.690E-03
           27956         66.0272         74.9519         49.5654    -186.620E-03
           27957         59.5998         65.9520         49.5213        -2.31954
           27958         72.5048         83.4499         36.3380        -1.29243
           27959         73.1094         84.1132         36.1025        -1.04301
           27960         81.7395         93.5796         36.3102        -1.10477
           27961         81.5934         93.4981         36.7666    -685.544E-03
           27962         82.4924         94.2786         35.5898        -1.32384
           27963         82.2987         94.1565         36.0635    -944.836E-03
           27964         79.0657         90.9166         38.3456    -689.099E-03
           27965         60.8199         55.1477         65.2122    -697.644E-03
           27966         61.1972         54.8270         66.0215     62.5038E-03
           27967         60.4634         55.5605         64.3851     477.126E-03
           27968         60.0872         55.9418         63.5142    -90.1361E-03
           27969         63.3591         61.7482         64.8550    -117.478E-03
           27970         63.4027         61.9720         64.7035    -936.327E-03
           27971         58.8263         58.3908         59.2520    -84.3416E-03
           27972         59.1944         57.6811         60.5310        -1.20652
           27973         83.5944         45.5234         95.7571        -5.92787
           27974         84.8697         47.2393         96.6170        -8.17706
           27975         83.9049         47.3944         95.7798        -7.29056
           27976         82.3515         48.2987         93.9332        -7.35796
           27977         69.7690         80.3085         45.6342    -446.219E-03
           27978         57.5786         59.9220         38.0756         13.6194
           27979         69.6159         46.9361         79.5352         4.10713
           27980         69.4318         46.7907         79.2773         4.31863
           27981         71.4611         47.3722         82.0135         2.67779
           27982         70.3657         47.2307         80.5730         3.37174
           27983         91.1285         104.914         54.9385         3.78747
           27984         52.9047         40.4402         53.5078        -12.4403
           27985         53.0126         39.9358         54.5280        -11.8291
           27986         32.6543         30.8218         26.0677        -8.94889
           27987         30.0922         28.5624         24.2666        -8.04105
           27988         85.2325         46.2354         97.9179         4.69862
           27989         73.5012         81.9957         49.5831        -9.76824
           27990         85.0203         45.2463         97.6734         4.49007
           27991         52.7397         37.7104         54.8025        -11.8702
           27992         54.0283         54.6526         38.3188         13.6386
           27993         34.3251         30.7840         28.9417         9.72748
           27994         69.4911         49.0332         79.1368         3.76200
           27995         69.4284         48.6678         79.0699         3.99404
           27996         83.4537         95.6892         55.7722         3.38398
           27997         82.9443         95.0876         54.9562         3.81116
           27998         99.2914         38.9226         112.728         2.81547
           27999         98.6227         38.8388         112.066         1.97936
           28000         99.4108         38.5570         112.901     888.396E-03
           28001         88.7926         43.4272         101.219         7.03687
           28002         87.0932         44.0757         99.5368         6.38040
           28003         90.1619         44.0522         102.745         7.26266
           28004         78.7423         90.6375         39.0760    -68.8246E-03
           28005         71.0309         81.9836         38.9844    -356.690E-03
           28006         71.8726         82.9151         38.4216    -296.091E-03
           28007         70.5208         81.4076         39.0394    -66.3129E-03
           28008         79.8309         48.4655         91.8192        -3.80177
           28009         80.6660         48.1822         92.7291        -4.26930
           28010         81.3239         47.9371         93.5560        -3.98675
           28011         76.3886         86.0526         51.0903         8.49317
           28012         77.2971         87.3303         51.5450         8.01722
           28013         73.0481         49.5287         83.8781    -769.708E-03
           28014         89.1050         102.293         53.2657        -5.39694
           28015         88.9541         102.078         53.8571        -5.47768
           28016         88.3289         101.267         52.8772        -5.93436
           28017         48.4837         38.1034         46.6721         12.8955
           28018         47.9672         38.0684         45.5728         13.0339
           28019         49.5973         39.4143         47.2397         13.3758
           28020         38.1466         35.2667         30.3223        -10.9749
           28021         36.5111         33.8771         29.1329        -10.3861
           28022         52.0122         52.1188         35.9928        -13.7758
           28023         50.4704         50.7324         34.8219        -13.2605
           28024         50.1172         49.5882         35.2911        -13.6297
           28025         72.8949         47.6468         83.8760        -1.24941
           28026         73.8320         47.6497         85.0325    -800.102E-03
           28027         81.1745         92.7245         53.6427        -5.41354
           28028         80.4894         91.7829         53.2469        -5.95453
           28029         39.4356         35.0484         32.7991         11.5550
           28030         37.1330         32.6464         31.6031         10.7400
           28031         80.6504         46.7052         92.8306        -3.70894
           28032         83.4637         94.7732         50.6812         8.54133
           28033         84.1624         95.7519         51.4715         8.04290
           28034         84.4751         96.1244         51.0485         8.10735
           28035         47.8568         35.7600         46.5245         13.0472
           28036         48.6822         36.6516         47.0085         13.4134
           28037         74.7973         86.3423         41.3794    -247.010E-03
           28038         73.3279         84.6380         43.0864         1.10936
           28039         65.9377         75.9375         41.2215        -2.02664
           28040         65.4303         75.3123         42.8679     28.4844E-03
           28041         61.3010         68.0555         39.2794         9.24785
           28042         94.2789         108.343         63.0744         1.36696
           28043         75.9232         85.9974         49.8912        -7.53124
           28044         70.1156         78.5741         50.1120        -7.49674
           28045         55.6849         60.9696         38.5994         9.07357
           28046         68.2796         47.4941         77.7765         4.12912
           28047         59.2248         62.8781         54.0873         3.13030
           28048         59.3892         63.6781         53.2652         2.99021
           28049         63.5329         69.4082         54.9499        -2.11456
           28050         63.2690         68.5538         55.8342        -2.12313
           28051         63.1825         68.5552         55.8027        -1.13183
           28052         63.1912         68.7924         55.4579    -284.254E-03
           28053         63.4015         69.4763         54.7237    -193.525E-03
           28054         64.7784         72.3754         52.1696         2.01399
           28055         64.3360         71.3566         53.1105         2.33876
           28056         64.6387         71.8955         52.6554         2.72641
           28057         72.2393         83.3000         37.8633     16.5383E-03
           28058         87.4967         45.8838         100.879     923.886E-03
           28059         87.3635         45.9752         100.721         1.23700
           28060         87.6215         45.5337         100.950         1.81439
           28061         73.1551         83.0038         48.7784        -6.62084
           28062         72.8978         82.4637         47.9922        -7.48755
           28063         58.6230         41.4387         65.7723        -6.29850
           28064         57.4920         40.6172         64.3091        -6.63229
           28065         64.9607         45.7136         73.7020         4.73835
           28066         95.3395         109.186         66.7242     665.663E-03
           28067         95.0927         109.094         65.2814     645.628E-03
           28068         63.6399         71.7699         41.3212         7.24116
           28069         64.5658         72.5081         41.8342         8.05261
           28070         64.9726         44.7568         73.8104         4.96013
           28071         65.9839         45.3422         75.0493         4.77709
           28072         66.5453         45.4380         75.5941         5.29254
           28073         60.4545         67.3823         42.7395         7.47416
           28074         60.7861         67.2773         42.7002         8.52761
           28075         59.5984         41.0841         66.7707        -7.04645
           28076         58.5477         40.3351         65.8220        -6.41144
           28077         57.4279         39.4814         64.3936        -6.70808
           28078         87.4698         45.8360         100.840         1.06046
           28079         87.3239         45.9166         100.667         1.36064
           28080         87.5388         45.3924         100.843         1.90091
           28081         75.9141         51.0589         86.6188        -5.02581
           28082         76.5202         51.1357         87.1360        -5.87553
           28083         77.0096         50.3994         88.0146        -5.15414
           28084         74.3333         48.7134         85.1496        -4.07944
           28085         74.5575         48.7813         85.3016        -4.61742
           28086         75.6176         48.4606         86.5249        -5.03576
           28087         80.1920         49.0680         91.6602        -6.30041
           28088         79.3867         49.0536         90.9680        -5.26364
           28089         78.0876         49.7269         89.4013        -5.09751
           28090         80.2767         46.6864         92.0798        -5.32004
           28091         80.1068         46.8543         91.7175        -5.97324
           28092         75.5486         85.3291         49.0532        -8.28617
           28093         74.9955         84.3952         48.1494        -9.07345
           28094         75.7163         85.1299         48.3140        -9.39106
           28095         87.3622         45.5109         100.585         2.66217
           28096         67.6862         45.9729         76.9879         5.16834
           28097         62.4221         68.9626         39.9728         9.99123
           28098         63.5107         69.8620         40.6709         10.6481
           28099         62.8152         68.6434         40.1940         11.2151
           28100         94.1086         108.280         61.7393         1.31767
           28101         93.9483         108.202         60.5151         1.21014
           28102         93.5780         107.836         59.2776         1.49009
           28103         86.0322         98.2958         61.3893         1.30974
           28104         85.8582         98.2140         60.6154         1.25196
           28105         85.4454         97.8709         59.4272         1.50695
           28106         85.6152         97.9545         60.2188         1.55728
           28107         86.2086         98.3080         62.4771         1.42378
           28108         67.9249         47.3550         77.2288         4.62493
           28109         57.0593         62.3773         39.6308         9.42152
           28110         58.3677         63.6115         40.5565         9.92299
           28111         57.5645         62.4440         39.9132         10.2256
           28112         56.3420         61.2431         39.0293         9.84355
           28113         87.2103         45.3161         100.414         2.55304
           28114         69.1459         77.2171         48.9532        -8.21149
           28115         68.1278         75.7314         47.8125        -8.96345
           28116         69.0547         76.7908         48.3271        -9.07925
           28117         70.0333         78.2198         49.4334        -8.35320
           28118         97.3260         39.3818         110.652         3.43099
           28119         98.4355         39.7203         111.630         5.31046
           28120         96.3956         40.5608         109.569         5.34826
           28121         60.4746         55.5811         64.2280         2.04515
           28122         60.1582         55.9432         63.5418         1.47667
           28123         60.7656         55.1978         65.0700         1.04505
           28124         59.6609         56.7867         61.9945         1.98631
           28125         59.8626         56.3673         62.7902     995.595E-03
           28126         94.0668         41.3591         107.349         4.24562
           28127         93.6211         41.7683         106.765         5.19369
           28128         92.5625         42.2325         105.722         4.89837
           28129         93.0121         41.8212         106.307         3.95429
           28130         62.0168         70.4227         46.4611    -54.0389E-03
           28131         62.5201         71.2741         45.5125    -642.723E-03
           28132         71.5340         82.4824         44.4523         1.19623
           28133         80.6032         50.1046         91.2682         8.74621
           28134         81.9954         49.0271         93.1314         8.40844
           28135         82.8906         45.8328         94.8482         6.35564
           28136         82.8271         45.9328         94.6469         6.82781
           28137         82.7600         45.8521         94.8362         5.81197
           28138         84.4517         45.1860         96.7005         6.02356
           28139         45.1169         45.5292         31.1798         11.6910
           28140         43.3595         43.6458         30.1341         11.2880
           28141         67.5596         47.3331         76.6573         5.03173
           28142         69.9654         77.8870         48.8224        -9.08810
           28143         54.1569         37.9051         58.0656        -10.4170
           28144         76.6294         86.2280         48.6905        -9.39009
           28145         58.6528         59.1944         58.0915    -285.234E-03
           28146         83.2411         95.5369         54.8149         3.36461
           28147         69.2981         48.3522         78.9234         4.14333
           28148         54.0601         38.5950         56.5975        -11.7477
           28149         54.6175         38.6885         57.8114        -11.2658
           28150         55.3492         39.4414         58.3997        -11.5579
           28151         54.8033         39.3505         57.1889        -12.0386
           28152         86.9254         44.8385         99.9381         3.60492
           28153         87.4082         44.7004         100.516         3.24746
           28154         87.9696         44.2002         101.074         3.48751
           28155         87.4824         44.3414         100.492         3.84680
           28156         72.8698         81.0799         49.1624        -10.0862
           28157         72.1156         79.9938         48.7063        -10.4170
           28158         72.4523         80.4002         48.7184        -10.4664
           28159         87.3357         45.2146         100.406         3.72433
           28160         87.9664         44.7997         101.067         3.84576
           28161         87.6875         44.9116         100.686         4.33494
           28162         86.7983         45.6130         99.8382         3.63573
           28163         78.8346         88.6144         48.7388        -10.0974
           28164         77.8204         87.1769         48.0994        -10.5798
           28165         78.3591         87.8052         48.1376        -10.6443
           28166         55.3105         41.4094         57.8762        -11.4234
           28167         54.9395         41.5114         56.8481        -11.8784
           28168         54.2427         40.6844         56.3606        -11.5978
           28169         67.7869         46.2377         76.9777         5.50263
           28170         68.5238         46.4470         78.0307         4.95606
           28171         67.5764         46.0335         76.7267         5.55281
           28172         60.9240         55.0564         65.4150     986.676E-03
           28173         60.3472         55.6716         64.1200    -499.432E-03
           28174         60.8934         55.0962         65.3789    -217.871E-03
           28175         83.2487         94.9728         34.8812        -1.48019
           28176         86.4703         98.4549         63.4309        -1.33572
           28177         86.5255         98.6044         63.1138        -1.12234
           28178         67.4917         45.9059         76.8210        -4.92740
           28179         56.5054         40.4135         62.1093         8.40827
           28180         56.8616         40.5146         62.8709         7.87915
           28181         68.2555         76.2518         48.5556         7.94302
           28182         73.8422         83.3169         48.0758         8.27061
           28183         73.3156         82.9079         48.2117         7.62054
           28184         87.1841         45.5622         100.429        -2.23341
           28185         62.9341         69.8946         40.3764        -9.43901
           28186         63.2297         70.6543         40.7131        -8.65945
           28187         67.5721         47.1633         76.7968        -4.68519
           28188         94.4222         108.572         62.7241        -1.06136
           28189         94.7886         108.850         64.2383    -872.894E-03
           28190         77.7875         88.5121         31.0358    -327.433E-03
           28191         77.3090         88.1385         31.8106    -184.640E-03
           28192         86.6437         98.1567         32.3198    -272.285E-03
           28193         86.2193         97.8260         32.9046    -125.017E-03
           28194         85.8153         97.5225         33.5534    -21.7236E-03
           28195         84.1501         96.5041         56.8533        -2.73673
           28196         84.6431         96.9475         58.3338        -2.45799
           28197         85.2652         97.5450         59.8074        -2.00881
           28198         69.4195         46.7626         79.2602        -4.34218
           28199         54.2687         39.7912         57.7274         10.4297
           28200         54.6775         40.6048         57.5069         11.0889
           28201         54.6594         57.4308         38.0223        -11.9346
           28202         55.3166         59.3962         38.2966        -10.6469
           28203         71.7429         79.7782         49.0981         9.81186
           28204         71.5194         79.6951         49.4814         9.28672
           28205         70.5481         78.6155         49.2261         9.00668
           28206         86.2718         45.8743         99.2219        -3.87775
           28207         59.7450         63.5605         38.7405        -12.7941
           28208         59.6497         64.1604         38.4103        -11.9805
           28209         60.7560         66.1386         38.9297        -11.1984
           28210         86.1716         45.2323         99.1028        -3.69132
           28211         86.9528         44.7571         99.9559        -3.65839
           28212         69.5310         48.4574         79.2364        -3.98415
           28213         68.5844         48.2628         77.9126        -4.63380
           28214         78.0748         87.8042         48.8424         9.81652
           28215         77.7750         87.6323         49.2548         9.30610
           28216         76.5984         86.3023         48.9605         9.08294
           28217         92.2766         106.338         56.5466        -2.75385
           28218         92.7266         106.822         58.0866        -2.45613
           28219         93.3085         107.467         59.4760        -1.96701
           28220         52.4461         37.2130         54.9475         11.4210
           28221         54.6642         37.7549         59.8230         8.99199
           28222         54.0557         37.5333         58.5901         9.65305
           28223         55.4999         38.5164         60.5054         9.42109
           28224         72.3301         50.0146         82.1884        -5.35023
           28225         72.5590         50.1462         82.1955        -6.21446
           28226         60.4170         67.5849         48.7676     230.161E-03
           28227         60.4528         67.4372         49.2597    -851.530E-03
           28228         59.9288         66.3550         50.1510    -609.518E-03
           28229         67.6970         77.5321         47.2867     786.552E-03
           28230         67.5041         77.2243         47.7826    -55.4827E-03
           28231         66.7950         76.1689         48.5856     81.0237E-03
           28232         65.0699         73.0488         51.5302         1.50786
           28233         59.5483         56.7867         61.9584     530.195E-03
           28234         48.6824         35.6949         48.4400         12.6289
           28235         83.0782         94.3091         50.9482         8.50372
           28236         81.1240         92.0849         51.8635         7.90535
           28237         81.5522         92.5820         51.8368         7.98830
           28238         52.0477         37.2242         53.9734         11.8224
           28239         29.2867         28.2665         23.2132         7.65981
           28240         34.4321         32.9284         26.6647         9.45712
           28241         81.6150         46.4856         93.9327        -3.79747
           28242         82.5307         46.2675         94.9565        -3.97103
           28243         53.9155         57.1377         35.0952        -11.7720
           28244         52.4470         53.2759         35.6802        -13.4187
           28245         32.0675         28.5464         27.6592        -8.90625
           28246         37.0199         32.3580         31.7405        -10.6932
           28247         89.6832         103.032         54.2003        -4.97240
           28248         89.2191         102.466         52.4390        -5.29610
           28249         91.4715         105.196         57.9450        -3.59784
           28250         72.7943         49.3281         83.5653        -1.25247
           28251         81.7420         93.4258         54.5192        -4.98444
           28252         81.2009         92.8600         52.8901        -5.31084
           28253         72.6534         47.5565         83.5590        -1.68977
           28254         71.9555         47.4763         82.6088        -2.66725
           28255         52.1286         38.9381         53.9108         11.4604
           28256         51.8847         39.4502         52.5544         12.2069
           28257         52.6903         39.9393         53.7496         12.0943
           28258         51.5146         37.9358         54.0055         10.7514
           28259         48.5153         37.1351         48.2081         12.1231
           28260         49.3642         37.7623         49.2118         12.2118
           28261         48.1468         37.2690         47.1665         12.4137
           28262         48.9063         37.7956         48.0930         12.4911
           28263         76.0527         85.6061         51.2811         8.48206
           28264         75.6543         84.9758         50.2024         9.09919
           28265         76.0265         85.6271         51.9647         8.10920
           28266         84.1645         47.1002         96.9080        -3.58047
           28267         74.7792         84.0758         51.9943         7.98422
           28268         66.7902         76.0830         48.8725    -846.841E-03
           28269         66.1725         75.1802         49.4118    -37.4244E-03
           28270         60.7594         68.3577         47.6723         1.29779
           28271         69.9176         50.4719         79.5278         3.17824
           28272         85.3233         97.0507         33.8680     606.062E-03
           28273         85.4565         97.1952         33.8671     462.632E-03
           28274         76.2502         87.2695         33.5648     490.935E-03
           28275         75.9050         87.0010         34.3240     398.634E-03
           28276         62.7065         65.9256         58.8885     332.184E-03
           28277         62.7259         66.3164         58.3474    -738.395E-03
           28278         62.6975         65.6842         59.1216        -1.23228
           28279         62.6684         65.2924         59.6634    -160.830E-03
           28280         67.3657         76.9559         48.1990    -812.166E-03
           28281         93.1985         41.1568         106.573        -2.61596
           28282         96.3705         40.0367         109.825         2.56707
           28283         94.6931         40.7340         108.157         2.25891
           28284         94.7432         40.5813         108.253         1.10879
           28285         96.1822         39.8684         109.414         4.17222
           28286         95.3485         40.1697         108.693         3.15006
           28287         94.8092         40.7643         108.237        -2.82912
           28288         80.1183         91.2063         53.7015         6.17595
           28289         79.9851         90.9764         54.1888         6.17478
           28290         79.8021         90.6893         54.6036         6.17085
           28291         79.4216         90.2549         53.2730         6.63291
           28292         79.2341         89.9667         53.6862         6.62829
           28293         78.6676         89.2230         52.7878         7.09888
           28294         79.0082         89.6354         54.0522         6.61181
           28295         75.7419         49.2475         87.1982    -872.930E-03
           28296         76.6012         49.1423         88.2288        -1.18609
           28297         77.4648         49.0041         89.2581        -1.45976
           28298         76.8450         49.1078         88.4948        -1.63672
           28299         77.7177         48.9702         89.5276        -1.91058
           28300         78.0065         48.8911         89.8296        -2.39371
           28301         78.5818         48.7966         90.5491        -2.10829
           28302         42.6742         35.2806         38.4615         12.3021
           28303         41.6162         34.5897         37.3440         12.0084
           28304         43.3475         36.3286         38.3930         12.6489
           28305         40.4059         32.8590         37.2679         11.3814
           28306         40.8421         32.6010         38.4538         11.2574
           28307         34.8501         30.3928         30.2775         9.90446
           28308         35.5026         31.5195         30.0939         10.1630
           28309         85.7737         97.8959         52.4383        -7.23981
           28310         86.3644         98.6911         53.3035        -6.78716
           28311         81.8316         47.7480         94.0094         4.74460
           28312         78.6692         48.7379         90.6067         2.57366
           28313         78.3346         48.8525         90.2486         2.14468
           28314         76.8437         49.0905         88.5308         1.06277
           28315         77.1657         49.0627         88.8927         1.50546
           28316         76.3116         49.1799         87.8734         1.24847
           28317         86.9566         99.4714         54.1706        -6.34716
           28318         86.6112         98.9999         52.8088        -6.82702
           28319         87.2012         99.7819         53.6749        -6.38786
           28320         87.4033         100.042         53.1056        -6.41823
           28321         87.7908         100.548         54.5759        -5.95027
           28322         43.1845         35.3648         39.3690         12.3368
           28323         42.1151         34.0740         38.9691         11.8587
           28324         41.5990         34.0065         38.0651         11.8258
           28325         44.6084         35.7800         41.6741         12.4375
           28326         46.5420         37.5651         43.2000         13.0587
           28327         50.0952         48.4551         36.8282         14.0217
           28328         45.4209         43.0252         34.1553         13.1002
           28329         43.8730         41.7493         32.9368         12.5445
           28330         43.8342         42.5349         32.3040         12.1479
           28331         41.7704         40.7163         30.7366         11.4556
           28332         42.6384         41.0528         31.5501        -12.0071
           28333         42.9969         42.0921         31.0896        -11.8187
           28334         41.0078         33.1718         38.0197        -11.5030
           28335         41.1912         32.5823         39.1464        -11.2272
           28336         43.0202         34.3193         40.4523        -11.9000
           28337         42.8616         34.9066         39.3260        -12.1771
           28338         40.7903         33.6878         36.9261        -11.6819
           28339         39.0284         31.3096         36.6401        -10.7643
           28340         43.2193         33.7639         41.6171        -11.5627
           28341         41.4350         32.0817         40.3078        -10.8942
           28342         50.8891         40.8872         48.0274        -13.8445
           28343         45.0473         44.5192         32.0042        -12.2179
           28344         46.6804         45.8518         33.3207        -12.8351
           28345         45.4220         45.6172         31.5596        -11.9147
           28346         81.5425         46.3427         93.7694         4.25708
           28347         78.3345         88.7600         52.7262        -7.25462
           28348         78.8983         89.5085         53.5572        -6.79745
           28349         78.4707         47.3629         90.4735         2.16257
           28350         78.1562         47.5466         90.1325         1.76538
           28351         43.5335         33.0589         41.4311        -12.3208
           28352         43.4256         32.3451         42.1989        -11.8850
           28353         41.4478         30.7725         40.4223        -11.2680
           28354         50.1906         38.2225         48.0014        -14.0087
           28355         77.8386         47.6922         89.7809         1.35918
           28356         76.9945         47.6716         88.7974         1.11071
           28357         76.1293         47.6273         87.7858     810.800E-03
           28358         76.6957         47.7756         88.4547     699.422E-03
           28359         79.4628         90.2385         54.3891        -6.35514
           28360         79.0671         89.7670         53.1176        -6.83647
           28361         79.6294         90.4984         53.9486        -6.39485
           28362         79.7482         90.7049         53.4297        -6.42901
           28363         80.1964         91.2170         54.8087        -5.95566
           28364         47.1002         46.8576         33.0617         12.6347
           28365         48.9554         48.2040         34.7306         13.4281
           28366         47.4640         46.5116         33.9413         13.1168
           28367         45.4685         45.0760         32.1258         12.2689
           28368         43.7968         43.1961         31.2942         11.8984
           28369         77.3250         47.7329         89.1876        -1.07674
           28370         76.4752         47.7173         88.1935    -770.257E-03
           28371         77.5200         47.5990         89.4018        -1.46506
           28372         77.7272         47.4318         89.6225        -1.87230
           28373         78.3917         47.5827         90.4118        -1.72144
           28374         86.6709         99.0859         53.1945         6.70802
           28375         86.0466         98.2449         52.2439         7.19332
           28376         86.3936         98.7390         53.6971         6.66017
           28377         75.6396         47.6660         87.2108    -435.833E-03
           28378         87.7614         100.513         53.1126         6.23880
           28379         87.5348         100.217         53.6533         6.24957
           28380         58.6965         59.7061         57.5391         1.30952
           28381         58.7384         60.4194         56.7115         1.82332
           28382         65.5629         74.1277         50.3716    -263.496E-03
           28383         62.9935         67.7744         56.6664        -1.19171
           28384         59.5788         65.2319         51.4019        -1.33245
           28385         59.3651         64.2763         52.4802        -1.98587
           28386         58.7505         60.1408         57.0721        -1.81202
           28387         59.0491         60.4399         56.8430        -3.57164
           28388         58.9513         59.7452         57.6582        -2.94928
           28389         63.1519         68.5193         55.8367     688.949E-03
           28390         63.2975         69.0835         55.1971     420.217E-03
           28391         63.0034         67.8564         56.5583         1.14618
           28392         63.1887         68.3415         56.0603         1.89187
           28393         63.3385         69.0073         55.3381         1.43555
           28394         70.2350         81.0814         39.8382     777.954E-03
           28395         70.2521         81.1069         39.3135     166.231E-03
           28396         69.5522         80.2971         40.2733     768.779E-03
           28397         78.4539         90.2772         38.7250    -682.405E-03
           28398         78.5539         90.4191         38.9774    -234.320E-03
           28399         79.1641         91.0584         38.5969    -242.585E-03
           28400         84.4222         45.2267         96.7749        -5.57013
           28401         85.6587         46.1134         98.1008        -6.08146
           28402         85.9811         46.0513         98.3453        -6.56143
           28403         86.6144         45.5819         99.2166        -5.85664
           28404         39.3338         34.2970         32.6486         11.8979
           28405         40.1812         32.9140         35.4923        -12.1063
           28406         65.8568         46.3639         74.9178        -4.01322
           28407         65.9747         46.3396         74.9725        -4.42027
           28408         65.3541         45.9337         74.1468        -4.80766
           28409         65.2179         45.9190         74.0870        -4.39430
           28410         66.6122         46.7746         75.8357        -3.89248
           28411         66.2648         46.4435         75.2675        -4.63707
           28412         95.1221         109.082         65.6102    -709.623E-03
           28413         63.7225         71.5705         41.2134        -7.94416
           28414         87.0115         46.4185         100.350        -1.18928
           28415         87.1289         46.3344         100.487    -982.164E-03
           28416         86.8779         46.7062         100.226    -848.416E-03
           28417         56.5639         38.8615         63.6643         6.06093
           28418         57.5119         39.5801         64.8393         5.86643
           28419         57.1948         39.4277         64.8038         4.90704
           28420         72.7401         82.4173         48.1976         7.01944
           28421         86.9843         46.3903         100.313        -1.30044
           28422         87.1064         46.3159         100.456        -1.10201
           28423         86.8616         46.7284         100.205    -966.632E-03
           28424         87.3420         45.8288         100.676        -1.47919
           28425         87.2818         46.0081         100.629        -1.27605
           28426         56.7994         40.0111         63.7589         6.08688
           28427         57.2023         40.5218         63.7162         7.12332
           28428         66.5468         45.9459         75.8503        -4.04910
           28429         65.7908         45.5371         74.9337        -4.16338
           28430         66.1036         46.1342         75.3896        -3.45310
           28431         75.6935         86.8089         34.6207     412.097E-03
           28432         75.8694         87.0148         34.7160     250.688E-03
           28433         75.4067         86.5425         34.9962     407.510E-03
           28434         75.4079         86.4935         34.6206     605.633E-03
           28435         84.8323         96.7241         34.9605     295.792E-03
           28436         85.0085         96.9348         35.0839     143.008E-03
           28437         84.4177         96.3111         35.1575     417.831E-03
           28438         69.4921         56.1535         77.0515         4.68009
           28439         74.9841         85.9904         34.4179        -1.04544
           28440         75.2128         86.1464         33.8191        -1.34558
           28441         74.7746         85.6961         34.0914        -1.49368
           28442         94.3801         108.591         62.1137    -916.579E-03
           28443         63.8995         70.7795         40.9936        -9.90688
           28444         73.0972         82.2691         47.3212         8.73254
           28445         87.2479         45.7712         100.515        -2.20708
           28446         57.8865         63.8655         40.3830        -8.56997
           28447         58.5240         63.9358         40.6824        -9.71722
           28448         58.9345         64.7578         41.0863        -9.17022
           28449         85.6201         97.3767         33.8876     157.435E-03
           28450         85.6467         97.3648         33.6812     358.982E-03
           28451         85.6893         97.4357         33.8065     61.6948E-03
           28452         85.4754         97.2879         34.2450     48.4373E-03
           28453         76.6106         87.6115         33.2063     61.1134E-03
           28454         59.4024         57.2645         61.2283         1.49695
           28455         59.2975         57.2087         61.1860    -10.0900E-03
           28456         59.0515         57.5818         60.3938    -727.169E-03
           28457         62.7116         64.5933         60.6397     257.509E-03
           28458         64.0392         52.9721         71.1096        -1.31955
           28459         63.1177         53.3963         69.6554    -218.977E-03
           28460         62.7759         63.4970         61.9331         1.39149
           28461         62.7404         63.9358         61.4448     738.815E-03
           28462         89.5079         42.9964         102.437         4.96731
           28463         90.1293         42.6998         103.209         4.27913
           28464         90.8653         43.2005         103.893         5.31079
           28465         91.5204         42.6993         104.707         4.47878
           28466         65.6325         75.5004         43.2322     883.989E-03
           28467         66.2673         76.3345         42.5893     727.509E-03
           28468         73.7473         85.0974         43.0079         1.55622
           28469         73.2923         84.5188         43.5508         2.04282
           28470         68.2582         49.3083         77.3125         4.57543
           28471         69.2104         49.3910         78.7076         3.79342
           28472         72.9195         81.0408         48.8717        -10.3569
           28473         73.5386         81.9521         49.2754        -10.0321
           28474         79.2315         89.0280         48.5968        -10.2710
           28475         79.4176         89.4725         49.2742        -9.70509
           28476         79.5039         89.8214         50.0921        -9.00212
           28477         80.0285         90.3896         49.9734        -9.20185
           28478         53.9875         41.9380         53.9559        -13.0054
           28479         53.0733         41.1118         52.9236        -12.9290
           28480         68.7966         47.0279         78.4029         4.52609
           28481         69.6296         47.1327         79.5627         3.93987
           28482         62.2835         54.0297         68.0459         1.44643
           28483         63.0680         53.5747         69.4162         1.59882
           28484         73.4052         84.4558         36.1573    -790.923E-03
           28485         72.9967         84.0633         36.7703    -534.321E-03
           28486         82.1577         94.0781         36.5131    -598.030E-03
           28487         82.6841         94.6170         36.2783    -488.571E-03
           28488         76.6504         88.4002         40.9976        -1.16595
           28489         80.4118         90.7045         49.4190         9.64447
           28490         85.2047         45.2568         97.9096        -4.33785
           28491         85.3029         45.4512         98.0897        -3.97843
           28492         56.9283         58.8744         37.9113        -13.7764
           28493         33.6822         31.3759         27.1528        -9.39350
           28494         34.6742         32.5700         27.4779        -9.68531
           28495         90.9503         104.699         54.4749        -3.91516
           28496         70.3538         48.8352         80.3449        -3.32360
           28497         82.8353         94.9518         54.8165        -3.91280
           28498         52.7101         52.6146         37.7335        -13.8031
           28499         53.7306         54.0148         38.2984        -13.7996
           28500         70.2323         47.0672         80.3646        -3.71143
           28501         52.3824         40.4641         52.2395         12.7989
           28502         73.7375         82.3407         49.7405         9.63984
           28503         84.5896         46.5762         97.2120        -4.60614
           28504         85.3754         46.1773         98.0827        -4.67607
           28505         85.4137         46.2486         98.2074        -4.23604
           28506         75.8300         52.0132         85.9602        -6.49920
           28507         73.7225         48.6593         84.5819        -3.10218
           28508         73.8732         48.3796         84.8873        -2.42405
           28509         63.8733         73.2100         44.3516    -21.1056E-03
           28510         86.7917         98.2631         32.0972    -546.923E-03
           28511         77.9826         88.6519         30.7004    -649.160E-03
           28512         74.5469         52.7050         84.3493        -6.06206
           28513         73.2972         52.8758         83.0545        -4.83586
           28514         70.9350         50.1814         80.7672        -3.79784
           28515         70.9572         50.3806         80.6009        -4.50676
           28516         79.5897         90.3685         55.0546         6.11718
           28517         80.2246         91.3949         53.3182         6.14106
           28518         80.5640         91.9090         53.0867         5.89481
           28519         74.9972         49.3916         86.2906    -581.190E-03
           28520         73.8462         49.5602         84.8725     50.8157E-03
           28521         78.3031         48.9524         90.2444        -1.69954
           28522         78.9819         48.6839         90.9310         2.96901
           28523         78.9671         48.7055         90.8524         3.38776
           28524         77.6633         49.0656         89.5012         1.30711
           28525         87.5677         100.260         55.1825        -5.87460
           28526         85.2740         97.2191         51.7996        -7.58972
           28527         84.4437         96.0858         51.0640        -8.10887
           28528         46.8283         44.1539         35.3111         13.6085
           28529         48.4300         46.2714         36.0251         13.8269
           28530         43.7825         41.1660         33.3314        -12.6938
           28531         44.2784         42.2254         33.0500        -12.6601
           28532         39.3200         30.8370         37.7996        -10.5192
           28533         47.8947         38.9761         44.0703        -13.5434
           28534         43.7633         44.2814         30.2003        -11.2492
           28535         77.5258         47.9045         89.4214     983.017E-03
           28536         78.7729         47.2515         90.7930         2.52929
           28537         77.9554         47.3166         89.8517         2.33345
           28538         78.5181         89.0307         52.4109        -7.25496
           28539         77.8621         88.1207         52.1055        -7.61223
           28540         80.0554         90.9776         55.3605        -5.88008
           28541         50.7378         49.6515         36.2342         14.0856
           28542         49.3628         48.0297         35.5488         13.8265
           28543         74.9160         47.6771         86.3487    -129.643E-03
           28544         74.1797         47.6854         85.4640     74.9661E-03
           28545         78.1561         47.8299         90.1500        -1.35504
           28546         87.0066         99.5422         54.7524         6.16029
           28547         68.2953         78.8482         40.1449    -562.897E-03
           28548         71.0125         81.9635         39.4027     768.913E-03
           28549         71.0150         81.9469         39.9448         1.36527
           28550         76.4223         88.1345         40.2775    -288.064E-03
           28551         77.1140         88.8702         39.7006    -490.463E-03
           28552         79.7298         91.7277         39.3149         1.07656
           28553         79.8201         91.8072         38.9368     655.728E-03
           28554         83.6209         95.9702         55.5199        -3.05315
           28555         83.0607         95.2869         54.7503        -3.59995
           28556         83.1516         95.4756         54.3730        -3.33979
           28557         84.7759         97.1606         58.1730        -2.22105
           28558         69.3054         46.8233         79.1072        -4.35627
           28559         67.4720         46.0782         76.5392        -5.70993
           28560         66.8684         46.1758         75.5884        -6.21630
           28561         66.6955         45.9697         75.3636        -6.32040
           28562         72.1008         80.0803         48.9356         10.1613
           28563         71.4461         79.0352         48.3045         10.6834
           28564         70.6889         78.5310         48.7533         9.68800
           28565         86.2268         45.7790         99.0965        -4.31180
           28566         87.9487         44.8475         101.108        -3.43111
           28567         88.5330         44.4084         101.656        -3.93732
           28568         88.7146         44.3309         101.915        -3.48477
           28569         55.7685         41.8180         58.3960         11.4498
           28570         55.3929         41.0498         58.5609         10.9213
           28571         55.2035         40.5070         58.8877         10.3957
           28572         54.7325         55.4163         38.7917        -13.7789
           28573         55.7090         56.6857         39.3722        -13.8069
           28574         54.9496         58.3420         38.0970        -11.3570
           28575         55.9292         58.5711         38.9500        -12.4061
           28576         87.8728         44.3437         101.006        -3.26575
           28577         87.7158         44.2973         100.775        -3.66454
           28578         88.5185         43.7526         101.622        -3.67287
           28579         88.6827         43.7949         101.861        -3.26599
           28580         67.6040         47.9404         76.5144        -5.34465
           28581         67.7916         48.2426         76.7377        -5.21864
           28582         67.0440         48.3221         75.5701        -5.79469
           28583         66.8583         48.0186         75.3453        -5.92468
           28584         78.5117         88.2023         48.6583         10.1421
           28585         79.5874         89.5551         48.9273         10.0308
           28586         78.7779         88.3957         48.3473         10.4624
           28587         76.8195         86.3202         48.4798         9.73925
           28588         91.8049         105.794         55.2219        -3.07669
           28589         91.8325         105.864         54.5720        -2.89147
           28590         92.8684         107.032         57.7546        -2.21663
           28591         93.1703         107.257         59.8032        -2.20570
           28592         59.5529         62.6667         38.9481        -13.4564
           28593         60.8055         63.9849         39.7439        -13.7437
           28594         61.0431         65.7792         39.2730        -12.1151
           28595         59.3510         64.5195         38.0544        -11.0587
           28596         52.9746         38.2394         54.4873         12.3660
           28597         53.7867         39.4862         54.5031         13.1071
           28598         53.9469         39.2057         55.3534         12.6405
           28599         55.1033         39.4782         57.7302         11.8906
           28600         55.3649         39.3362         58.6125         11.3740
           28601         89.3725         43.0606         102.043        -6.17833
           28602         87.9973         43.6789         100.573        -6.15487
           28603         84.9294         46.6010         97.1723        -6.51219
           28604         84.8411         46.8242         96.8953        -7.16142
           28605         69.4530         78.5674         45.8107        -7.10608
           28606         87.4907         99.2783         65.8248     417.642E-03
           28607         87.8990         99.4824         67.1642     184.520E-03
           28608         87.4367         99.2917         65.4832     265.170E-03
           28609         95.6430         109.480         67.3111     155.026E-03
           28610         95.4092         109.350         66.2764     279.612E-03
           28611         67.2622         76.1427         44.2674         6.77083
           28612         66.6108         75.1682         43.5368         7.39067
           28613         61.5299         68.9301         43.9351         6.65164
           28614         61.4927         68.5101         43.5528         7.63070
           28615         65.2162         73.0187         46.8332        -7.01850
           28616         63.9280         71.7278         46.0741        -6.42590
           28617         64.2987         71.8654         45.9153        -7.33016
           28618         61.6716         69.7492         47.2600     651.688E-03
           28619         60.8287         68.2334         48.5049     646.925E-03
           28620         68.5376         78.6330         46.9356     814.068E-03
           28621         67.6442         77.4200         47.6655     216.763E-03
           28622         69.2649         79.6421         46.1258     492.411E-03
           28623         74.8920         53.0097         84.4470         6.92821
           28624         47.3624         42.8950         37.1430        -14.3395
           28625         47.3248         43.5239         36.5440        -14.1466
           28626         45.9841         42.3279         35.5208        -13.7195
           28627         46.0086         43.0320         34.9919        -13.4954
           28628         44.9811         36.6348         39.6036         13.7066
           28629         87.4247         45.2733         100.674         2.30927
           28630         85.8723         98.1031         61.2478         1.54192
           28631         93.1858         107.420         58.1218         1.81409
           28632         67.1818         45.7190         76.3460         5.32038
           28633         62.0190         67.3958         39.7713         11.5878
           28634         61.4916         66.3071         39.5265         12.1536
           28635         87.5630         45.4441         100.840         2.30795
           28636         63.0443         67.7247         56.7057        -2.06539
           28637         62.9078         67.0845         57.4132        -2.02620
           28638         62.8644         67.1450         57.3744        -1.16274
           28639         42.3654         32.0430         40.4741        -11.9279
           28640         43.6757         33.7247         40.8030        -12.6675
           28641         43.8849         41.0556         33.4744         12.8335
           28642         42.6471         40.7645         31.9171         12.1026
           28643         45.8965         44.6828         33.2075         12.7932
           28644         44.2414         42.7918         32.3780         12.4277
           28645         86.9209         99.4021         52.6457         6.73254
           28646         87.2903         99.9011         54.2044         6.22720
           28647         43.9038         35.5845         40.4911         12.4179
           28648         44.2668         36.7418         39.6403         12.8412
           28649         44.6881         43.4319         32.4742        -12.4705
           28650         43.3735         43.1784         30.6139        -11.5691
           28651         77.9947         48.9283         89.8776         1.70870
           28652         94.2143         40.6621         107.592         2.69802
           28653         93.4714         41.0235         106.901         1.97097
           28654         94.4929         40.6199         108.011     104.013E-03
           28655         53.3154         39.0451         54.0502        -12.9998
           28656         52.5530         38.5522         52.9800        -13.0532
           28657         51.8668         38.2763         51.7737        -13.2449
           28658         84.8672         45.0880         97.3531         5.20720
           28659         82.7996         95.0051         54.1353         3.75572
           28660         91.1565         104.983         54.2739         3.66424
           28661         90.6833         104.394         53.3211         4.02766
           28662         57.2761         59.0033         38.2874         14.0513
           28663         58.8689         61.2038         38.9687         13.9776
           28664         58.5697         60.2904         39.1777         14.4063
           28665         86.0677         45.8232         98.7477         5.21895
           28666         85.2551         46.2338         97.7659         5.56117
           28667         79.3737         89.1071         48.3505        -10.4995
           28668         78.4971         87.8769         47.9002        -10.8680
           28669         81.1833         91.8877         50.5036        -8.89621
           28670         66.0981         75.0908         49.2963     798.401E-03
           28671         78.2883         48.9030         90.0961        -2.95598
           28672         77.0265         49.1587         88.6690        -2.09490
           28673         78.1204         88.4854         52.0132         7.53163
           28674         78.8816         89.5458         52.4577         7.05719
           28675         47.2711         37.7964         44.4276         13.0561
           28676         75.5909         47.6098         87.1385     969.995E-03
           28677         79.8379         90.8752         52.9571        -6.42471
           28678         79.1857         89.9637         52.6818        -6.85501
           28679         75.8191         49.3938         87.2430         1.49631
           28680         87.5790         100.273         52.5998        -6.40240
           28681         86.8093         99.2517         52.3319        -6.83977
           28682         42.8302         35.7399         38.1708        -12.4405
           28683         40.4218         34.0725         35.7631        -11.7264
           28684         40.2252         34.5327         34.8276        -11.7655
           28685         38.4481         32.8927         33.6221        -11.1326
           28686         46.3320         44.7783         33.8175        -13.0669
           28687         48.2472         47.1947         34.5585        -13.3808
           28688         86.2785         98.5382         51.7475         7.19965
           28689         85.3896         97.3501         51.4129         7.66198
           28690         42.8951         40.2869         32.7865         12.4213
           28691         76.9475         47.4411         88.6895        -1.99589
           28692         81.1718         93.2096         38.1102    -477.125E-03
           28693         82.0698         94.1550         37.8298    -594.097E-03
           28694         75.0437         86.1504         35.0666     577.092E-03
           28695         84.0514         95.9939         35.6182     308.074E-03
           28696         76.1768         87.8851         40.8910     498.738E-03
           28697         76.7718         88.5320         40.3516     224.042E-03
           28698         75.8227         87.4872         40.8171    -13.3205E-03
           28699         68.2274         78.7682         40.6594     103.912E-03
           28700         64.2627         71.2559         53.1804        -2.12520
           28701         65.9057         74.2327         50.7185        -2.92553
           28702         59.5793         64.0632         52.9405        -3.38790
           28703         59.5267         64.3507         52.5537        -2.73206
           28704         59.3189         63.6304         53.2648        -2.70958
           28705         66.2883         75.1833         49.7418         1.54024
           28706         66.1111         74.9907         49.7700     878.568E-03
           28707         67.1188         76.6293         48.3349     407.080E-03
           28708         60.8582         67.9562         49.1342         1.86831
           28709         88.7471         101.840         52.1269         5.65957
           28710         88.5160         101.563         50.8110         5.73954
           28711         88.2520         101.195         51.2080         5.99111
           28712         88.6119         101.647         52.7509         5.75184
           28713         52.0171         51.2238         36.8059         14.2894
           28714         52.3515         51.0116         37.5859         14.6414
           28715         52.6805         52.8101         36.4049         13.9469
           28716         51.8973         42.1162         48.5674        -14.2155
           28717         41.7764         37.0016         34.6250        -12.3618
           28718         40.7661         36.4558         33.4676        -12.0118
           28719         40.0572         35.4298         33.4427        -11.7724
           28720         41.0788         35.9759         34.5924        -12.1252
           28721         40.2289         36.8983         32.0247        -11.7325
           28722         82.4156         47.5908         94.5688         5.31660
           28723         81.3200         48.0891         93.2837         5.30588
           28724         82.8799         93.8049         48.3908        -9.43999
           28725         83.2420         94.3262         48.8666        -9.18787
           28726         83.8680         95.2622         50.2364        -8.58077
           28727         51.1423         39.3418         48.5343        -14.3944
           28728         76.5498         86.2629         50.5633        -8.63482
           28729         77.0885         87.0385         51.3555        -8.15400
           28730         80.9315         46.4491         92.9912         4.63276
           28731         40.5962         35.7286         34.0198         11.9674
           28732         40.5024         36.6497         32.7759         11.8913
           28733         70.7491         50.1684         80.8318         1.82460
           28734         71.9647         50.0831         82.4485     842.501E-03
           28735         72.9537         49.7831         83.7391     384.525E-03
           28736         80.5445         91.9621         52.4046         5.87067
           28737         79.9882         91.3342         50.9595         6.15491
           28738         79.8692         91.0928         51.4294         6.35217
           28739         65.0412         46.1091         73.2106         6.32933
           28740         85.8059         98.2574         60.0349     969.685E-03
           28741         88.8223         44.3692         102.188         2.03762
           28742         71.6775         80.7622         46.6945        -8.28458
           28743         74.2890         83.3588         47.4822        -9.55096
           28744         58.7697         63.5484         40.7481         10.7168
           28745         59.0808         63.4215         40.9556         11.3777
           28746         58.2543         62.2426         40.3692         11.5821
           28747         57.9293         62.3710         40.1644         10.9175
           28748         58.5013         42.2398         64.1097        -8.87181
           28749         57.6544         41.7835         62.7706        -9.32371
           28750         67.1174         74.2173         46.7842        -9.66039
           28751         88.7612         44.0782         102.085         2.16488
           28752         88.7978         44.1910         102.167         1.73187
           28753         58.2635         40.5025         63.9882        -9.15395
           28754         57.2347         39.8809         62.3922        -9.67471
           28755         95.1679         109.201         65.2235     402.012E-03
           28756         66.1159         74.3341         42.9619         8.03249
           28757         65.3097         44.8573         73.5995         6.77672
           28758         64.7722         44.5047         72.9530         6.81618
           28759         66.2505         76.3067         42.6541    -781.778E-03
           28760         65.6566         75.6101         42.6122     64.5325E-03
           28761         73.7856         85.1890         42.5639    -693.514E-03
           28762         73.1682         84.4309         43.3289        -1.40300
           28763         78.0778         88.6892         30.4227    -998.402E-03
           28764         78.2010         88.7437         30.1239        -1.39119
           28765         86.8442         98.2720         31.9113    -851.052E-03
           28766         86.9130         98.2920         31.7203        -1.18723
           28767         42.7175         34.1177         40.1262         11.8275
           28768         44.6832         37.4679         39.4906        -13.0750
           28769         62.7699         66.1362         58.4582        -2.22918
           28770         62.7587         65.6549         59.0002        -2.62791
           28771         62.7917         66.5354         58.0837        -1.49902
           28772         40.2172         37.1486         31.3479         11.8215
           28773         78.7473         47.1357         90.7232         2.88437
           28774         78.0834         47.2288         89.9480         2.82525
           28775         77.2748         47.4084         89.0518         2.26632
           28776         78.1331         88.5648         50.9517        -7.69214
           28777         77.5731         87.7686         50.4645        -8.09919
           28778         77.5683         87.8155         49.9259        -8.10259
           28779         78.1337         88.6183         50.4057        -7.69837
           28780         78.6413         89.2306         51.9738        -7.27375
           28781         46.2048         36.5787         41.9746        -13.7887
           28782         47.3956         37.6640         42.9094        -14.1739
           28783         75.9404         47.5949         87.5264         1.48496
           28784         74.7689         47.7009         86.1604     663.816E-03
           28785         78.2008         88.7670         50.0304        -7.61121
           28786         78.8447         89.6507         50.7221        -7.15945
           28787         79.9265         91.0522         52.4662        -6.38249
           28788         48.2802         45.5169         36.3457         14.0537
           28789         48.6466         46.4217         35.9995         13.9846
           28790         49.7818         46.8258         37.5378         14.5399
           28791         48.0457         46.3165         35.1102         13.6214
           28792         86.3720         98.6616         49.6194         7.29049
           28793         87.1525         99.7056         52.0351         6.70517
           28794         74.0852         47.7210         85.3467    -167.293E-03
           28795         74.9678         47.6818         86.3977    -740.954E-03
           28796         75.0489         47.6502         86.5044    -497.128E-03
           28797         75.9347         47.5986         87.5125        -1.57955
           28798         77.0780         47.4305         88.7975        -2.45498
           28799         85.2081         97.0573         49.3447         8.05530
           28800         84.5641         96.1672         48.7621         8.45657
           28801         84.4470         96.0033         49.1445         8.51485
           28802         84.7330         96.4394         50.6197         8.13426
           28803         77.3006         47.3853         88.9897        -3.03581
           28804         48.9743         40.7123         43.9240         14.1412
           28805         47.7460         39.0848         43.5863         13.6119
           28806         45.2589         42.0970         34.6442         13.3468
           28807         48.8899         45.5822         37.3487        -14.3759
           28808         50.2058         46.7435         38.4158        -14.7827
           28809         50.4379         47.6451         37.8164        -14.6698
           28810         49.7675         48.5200         35.7347        -13.8984
           28811         49.3213         41.0497         44.1949        -14.2421
           28812         47.9233         39.6617         43.1487        -13.8218
           28813         46.5332         39.0679         41.0561        -13.6310
           28814         45.1362         38.6263         38.8487        -13.3747
           28815         45.2104         38.0598         39.7575         13.2657
           28816         44.3117         37.6548         38.5099         13.0730
           28817         46.1560         40.2899         38.6697        -13.7810
           28818         44.9889         41.0614         35.5535        -13.3390
           28819         46.4001         42.5713         36.3247        -13.7545
           28820         44.4451         41.2865         34.3591        -13.0231
           28821         78.8865         48.7932         90.7043        -3.68733
           28822         77.5975         49.4613         89.0759        -3.92610
           28823         79.0454         48.9544         90.7511        -4.41756
           28824         75.9422         49.3104         87.4131        -1.29453
           28825         76.1204         49.3641         87.5905        -1.75404
           28826         78.1277         88.6110         50.3870         7.70348
           28827         78.7337         89.4448         51.0601         7.26983
           28828         78.8342         89.6522         50.5985         7.14988
           28829         78.2254         88.8156         49.9290         7.58448
           28830         79.5891         90.5240         52.8974         6.58751
           28831         79.0515         89.8164         52.0798         7.01117
           28832         77.6104         87.8854         49.8546         8.07335
           28833         77.4956         87.6757         50.2025         8.16085
           28834         77.5524         87.6975         51.2669         7.98359
           28835         78.3244         48.9521         90.0758         3.37397
           28836         77.5244         49.1434         89.1883         2.79423
           28837         78.1820         48.8972         89.9880         2.81707
           28838         76.2606         49.4211         87.7274         2.05946
           28839         74.9988         49.6645         86.2325         1.27909
           28840         85.9345         98.0538         50.1979        -7.58177
           28841         86.0631         98.2321         49.7829        -7.51107
           28842         86.6693         99.0570         50.3309        -7.11116
           28843         87.7469         100.499         52.0670        -6.35436
           28844         85.7739         97.8401         50.6091        -7.63327
           28845         85.1641         97.0006         50.0896        -8.03268
           28846         85.3186         97.2087         49.6775        -7.97843
           28847         86.0265         98.2136         52.0783        -7.24096
           28848         86.2295         98.4689         51.6013        -7.25360
           28849         63.6530         69.4063         54.9608        -3.07758
           28850         63.8722         70.3195         54.0712        -2.11301
           28851         59.1965         61.1098         56.0803        -4.15820
           28852         59.4146         61.7015         55.4656        -4.79208
           28853         93.9049         40.9267         106.968         5.12847
           28854         95.0043         41.2085         108.137         5.48488
           28855         94.4630         40.9872         107.849         3.28118
           28856         93.3350         41.5205         106.729         3.04949
           28857         93.5673         41.2691         107.035         2.03785
           28858         91.9865         41.8607         105.431         1.51282
           28859         91.0699         42.4138         104.473         1.94671
           28860         90.7762         42.6775         104.227         1.14192
           28861         93.1127         41.2760         106.600     954.708E-03
           28862         92.4837         41.7642         105.982         1.00049
           28863         91.5655         42.3335         105.054         1.00592
           28864         93.5501         41.1910         107.056         1.10473
           28865         74.2680         82.8711         48.7929         10.1799
           28866         74.6130         83.4279         49.3991         9.79567
           28867         75.1567         84.2241         49.5370         9.54159
           28868         74.8056         83.6668         48.9307         9.92313
           28869         73.0301         81.3024         49.2542         10.0306
           28870         73.8469         82.3784         49.3893         9.94116
           28871         73.1430         81.3386         48.9033         10.3299
           28872         85.7227         46.0130         98.2757        -5.62799
           28873         84.7570         46.4848         97.2146        -5.51475
           28874         84.6898         46.5875         97.0339        -5.97085
           28875         83.7422         46.9372         96.1981        -4.85970
           28876         84.5351         46.5738         97.0836        -4.94631
           28877         54.6625         42.5714         54.6848         13.0798
           28878         53.7909         42.0387         53.3094         13.2335
           28879         54.3985         43.1941         53.1345         13.7270
           28880         53.2519         40.9710         53.5659         12.6819
           28881         52.9436         41.5313         51.9783         13.3562
           28882         81.1547         93.0016         51.4467        -4.98840
           28883         81.5261         93.3943         52.4827        -4.87018
           28884         81.0663         92.7688         52.1391        -5.29453
           28885         80.6994         92.3779         51.1058        -5.41445
           28886         82.3563         94.4333         53.6694        -4.19068
           28887         82.5803         94.7677         53.6045        -3.87874
           28888         53.1589         51.0790         39.3324        -15.0425
           28889         51.1600         48.7042         38.1539        -14.6944
           28890         52.3891         49.5412         39.3253        -15.1881
           28891         69.4384         47.4879         79.3423        -3.61442
           28892         69.0285         47.7242         78.7879        -3.64651
           28893         68.3087         47.6233         77.7493        -4.31352
           28894         68.7108         47.3904         78.3017        -4.27819
           28895         69.5995         49.8390         79.2495        -3.13047
           28896         69.1812         50.2603         78.6208        -3.17363
           28897         68.5209         50.1914         77.6499        -3.82067
           28898         68.9289         49.7736         78.2762        -3.77276
           28899         89.6583         103.071         51.9925        -4.85640
           28900         89.1366         102.381         51.6054        -5.28322
           28901         88.8252         101.996         50.4836        -5.39162
           28902         89.3426         102.684         50.8674        -4.96328
           28903         91.2268         105.069         54.4167        -3.61078
           28904         90.5105         104.167         53.2661        -4.19049
           28905         90.7862         104.537         53.2096        -3.88721
           28906         56.8438         56.5163         39.7625        -15.3112
           28907         55.9659         56.1451         38.6356        -14.7919
           28908         54.9640         54.5742         38.4818        -14.8544
           28909         55.8627         54.9507         39.6141        -15.3688
           28910         58.2321         60.4765         38.5804        -13.8845
           28911         57.0932         58.3568         38.4993        -14.3600
           28912         58.3821         59.9612         39.1660        -14.4636
           28913         84.5189         45.2458         96.9865        -5.10240
           28914         85.7583         44.7241         98.3097        -5.36217
           28915         53.7071         39.8971         53.7135         13.5467
           28916         81.0635         91.2968         48.3251         10.2111
           28917         81.4479         91.9081         48.9661         9.82123
           28918         82.0681         92.7495         49.0667         9.59294
           28919         81.6804         92.1400         48.4258         9.97992
           28920         80.5431         90.7509         49.0111         9.95276
           28921         79.7219         89.6005         48.5197         10.3369
           28922         70.9184         50.5925         80.3191        -5.23439
           28923         69.5807         50.7424         78.9667        -3.55444
           28924         70.7884         55.6514         78.6970        -5.78218
           28925         64.4146         52.6483         71.8157    -540.432E-03
           28926         85.5603         97.3439         34.0542    -33.2659E-03
           28927         65.5097         57.6807         71.2221     60.8352E-03
           28928         66.1031         57.3211         72.2954    -668.617E-03
           28929         66.0879         56.9072         72.4852    -28.1164E-03
           28930         65.5070         57.2652         71.4136     699.969E-03
           28931         65.0089         52.1892         72.8204    -156.441E-03
           28932         66.2946         51.5770         74.7624    -680.202E-03
           28933         77.2524         49.8216         88.5623        -4.27312
           28934         77.1552         47.5734         88.6483        -4.01985
           28935         77.9643         47.3053         89.6302        -3.96003
           28936         77.2958         47.4339         88.9263        -3.41043
           28937         76.4829         47.6956         87.9384        -3.45816
           28938         61.4800         54.5182         66.6167     729.659E-03
           28939         61.0703         54.8898         65.6693         1.71374
           28940         60.7468         55.2106         64.8117         2.56220
           28941         94.4245         40.6127         107.646         4.11043
           28942         95.4412         40.6056         108.818         3.53015
           28943         95.0151         40.9747         108.286         4.47382
           28944         64.4964         73.7942         44.8799         1.99017
           28945         63.6275         72.5390         45.7346         2.03700
           28946         82.9873         47.4166         95.0991         5.88774
           28947         82.3464         47.9453         94.1826         6.51758
           28948         81.8728         48.0026         93.7896         5.90390
           28949         83.1301         95.5695         53.5872         2.98898
           28950         57.3445         59.4339         40.0880         13.3109
           28951         58.2494         59.9510         40.8761         13.8874
           28952         56.6108         58.0923         39.7938         13.6410
           28953         71.8220         79.4437         48.3006        -10.8218
           28954         87.5239         44.9268         100.722         2.71670
           28955         87.5570         44.0914         100.463         4.43262
           28956         88.5954         43.5249         101.569         4.44234
           28957         88.3707         43.5476         101.237         4.91959
           28958         55.0695         38.7275         58.9281        -10.6839
           28959         55.4555         40.1069         57.6360        -12.3349
           28960         87.5646         45.1785         100.723         3.26220
           28961         89.1758         44.0201         102.256         4.45783
           28962         88.4766         44.4508         101.519         4.42654
           28963         88.5621         44.3934         101.690         3.91198
           28964         76.4002         85.3041         47.4760        -10.8955
           28965         55.7478         42.1818         57.8379        -11.8742
           28966         91.8699         105.923         54.4082         2.78186
           28967         91.4777         105.439         53.6574         3.12264
           28968         91.5759         105.529         54.4925         3.20908
           28969         67.2409         46.4119         76.1300         5.91157
           28970         66.6348         46.4320         75.1915         6.37179
           28971         66.7976         46.7301         75.4238         6.16523
           28972         61.3230         65.6218         39.5806         12.7150
           28973         60.9531         64.6325         39.5866         13.2842
           28974         60.5075         63.4978         39.6563         13.8401
           28975         60.1243         62.4515         39.8041         14.3318
           28976         45.2142         37.9295         38.5351        -13.9324
           28977         44.8197         38.4726         37.2886        -13.8180
           28978         43.6571         36.9064         36.9881         13.4269
           28979         42.4148         35.8282         36.0397         13.0094
           28980         44.4561         36.8561         38.4144         13.6395
           28981         62.1191         70.2096         47.3736        -1.93399
           28982         61.5396         68.9971         48.5164        -2.59269
           28983         64.5137         73.9850         44.3027        -1.04057
           28984         65.1821         74.9431         43.4228    -562.187E-03
           28985         65.4930         75.2895         43.4850        -1.13154
           28986         63.8851         73.0921         44.9617        -1.10317
           28987         63.9156         72.9680         45.4311        -1.99223
           28988         67.5574         77.0224         48.4857        -2.24873
           28989         67.3341         76.8294         48.4417        -1.44625
           28990         73.0285         84.3207         42.8791    -229.631E-03
           28991         72.3637         83.5109         43.6739    -870.876E-03
           28992         70.8991         81.8326         38.8713     161.771E-03
           28993         80.7237         92.7063         37.9589     57.9502E-03
           28994         81.3034         93.3122         37.7235     149.804E-03
           28995         81.4711         93.4315         37.2196    -299.985E-03
           28996         79.8104         91.7657         38.5398     162.442E-03
           28997         78.1195         89.9838         39.5420     216.280E-03
           28998         77.9697         89.8046         39.3749    -157.295E-03
           28999         77.7590         89.5485         39.2038    -637.797E-03
           29000         77.3289         89.1273         39.8724    -7.87987E-03
           29001         43.1341         38.9733         34.1174         13.0039
           29002         44.6908         40.0623         35.5339         13.5793
           29003         45.0277         36.9253         39.3484        -13.7680
           29004         43.5225         34.8446         39.1008        -13.0849
           29005         45.0328         36.2048         40.2239        -13.6077
           29006         88.3570         44.9354         101.784     696.925E-03
           29007         88.8374         44.4577         102.280     703.690E-03
           29008         87.9603         45.3726         101.372     728.588E-03
           29009         87.9540         45.3961         101.373     440.442E-03
           29010         70.8131         79.2808         45.5714        -9.40292
           29011         71.8576         80.6007         46.3214        -9.21795
           29012         60.0892         42.8121         66.8811        -7.48491
           29013         60.3297         43.2943         66.7729        -8.11463
           29014         59.3317         42.6832         65.3563        -8.49642
           29015         59.7077         42.3671         66.7524        -6.88633
           29016         60.4184         42.8140         67.7313        -6.57439
           29017         63.6487         45.0780         71.5782         6.38452
           29018         63.3922         45.1669         70.9642         7.01994
           29019         64.2801         45.6984         72.1638         6.67683
           29020         63.9655         45.1201         72.2381         5.68049
           29021         63.2939         44.6979         71.3982         5.82688
           29022         86.5814         98.8347         62.4354     460.593E-03
           29023         86.1654         98.5833         60.9054     447.341E-03
           29024         86.0049         98.4391         60.5158     715.875E-03
           29025         86.9841         99.0401         63.9706     487.109E-03
           29026         87.1008         99.1242         64.2951     308.352E-03
           29027         63.5364         43.6826         71.5941         6.59323
           29028         63.2152         43.5416         70.9292         7.25039
           29029         64.1304         44.1118         72.1205         6.99658
           29030         63.9366         43.9582         72.3306         5.86997
           29031         63.2657         43.5490         71.5070         5.96781
           29032         67.3875         75.8944         43.9498         7.85455
           29033         66.8995         75.0545         43.3614         8.49734
           29034         61.3877         67.5310         42.8813         9.39919
           29035         61.8056         67.4923         42.9878         10.2974
           29036         60.6982         66.0607         42.1442         10.4595
           29037         61.5266         68.2472         43.3341         8.31514
           29038         88.3377         44.8656         101.754     821.056E-03
           29039         88.8301         44.3617         102.261     809.562E-03
           29040         88.8005         44.2961         102.205         1.25964
           29041         87.9423         45.3093         101.343     864.066E-03
           29042         87.9404         45.3638         101.353     581.056E-03
           29043         59.9622         41.3609         66.8937        -7.67602
           29044         60.1792         41.6656         66.7733        -8.34628
           29045         59.1435         40.9982         65.3117        -8.73960
           29046         60.3208         41.5768         67.7577        -6.73337
           29047         65.1418         72.2144         45.8385        -8.89900
           29048         65.1559         71.8491         45.4645        -9.70493
           29049         66.2416         73.1802         46.2505        -9.62842
           29050         65.3158         72.7965         46.3683        -8.00539
           29051         64.5222         71.8754         45.7878        -7.99025
           29052         60.8881         67.6869         49.6038         2.75901
           29053         61.4058         68.5043         49.0783         3.22625
           29054         66.3678         75.4630         49.2732     398.102E-03
           29055         66.8646         76.1825         48.8368     927.970E-03
           29056         62.3888         53.6917         68.3642         1.47038
           29057         62.4198         53.5229         68.3844         2.25303
           29058         62.0100         53.8262         67.5352         2.71710
           29059         85.0901         97.0453         35.2192     57.2929E-03
           29060         84.9513         96.9323         35.4352     63.5020E-03
           29061         75.2194         86.4218         35.7064     172.453E-03
           29062         75.1560         86.3143         35.3827     346.466E-03
           29063         69.4490         79.8009         46.2929         1.43283
           29064         72.6711         49.1673         83.2082         3.22384
           29065         71.7824         49.5790         82.0460         3.20663
           29066         71.7080         49.2704         82.1363         2.23527
           29067         72.9770         49.4147         83.3321         4.37529
           29068         73.5991         49.0308         84.2208         4.04467
           29069         57.9555         40.7035         62.8119        -10.2208
           29070         56.5375         39.6364         61.0700        -10.2712
           29071         55.9452         39.5494         59.6803        -11.0196
           29072         68.4659         74.9828         46.7311        -11.3342
           29073         69.4161         76.2473         47.2734        -11.1748
           29074         89.4045         43.5539         102.745         2.21200
           29075         89.2868         43.5055         102.567         2.69043
           29076         59.8619         63.4961         41.4923         12.4457
           29077         60.1501         64.3434         41.6510         11.8762
           29078         60.7870         64.4113         42.0764         12.7282
           29079         56.8005         61.3467         39.3711         10.4575
           29080         56.2159         60.4517         38.9230         10.7049
           29081         84.4003         97.0168         55.9355         1.73825
           29082         84.6934         97.2545         56.9864         1.75674
           29083         84.9789         97.4925         57.9260         1.68780
           29084         67.0953         47.3486         75.9132         5.52160
           29085         67.1379         47.7681         75.8432         5.66838
           29086         92.7644         107.043         55.5477         1.56988
           29087         92.3897         106.596         54.7119         1.98844
           29088         93.0078         107.283         56.8083         1.65238
           29089         64.7483         44.7395         72.6710         7.32378
           29090         67.2777         45.7950         76.3653         5.61527
           29091         66.8955         45.8562         75.7078         6.11605
           29092         65.2692         69.7868         41.9477         13.6341
           29093         62.9122         67.9327         40.3676         12.3265
           29094         58.1465         42.5578         62.8947        -9.84479
           29095         55.9121         41.6494         58.9444        -11.1362
           29096         74.5279         83.0568         46.8149        -10.8418
           29097         75.6252         84.4131         47.2913        -10.7879
           29098         75.6703         84.7878         47.7493        -10.0926
           29099         74.5555         83.4221         47.2688        -10.1358
           29100         89.3973         43.9216         102.788         2.00525
           29101         89.4232         43.8695         102.774         2.45329
           29102         87.7250         45.1468         100.951         2.82432
           29103         88.1109         44.7452         101.290         3.36468
           29104         95.6349         109.481         67.2458    -128.513E-03
           29105         66.1636         46.7949         75.3786        -3.32931
           29106         67.5715         76.5012         44.5203        -6.76462
           29107         66.7334         74.7182         47.9046         7.18871
           29108         66.3960         74.5285         48.0766         6.47170
           29109         67.3142         75.5022         48.6101         6.77872
           29110         65.0429         72.6939         46.4916         7.40191
           29111         64.4721         71.8541         45.7808         7.90145
           29112         64.0382         71.5759         45.7572         7.28411
           29113         87.5183         45.9359         100.922    -121.253E-03
           29114         87.3786         46.1293         100.776     49.7693E-03
           29115         87.1906         46.3800         100.578    -82.3101E-03
           29116         87.3302         46.1874         100.724    -253.397E-03
           29117         69.2792         78.5117         45.9358         6.63136
           29118         87.2973         46.0935         100.664    -987.696E-03
           29119         58.2335         40.1492         65.5905         6.06856
           29120         59.0643         40.7179         66.4673         6.30214
           29121         59.3259         40.9881         67.0629         5.50407
           29122         58.4876         40.3983         66.1774         5.25297
           29123         59.4022         41.9432         67.0292         5.41295
           29124         60.5646         42.8017         68.5116         4.98890
           29125         57.3066         40.2982         64.8021         4.90543
           29126         87.6187         99.2645         66.5424    -578.870E-03
           29127         87.2921         99.0582         65.6142    -773.764E-03
           29128         87.3788         99.2429         65.3625    -370.742E-03
           29129         87.2657         99.2112         64.8673    -282.104E-03
           29130         87.5892         99.3592         66.0362    -208.771E-03
           29131         63.0907         43.8070         71.6808        -4.59571
           29132         59.1843         66.2291         41.9168        -6.72255
           29133         60.0475         67.0985         42.5650        -7.01815
           29134         60.0949         67.4066         42.8039        -6.34654
           29135         59.2221         66.5273         42.1470        -6.02578
           29136         60.6067         67.5354         42.8742        -7.51604
           29137         61.2984         68.1089         43.2498        -8.03782
           29138         61.6365         68.7767         43.7355        -7.39401
           29139         60.9632         68.2002         43.3641        -6.88587
           29140         74.5726         85.7707         36.2842     116.973E-03
           29141         74.2509         85.4614         36.7765    -53.0626E-03
           29142         75.0213         86.2478         36.1116     60.5310E-03
           29143         74.7559         85.9997         36.5603    -78.4515E-03
           29144         74.8407         86.0190         35.8345     255.602E-03
           29145         83.9761         96.0009         36.1744     13.2692E-03
           29146         83.7674         95.7553         36.0421     166.784E-03
           29147         84.2149         96.2696         36.2500    -74.9645E-03
           29148         84.0374         96.1333         36.6245    -231.338E-03
           29149         83.7980         95.8643         36.5493    -143.019E-03
           29150         72.2876         83.3819         38.5253    -597.550E-03
           29151         80.6071         92.6409         38.6328    -742.453E-03
           29152         74.2134         85.5976         42.9502         2.03178
           29153         74.6615         86.1475         42.4504         1.62278
           29154         66.3591         76.3859         42.9053         1.31922
           29155         65.8357         75.6608         43.5359         1.66979
           29156         66.2910         76.1471         43.5703         2.27238
           29157         59.6800         64.7785         41.4314         10.5316
           29158         59.9683         64.5609         41.5384         11.3196
           29159         67.5682         75.3701         43.4963         9.50791
           29160         67.9211         76.1245         43.9645         8.79834
           29161         94.6319         108.876         62.4715     266.037E-03
           29162         95.0115         109.127         64.3283     310.488E-03
           29163         94.8899         109.063         63.6422     149.377E-03
           29164         60.4108         55.6411         64.1419        -1.66081
           29165         62.9990         62.5311         63.4371    -648.448E-03
           29166         62.7720         63.3424         62.0120        -1.87658
           29167         62.8824         62.6862         62.9079        -1.88795
           29168         63.2580         61.7693         64.6340    -568.261E-03
           29169         63.4450         61.7387         65.0051     651.043E-03
           29170         64.2876         52.7248         71.6029     648.321E-03
           29171         65.0881         52.2904         72.8819     691.681E-03
           29172         65.5830         58.4462         70.8571         1.38747
           29173         66.3507         57.6416         72.4347         1.66659
           29174         64.5214         74.1068         43.6976     30.2640E-03
           29175         70.3522         55.2722         78.5671         4.62650
           29176         71.0574         54.3429         79.9202         4.15796
           29177         70.8547         50.0311         80.7970         3.23965
           29178         89.5971         44.0072         102.424        -5.99223
           29179         59.6099         62.2961         54.8444        -5.20321
           29180         59.7309         63.0721         54.0711        -5.04603
           29181         59.8046         62.7613         54.3924        -5.56220
           29182         83.6942         94.9718         49.3651        -8.87797
           29183         83.5764         94.7849         48.7361        -9.03857
           29184         38.6228         33.6925         32.9748        -11.2576
           29185         39.8083         34.6615         33.9256        -11.6655
           29186         72.2233         50.3083         82.7544     268.376E-03
           29187         71.5935         50.8435         81.8731     153.154E-03
           29188         53.5163         42.1235         52.5057        -13.4720
           29189         50.6058         42.3451         45.1943        -14.5953
           29190         51.7436         43.5581         46.0213        -14.9078
           29191         41.6165         38.5002         32.5914         12.1415
           29192         57.1453         58.2190         38.6978         14.5093
           29193         52.6293         50.6874         38.3970         14.9727
           29194         71.7039         47.9427         82.3986         1.12830
           29195         70.8530         47.9762         81.2992         1.75938
           29196         71.1444         48.0815         81.6828         1.29586
           29197         75.2216         84.3189         48.6349        -9.73131
           29198         75.7270         85.0691         49.1520        -9.36692
           29199         79.8480         46.7793         91.7664         4.43800
           29200         79.0053         47.0105         90.8057         4.28138
           29201         78.5674         47.1150         90.3733         3.81268
           29202         49.5246         39.2096         45.2036        -14.6554
           29203         62.7665         66.7015         57.8843     554.033E-03
           29204         62.8774         67.0828         57.4507         1.50915
           29205         58.8731         59.3571         58.1382         2.13258
           29206         44.2877         38.6236         37.2182         13.1900
           29207         59.2680         63.1486         53.7958        -3.05978
           29208         62.6857         64.2850         60.7703         1.87275
           29209         59.5595         57.2616         61.2118         2.97996
           29210         49.6329         37.5989         47.6870         13.7680
           29211         48.8623         36.4083         47.7496         13.1709
           29212         50.4211         47.2595         38.1513        -14.7910
           29213         47.1682         43.9593         35.9521        -13.9080
           29214         65.6876         73.5821         47.2025         6.96922
           29215         66.0594         73.7857         47.1478         7.64711
           29216         65.4258         72.8943         46.4205         8.08047
           29217         67.7713         75.8969         48.6335         7.26899
           29218         67.1153         74.9340         47.7857         7.88815
           29219         87.7780         45.5620         101.176    -884.162E-03
           29220         87.9619         45.3663         101.374    -698.837E-03
           29221         87.3810         45.9094         100.730        -1.38404
           29222         87.7568         45.5245         101.133        -1.27566
           29223         64.4624         45.3914         73.0879        -4.85606
           29224         64.6352         45.5290         73.1612        -5.26657
           29225         63.9594         45.1160         72.2255        -5.69681
           29226         65.5092         46.0545         74.2089        -5.20021
           29227         94.9541         109.035         64.4513    -591.869E-03
           29228         94.7674         108.949         63.2953    -465.045E-03
           29229         59.2007         41.8597         66.4862         6.19576
           29230         59.7750         42.4355         66.7785         6.99250
           29231         57.7254         41.2799         63.6686         8.22066
           29232         64.7424         72.4928         41.8268        -8.54450
           29233         65.4960         73.0945         42.1864        -9.14370
           29234         66.2478         74.2554         42.8963        -8.56531
           29235         87.4818         99.2564         65.8600    -488.203E-03
           29236         86.9765         99.0442         63.9078    -460.007E-03
           29237         86.9752         98.8822         64.5686    -927.029E-03
           29238         86.3455         98.5683         62.1543        -1.02169
           29239         63.8800         43.9214         72.2584        -5.88710
           29240         66.1919         45.3963         75.2893        -4.82775
           29241         65.6639         44.9160         74.4172        -5.74191
           29242         58.8127         40.5104         65.8746         6.99959
           29243         59.5689         41.0527         66.7027         7.12300
           29244         57.5185         39.8411         63.3228         8.83436
           29245         57.2210         39.4669         63.3661         8.20989
           29246         56.3721         39.0702         61.7377         9.16313
           29247         71.8772         81.1752         47.1397         7.77478
           29248         71.0781         79.9634         46.1707         8.52791
           29249         87.4963         45.8584         100.879    -851.249E-03
           29250         87.9339         45.3240         101.337    -811.221E-03
           29251         87.8698         45.1326         101.213        -1.64493
           29252         76.1614         87.2999         34.4522    -5.60978E-03
           29253         76.0517         87.2340         34.8684     27.3526E-03
           29254         88.0808         43.6500         100.748         5.78302
           29255         88.3459         44.6239         101.155         5.63586
           29256         86.8083         45.5014         99.3966         6.00798
           29257         86.9733         45.3304         99.6922         5.47947
           29258         89.9802         43.8011         102.833         5.98419
           29259         47.0267         39.4219         40.0853        -14.5009
           29260         62.5142         43.5356         71.0892        -4.23930
           29261         62.4568         43.1891         70.7938        -5.20600
           29262         61.8681         42.9182         70.1990        -4.85129
           29263         63.3430         71.3206         46.0081         5.48576
           29264         63.5214         71.1626         45.5545         6.76786
           29265         62.7741         70.4908         45.1939         6.18869
           29266         61.1897         43.2770         69.4041         4.39557
           29267         61.1916         43.2239         69.1083         5.39402
           29268         61.8045         43.6985         69.9995         4.80224
           29269         88.4059         99.6562         68.9867    -90.9327E-03
           29270         87.7929         99.4492         66.7521    -117.098E-03
           29271         88.0875         99.5604         67.8136    -13.9674E-03
           29272         46.7653         39.8642         39.1362         14.4491
           29273         47.5966         41.0312         39.3410         14.7011
           29274         48.3456         41.1960         40.4637         14.9423
           29275         47.5451         40.0811         40.2659         14.6810
           29276         44.8841         37.8304         38.0905         13.8267
           29277         58.8886         60.4863         56.7485         2.67007
           29278         58.9414         59.9107         57.4303         3.01374
           29279         59.1171         60.2807         57.0479         3.89389
           29280         58.9211         61.2114         55.8608         2.81357
           29281         63.0508         67.6251         56.7784         2.45677
           29282         63.4419         68.9501         55.4009         2.67048
           29283         90.6967         42.4287         103.491        -5.95401
           29284         88.9695         43.2269         101.750        -5.54760
           29285         89.2096         44.0815         102.156        -5.24549
           29286         89.2052         44.0481         102.226        -4.83419
           29287         88.4270         44.4850         101.382        -4.90120
           29288         88.4441         44.5134         101.324        -5.31323
           29289         88.7737         44.4189         101.583        -5.79572
           29290         87.9297         43.7279         100.630        -5.58247
           29291         86.7731         44.2529         99.3950        -5.48945
           29292         80.4255         91.9239         51.3992        -5.80780
           29293         71.4121         47.9098         82.0239        -1.43413
           29294         71.7719         47.6275         82.4643        -1.82961
           29295         82.5905         93.4336         48.9187         9.46867
           29296         82.6367         93.5879         49.7553         9.14753
           29297         80.6141         46.5370         92.5986        -4.75062
           29298         81.1042         46.4431         93.2618        -4.26403
           29299         50.8525         40.7060         48.2067         13.7527
           29300         54.1926         52.9992         38.7061        -15.0682
           29301         53.7705         53.6767         37.3491        -14.3747
           29302         41.6016         37.8200         33.3537        -12.2381
           29303         80.6134         48.2960         92.5582        -4.80227
           29304         75.6353         84.9174         49.4805         9.36615
           29305         71.5330         50.3437         81.8618    -884.935E-03
           29306         71.9263         49.7310         82.4265        -1.32337
           29307         88.4508         101.475         50.8191        -5.79322
           29308         83.8312         47.1489         95.9272        -6.46744
           29309         73.5579         81.7556         48.2588         10.6975
           29310         54.1937         43.8655         51.6132         14.2933
           29311         53.5435         42.6797         51.7705         13.8410
           29312         81.1418         93.1025         50.7097        -4.67773
           29313         55.1318         53.1464         40.7368        -15.4973
           29314         69.0868         48.0458         78.9061        -3.13709
           29315         69.2008         50.7783         78.6196        -2.67366
           29316         89.4556         102.869         50.0978        -4.61878
           29317         58.4152         58.1357         40.8977        -15.6799
           29318         80.2548         90.1029         47.7782         10.7161
           29319         48.0711         35.5539         47.2706         12.8179
           29320         52.9275         40.7147         50.6595         14.6041
           29321         69.7529         50.4695         79.3550        -2.94905
           29322         68.5927         50.7550         77.9210        -2.00738
           29323         69.8921         50.2259         79.6630        -2.39581
           29324         68.9778         55.0941         77.1947        -2.34742
           29325         69.4709         54.3174         78.1666        -1.96810
           29326         68.7124         54.7988         77.0186        -1.54304
           29327         69.3274         55.3628         77.4339        -3.27580
           29328         69.9477         55.4795         78.0185        -4.32967
           29329         84.4042         96.3026         35.1925    -405.388E-03
           29330         84.6491         96.5499         35.0937    -321.863E-03
           29331         84.7269         96.4151         33.9624        -1.12748
           29332         75.1945         86.2678         34.6994    -697.422E-03
           29333         75.1152         86.2375         35.1284    -506.231E-03
           29334         75.3824         86.5114         34.9624    -431.509E-03
           29335         75.4631         86.5422         34.5330    -623.122E-03
           29336         75.8341         86.7152         33.0829        -1.36551
           29337         66.8667         56.8662         73.5917        -1.47649
           29338         67.4501         56.0699         74.7928        -1.33423
           29339         66.7086         56.5222         73.5670    -667.753E-03
           29340         88.8771         44.4141         102.329     261.273E-03
           29341         89.4402         43.8929         102.905     284.459E-03
           29342         89.3997         43.9402         102.857     728.020E-03
           29343         66.4989         74.0642         42.7601        -9.57710
           29344         67.4566         75.1627         43.3771        -9.65628
           29345         69.7082         77.8483         44.8225        -9.64669
           29346         69.9410         77.7275         44.6295        -10.4457
           29347         62.5056         44.6959         69.7001         7.44827
           29348         62.4085         45.1301         69.1187         8.16573
           29349         63.2625         45.5919         70.3753         7.73266
           29350         86.2124         98.6329         60.9831     197.572E-03
           29351         85.7554         98.3124         59.3970     202.921E-03
           29352         85.7107         98.2640         59.3223     455.138E-03
           29353         61.2305         43.8831         67.9828        -7.85454
           29354         61.1768         44.2926         67.4302        -8.57487
           29355         62.8990         68.8459         43.7377         10.2421
           29356         63.1080         68.4846         43.6755         11.1957
           29357         68.9834         76.9631         44.3235         9.69692
           29358         94.5106         108.795         61.8179    -18.6764E-03
           29359         62.3634         43.0511         69.7403         7.62622
           29360         62.2869         43.1939         69.2988         8.26468
           29361         60.2025         66.8781         42.3782        -7.95647
           29362         59.6270         66.4388         42.0783        -7.44558
           29363         64.2415         70.6003         44.7735        -9.98205
           29364         64.6092         70.5861         44.7250        -10.7795
           29365         65.5047         71.8292         45.4101        -10.5059
           29366         61.1051         42.2594         68.0178        -8.08185
           29367         61.0471         42.4787         67.4902        -8.83705
           29368         88.8622         44.3907         102.309     352.538E-03
           29369         89.4000         43.8904         102.861     291.019E-03
           29370         62.3026         53.8664         68.2191     547.460E-03
           29371         69.7163         80.0368         46.3859         2.26563
           29372         70.4149         80.9775         45.7076         2.08132
           29373         71.0662         81.8222         45.1385         1.94748
           29374         71.7105         82.6280         44.6140         1.91136
           29375         84.5474         97.0667         56.8766         2.01695
           29376         84.1093         96.6690         55.5210         2.16487
           29377         66.7219         47.9364         75.1518         6.01737
           29378         58.6428         62.1806         40.6848         12.2081
           29379         57.8275         60.9463         40.1600         12.4412
           29380         58.3795         61.0323         40.6682         13.0563
           29381         56.0369         40.2173         58.8639        -11.9036
           29382         70.1539         77.2648         47.6590        -10.9954
           29383         88.5991         43.7056         101.705         3.68434
           29384         89.0061         43.5699         102.199         3.25864
           29385         88.7069         44.3355         101.913         3.43178
           29386         56.3414         42.4594         58.9068        -11.5857
           29387         92.0557         106.185         54.1106         2.36116
           29388         66.3578         46.0680         74.8022         6.62627
           29389         67.0776         46.1444         75.9211         6.03935
           29390         66.1774         45.7716         74.5909         6.70202
           29391         63.8247         72.6317         45.9875        -2.80058
           29392         63.3719         71.6926         46.8974        -3.60566
           29393         68.1054         77.7724         47.9922        -2.51750
           29394         41.6888         38.0232         32.7968         12.4311
           29395         40.2815         32.4496         36.2004        -12.0256
           29396         42.0818         33.5062         38.1222        -12.5464
           29397         87.8214         45.5601         101.239     128.858E-03
           29398         68.5438         77.5675         45.1932        -6.94356
           29399         61.2349         43.3005         68.9419        -5.97248
           29400         62.4813         44.1622         70.4757         5.74889
           29401         87.3613         99.2707         65.1575     120.813E-03
           29402         62.4715         43.1084         70.6268         5.79708
           29403         95.7968         109.556         68.0124     64.4736E-03
           29404         95.5826         109.459         66.9824     9.69941E-03
           29405         95.4386         109.388         66.2755     96.5990E-03
           29406         67.7943         76.8871         44.9063         6.33980
           29407         68.3081         77.3230         45.0572         6.85454
           29408         67.8052         76.5868         44.4802         7.30567
           29409         62.3046         69.4184         44.1534         7.71333
           29410         87.8196         45.5471         101.235     269.021E-03
           29411         61.1526         42.1745         68.9733        -6.12522
           29412         63.5203         70.8731         45.2210        -7.56844
           29413         76.2302         87.1639         33.0748    -911.760E-03
           29414         76.3116         87.2773         33.1958    -687.945E-03
           29415         85.1644         96.8934         33.9488    -716.004E-03
           29416         85.2788         97.0321         34.0164    -525.524E-03
           29417         59.7382         64.0543         53.0643         4.03602
           29418         59.8939         64.8056         52.2941         3.73216
           29419         61.8914         69.2230         48.6379         3.64848
           29420         61.4124         68.2000         49.4843         3.93150
           29421         61.9018         68.9171         49.0443         4.35536
           29422         65.0481         72.7178         51.9491         2.72613
           29423         68.1216         77.4962         48.4162         3.77843
           29424         67.6298         76.8484         48.8296         3.47667
           29425         67.4265         76.2862         49.3276         4.34165
           29426         70.8102         81.3489         45.7357         2.90088
           29427         71.4576         82.1919         45.1698         2.76622
           29428         78.1178         50.4347         88.9989         6.49525
           29429         76.7293         51.1669         87.3005         6.18711
           29430         77.0638         50.7555         87.8650         5.83353
           29431         78.2636         47.5692         89.5490         5.86286
           29432         82.7661         95.0451         53.5623        -3.58593
           29433         82.7273         95.0825         52.9484        -3.36906
           29434         83.1037         95.5063         53.7509        -3.11779
           29435         68.2604         47.0616         77.6293        -4.88997
           29436         67.6833         46.7459         76.7747        -5.48955
           29437         68.3905         46.8344         77.8167        -4.92787
           29438         72.4995         80.3550         48.4982         10.7120
           29439         71.7002         79.2527         48.2228         10.8976
           29440         72.3278         80.2381         48.6786         10.4792
           29441         88.4535         44.4649         101.498        -4.40296
           29442         54.0600         41.4699         54.7936         12.5522
           29443         91.0204         104.850         53.1978        -3.60052
           29444         91.4013         105.348         53.4394        -3.15826
           29445         91.3733         105.281         54.0341        -3.36649
           29446         68.4855         49.3505         77.6456        -4.38925
           29447         67.8621         49.0144         76.7336        -5.02863
           29448         59.5125         61.3984         39.7037        -14.5297
           29449         60.6935         63.3280         39.9978        -14.2176
           29450         59.5360         61.9819         39.3395        -14.0656
           29451         78.9450         88.4883         48.0994         10.7209
           29452         78.0296         87.3054         47.8815         10.8637
           29453         88.4923         43.6743         101.525        -4.08735
           29454         87.6920         44.1077         100.665        -4.12341
           29455         54.6286         40.7577         54.6727         13.6909
           29456         54.7089         40.3492         55.4621         13.2515
           29457         85.6891         44.7287         98.1136         5.89296
           29458         90.1117         43.5342         103.163         4.94386
           29459         89.2369         44.1244         102.117         5.60642
           29460         94.6391         108.810         63.0763    -753.710E-03
           29461         95.7980         109.558         68.0104    -47.0301E-03
           29462         95.4242         109.381         66.2090    -65.7892E-03
           29463         64.7989         45.6563         73.2224        -5.65504
           29464         61.4870         43.4419         69.4366        -5.43057
           29465         64.2685         71.5766         41.3307        -9.26120
           29466         88.0318         45.2439         101.430        -1.10562
           29467         87.5065         45.8418         100.882        -1.05438
           29468         87.5878         45.8413         100.994     180.481E-03
           29469         66.4570         74.0014         47.0339         8.34111
           29470         62.4422         69.8333         44.5570         7.03752
           29471         72.4716         81.6638         47.1571         8.37444
           29472         68.6825         77.9328         45.6142         6.27028
           29473         68.9055         77.8899         45.3106         7.24160
           29474         87.5877         45.8490         100.995     37.1132E-03
           29475         57.6779         39.7581         64.2117         7.65565
           29476         58.0047         39.9162         65.0180         6.81115
           29477         62.2381         43.0082         70.4893         5.37755
           29478         62.2287         43.9426         70.3404         5.31115
           29479         59.1238         65.2877         41.3526        -8.62008
           29480         59.6199         66.0783         41.8497        -8.20870
           29481         58.9786         65.6165         41.4777        -7.61953
           29482         58.4813         64.8351         41.0043        -8.03398
           29483         63.1791         70.7202         45.2001        -6.92264
           29484         61.4127         42.4371         69.4659        -5.56875
           29485         87.6992         99.4191         66.3831     66.2735E-03
           29486         60.9823         68.0462         49.1902        -2.31586
           29487         78.7920         88.1362         47.6819        -11.0925
           29488         79.5822         89.2872         48.0740        -10.6833
           29489         85.8267         46.0543         98.2698         6.16506
           29490         84.0647         46.8821         96.3652         5.78794
           29491         68.4791         49.8318         77.6083         4.10256
           29492         67.9096         49.6512         76.7469         4.72453
           29493         67.3683         50.0536         75.8647         4.99902
           29494         67.9220         50.2338         76.7248         4.37595
           29495         69.0963         50.0342         78.5094         3.43057
           29496         82.6015         94.8489         53.2736         3.72204
           29497         82.4386         94.7226         52.5611         3.64276
           29498         82.0135         94.1981         51.9200         4.00024
           29499         54.4587         42.7845         53.8791        -13.3848
           29500         54.9006         43.7274         53.6249        -13.7990
           29501         53.9789         43.0745         52.2481        -13.8925
           29502         54.2963         54.3275         38.8164         14.1268
           29503         55.1736         54.7502         39.6957         14.6531
           29504         54.4845         53.4835         39.5390         14.8259
           29505         58.1538         59.3593         39.3136         14.6789
           29506         59.6376         61.2287         40.0289         14.7906
           29507         59.2337         60.3059         40.1629         15.0646
           29508         58.1112         58.8011         39.7099         15.0272
           29509         68.0794         47.2779         77.3827         4.83108
           29510         68.7759         47.2919         78.3876         4.32358
           29511         69.4642         47.3007         79.3586         3.82324
           29512         70.2006         47.3953         80.3679         3.25967
           29513         90.7547         104.534         52.2624         3.69397
           29514         90.7208         104.471         52.7000         3.84833
           29515         91.1382         104.989         53.5963         3.55418
           29516         91.1687         105.050         53.1495         3.40520
           29517         90.2631         103.892         51.8316         4.17626
           29518         73.1482         81.2612         48.6556        -10.5470
           29519         72.7067         80.6467         48.5659        -10.6522
           29520         72.3075         79.9643         48.1377        -11.0475
           29521         72.7421         80.5715         48.2287        -10.9469
           29522         73.6631         81.9865         48.7636        -10.4008
           29523         53.8283         39.7026         54.2854        -13.2861
           29524         53.2414         39.5317         53.1408        -13.5240
           29525         52.5685         39.2623         51.9327        -13.7103
           29526         76.1015         47.6983         87.5716        -2.86083
           29527         75.0781         47.9818         86.3635        -2.56157
           29528         72.5484         52.5112         82.4803        -3.36562
           29529         73.0090         52.6689         82.8840        -4.16173
           29530         75.8808         50.1992         87.0085        -3.42617
           29531         74.7553         50.4720         85.7070        -2.64924
           29532         74.4425         50.7949         85.2465        -2.86906
           29533         62.9189         52.9916         69.2870         2.68424
           29534         62.4792         53.2938         68.4058         3.14471
           29535         66.1764         57.7138         72.1560        -1.45393
           29536         65.4347         58.1599         70.8412    -505.474E-03
           29537         65.0932         57.5527         70.5877         1.25212
           29538         65.0828         57.1857         70.7022         1.81849
           29539         81.2350         91.5012         48.1358        -10.2320
           29540         80.2473         49.0210         91.7280         6.30208
           29541         78.9680         49.7565         90.1641         6.24267
           29542         78.9790         49.5282         90.3134         5.80752
           29543         80.1160         91.5837         50.6091         5.90711
           29544         80.7208         92.4352         50.9553         5.32949
           29545         69.5522         50.2911         79.1575         2.78845
           29546         88.6939         101.819         50.4646         5.51014
           29547         89.2891         102.616         50.7999         4.99326
           29548         69.7913         47.8909         79.8701         2.77524
           29549         70.4405         47.9086         80.7473         2.23553
           29550         69.9441         47.7228         80.0593         2.93672
           29551         74.0915         82.6078         48.7811        -10.2567
           29552         64.3375         70.3942         53.9468        -4.87359
           29553         63.9701         69.4449         54.7998        -4.90351
           29554         63.7878         69.4001         54.9081        -4.01005
           29555         63.4805         68.4738         55.8103        -3.99428
           29556         63.3451         68.4773         55.8632        -3.06176
           29557         65.8664         73.9482         51.0071        -3.66083
           29558         66.4297         75.0770         50.0715        -3.07760
           29559         66.3839         74.7870         50.3707        -3.81201
           29560         65.7331         73.3656         51.5273        -4.60390
           29561         66.1349         74.1442         50.9076        -4.44894
           29562         59.5539         61.4661         55.6980        -5.47286
           29563         59.3873         60.8065         56.4349        -5.03744
           29564         60.6361         66.5337         50.8344        -4.00281
           29565         60.7251         66.1144         51.3428        -4.99435
           29566         64.2877         60.0883         67.7681     787.309E-03
           29567         64.8734         59.2832         69.2626     975.771E-03
           29568         63.8439         60.9575         66.3598     761.892E-03
           29569         63.5379         61.0067         65.7885    -468.488E-03
           29570         63.5808         53.1612         70.4196     599.952E-03
           29571         76.1111         87.1155         33.5691    -657.166E-03
           29572         85.1845         97.0088         34.4313    -323.980E-03
           29573         62.8625         65.3950         58.9274         4.33214
           29574         62.7220         64.7152         59.9128         3.35258
           29575         59.5753         58.2227         59.5790         5.11622
           29576         59.5107         57.6700         60.4584         3.96310
           29577         48.6899         43.3910         38.8133        -14.8952
           29578         49.9631         39.2021         46.1333         14.6030
           29579         49.4346         39.2512         44.9452         14.6879
           29580         64.8001         72.0475         45.8353         8.35972
           29581         64.1610         71.0701         45.1333         8.87497
           29582         88.3602         44.9370         101.786    -771.619E-03
           29583         88.0620         45.2725         101.486    -406.214E-03
           29584         88.4590         44.8428         101.896    -473.684E-03
           29585         63.9955         45.2465         72.1048        -6.09854
           29586         63.3353         44.7736         71.3634        -6.03173
           29587         62.6447         44.4143         70.3372        -6.54196
           29588         94.4034         108.666         61.7170    -632.894E-03
           29589         94.2215         108.551         60.5821    -395.534E-03
           29590         94.5677         108.831         62.1500    -228.427E-03
           29591         59.8532         42.7314         66.4823         7.69030
           29592         58.7433         42.1628         64.7571         8.36522
           29593         60.5834         42.9900         67.8040         6.82427
           29594         60.6423         43.2604         67.5029         7.51843
           29595         64.9249         71.7007         41.5548        -10.4398
           29596         65.2716         72.4896         41.9133        -9.78421
           29597         66.2822         73.4563         42.4842        -10.2198
           29598         86.5478         98.8092         62.3420    -485.772E-03
           29599         86.2272         98.5602         61.4306    -799.814E-03
           29600         86.9884         99.0762         63.8447    -277.442E-03
           29601         86.5572         98.8381         62.2701    -299.415E-03
           29602         63.9102         43.9251         72.1432        -6.30764
           29603         64.7077         44.3988         73.0777        -6.32580
           29604         63.2520         43.5278         71.3988        -6.22329
           29605         62.5522         43.0678         70.3739        -6.74073
           29606         60.2232         66.3708         42.1359        -8.99834
           29607         60.7783         67.1678         42.6184        -8.73205
           29608         61.7177         68.0032         43.1802        -9.24652
           29609         88.3253         44.8811         101.740    -862.511E-03
           29610         88.3415         44.7421         101.726        -1.36859
           29611         88.0431         45.2499         101.461    -524.559E-03
           29612         88.4343         44.8070         101.864    -570.719E-03
           29613         71.7737         80.5042         46.2860         9.20801
           29614         70.7140         78.8684         45.2396         10.0268
           29615         69.9941         78.3267         45.1083         9.35456
           29616         60.1849         41.5405         67.1755         7.62798
           29617         60.2610         41.5389         67.5382         7.07017
           29618         60.9834         42.0266         68.3251         7.20846
           29619         75.9616         87.1378         34.8876     126.006E-03
           29620         75.9984         87.2019         35.0787     41.7150E-03
           29621         75.9077         87.1267         35.2764     61.4771E-03
           29622         85.1034         97.0844         35.3682     10.4490E-03
           29623         85.0325         97.0311         35.5061     21.6848E-03
           29624         43.6495         34.3324         39.9811        -12.9193
           29625         44.9456         35.4750         40.9682        -13.3740
           29626         43.6130         40.0732         33.8978         12.9816
           29627         44.9976         41.1141         35.0671         13.4964
           29628         68.8616         79.4919         40.7073     769.916E-03
           29629         76.0831         87.7672         41.4274         1.32852
           29630         69.0517         78.8097         47.5457         3.81355
           29631         68.7189         78.1615         48.0897         4.44246
           29632         62.4872         70.3298         47.7794         3.45538
           29633         63.0737         71.0796         47.4280         3.98846
           29634         73.7092         48.7120         84.5381         3.24150
           29635         72.5044         48.9191         83.1643         2.29689
           29636         73.1723         48.5897         84.0368         2.18821
           29637         74.3875         48.3833         85.4152         3.13395
           29638         71.8054         53.5069         81.1809         3.93369
           29639         72.7380         52.6253         82.6269         3.76192
           29640         75.7886         51.3900         86.3096         5.44934
           29641         64.7701         46.6818         72.3881         7.19122
           29642         64.8112         46.2368         72.7116         6.77309
           29643         64.2805         46.2788         71.7571         7.34874
           29644         65.6727         47.9283         73.4440         6.87533
           29645         64.8274         47.4588         72.1439         7.51388
           29646         64.5108         47.9485         71.4136         7.89227
           29647         85.4825         98.0307         58.8656     953.585E-03
           29648         85.2324         97.8653         57.8478     788.993E-03
           29649         84.0004         96.7270         54.2199         1.25002
           29650         83.7388         96.4251         53.7510         1.64894
           29651         84.0685         96.7256         54.8259         1.71724
           29652         73.6040         81.8822         46.3666        -10.9482
           29653         73.4110         81.9342         46.5338        -10.3806
           29654         72.5674         80.5139         45.7594        -11.1637
           29655         73.5202         81.4888         46.0588        -11.4987
           29656         74.4320         82.6616         46.5030        -11.3823
           29657         61.4356         64.7788         42.5719         13.2089
           29658         60.5807         63.1905         42.1460         13.7103
           29659         59.9114         62.8143         41.6471         13.2324
           29660         59.7772         61.7519         41.8359         14.0620
           29661         61.1389         63.4036         42.6688         14.1736
           29662         60.3480         61.9624         42.3607         14.5245
           29663         58.7845         43.3989         63.3083        -10.1935
           29664         58.7311         42.7160         63.9839        -9.37869
           29665         57.4560         43.6078         60.0666        -11.7037
           29666         58.2607         43.9079         61.5721        -11.2366
           29667         58.5461         44.7620         61.2915        -11.7031
           29668         67.0730         73.8593         46.4729        -10.2683
           29669         66.5747         72.9418         45.9534        -10.8304
           29670         67.7646         73.5281         46.0919        -12.2508
           29671         68.6098         74.7928         46.5954        -11.9333
           29672         58.6727         41.4681         63.3714        -10.5648
           29673         58.5058         40.8611         63.8893        -9.69612
           29674         57.6691         41.8406         60.5579        -12.1327
           29675         58.3218         41.9797         61.9024        -11.6314
           29676         58.6499         42.7290         61.8115        -12.0350
           29677         58.0204         42.5898         60.4678        -12.5357
           29678         89.3859         43.6670         102.772         1.69964
           29679         90.1169         43.1289         103.531         1.58290
           29680         90.1359         43.0144         103.505         2.09342
           29681         91.0173         42.3477         104.351         2.63251
           29682         90.0856         42.9492         103.382         2.77487
           29683         92.5793         106.870         54.2952         1.19079
           29684         92.3843         106.627         54.0161         1.56660
           29685         92.9652         107.290         55.8304         1.20085
           29686         64.0839         44.5808         71.5409         7.96979
           29687         64.4216         44.4353         72.2984         7.33011
           29688         64.7476         45.5219         72.2692         7.89519
           29689         64.2069         45.1371         71.4534         8.26197
           29690         63.8704         45.3602         70.7598         8.65282
           29691         64.4020         45.7385         71.5792         8.28571
           29692         66.2556         70.7431         42.5868         13.9558
           29693         65.5803         69.3933         42.4919         14.4734
           29694         73.9691         85.1883         37.2614    -263.165E-03
           29695         74.5243         85.7822         36.9963    -248.304E-03
           29696         74.2448         85.5091         37.4814    -458.394E-03
           29697         83.4443         95.4813         36.5413    -50.9967E-03
           29698         83.2681         95.3506         36.9732    -277.319E-03
           29699         79.2041         91.1667         39.5344        -1.02823
           29700         80.0997         92.1189         39.1011        -1.01991
           29701         84.5109         96.5639         36.0904    -59.3540E-03
           29702         84.3514         96.4363         36.3807    -154.601E-03
           29703         75.3472         86.5927         35.9832     29.1988E-03
           29704         75.1519         86.4196         36.3897    -83.3960E-03
           29705         75.8179         87.0092         35.1182     146.904E-03
           29706         56.0206         40.8487         57.9201        -12.6611
           29707         55.9366         41.4299         56.9197        -13.3015
           29708         55.4532         41.3474         55.8604        -13.5984
           29709         54.9692         41.2804         54.7594        -13.8978
           29710         54.4462         40.5519         54.5369        -13.6289
           29711         72.2423         80.0073         48.4149        -10.7600
           29712         88.0298         43.9535         101.041         4.04920
           29713         57.0381         56.0562         41.4496         15.4541
           29714         56.4479         55.8440         40.7673         15.0825
           29715         56.2004         57.0185         39.7869         14.0589
           29716         55.1658         56.0897         39.0137         13.7041
           29717         82.5198         95.0290         51.3773         2.69006
           29718         82.8554         95.4380         51.8954         2.32895
           29719         66.8855         49.8160         75.0974         5.58166
           29720         67.3220         49.5426         75.8380         5.27868
           29721         66.8337         49.2185         75.0882         5.82461
           29722         62.9940         64.8343         42.2455         15.4815
           29723         90.9530         104.868         50.6385         2.66606
           29724         66.4719         47.0906         74.8997         6.27410
           29725         66.9509         46.9789         75.6576         5.93422
           29726         55.7989         44.3903         54.9730        -13.6779
           29727         55.2696         43.1968         55.2984        -13.1600
           29728         88.2656         44.5821         101.194         4.98397
           29729         87.4810         45.0398         100.364         4.89315
           29730         76.2341         84.4536         46.6329        -12.1507
           29731         76.5591         84.7976         46.5981        -12.2568
           29732         85.6145         97.0124         32.4155        -2.03177
           29733         85.1874         96.5590         32.5494        -2.36073
           29734         76.8751         87.4244         31.0380        -2.37170
           29735         76.4581         86.9668         31.2013        -2.74355
           29736         81.2154         46.3671         93.2198         5.11306
           29737         73.8115         85.0949         43.3584         2.35337
           29738         73.5861         84.7616         43.7514         2.86627
           29739         67.3981         77.4796         43.0617         2.67768
           29740         68.1889         78.4598         42.5581         2.68887
           29741         89.1844         43.2757         102.256         4.08152
           29742         89.8044         43.0150         103.016         3.34371
           29743         90.7664         42.4329         103.985         3.53730
           29744         65.1497         74.6211         44.5148         2.33451
           29745         65.3523         74.9975         44.0224         1.81628
           29746         71.9049         82.8035         44.6886         2.39452
           29747         63.6390         68.5095         55.6436        -4.90854
           29748         63.3537         67.5762         56.5647        -4.83073
           29749         60.2775         56.0705         62.7017         4.95624
           29750         60.0192         56.5376         62.0494         4.61161
           29751         66.8308         75.7284         49.5688         3.06939
           29752         67.0079         75.8082         49.6220         3.76809
           29753         60.5455         66.6997         50.5533         3.32526
           29754         60.9763         67.4680         49.9971         3.63620
           29755         62.4413         69.9636         48.2443         4.15717
           29756         87.1038         46.4043         100.468    -824.482E-03
           29757         65.0398         45.9085         73.9841        -3.89198
           29758         88.0600         99.4452         68.0775    -463.951E-03
           29759         58.5939         41.3216         66.1753         5.19856
           29760         66.0307         74.3061         48.2390         5.65990
           29761         83.9105         95.2983         33.2920        -2.79970
           29762         83.7350         95.0441         33.1608        -3.17652
           29763         75.1473         85.6498         32.1618        -3.24031
           29764         75.0091         85.4036         31.9607        -3.68115
           29765         72.3576         83.4649         39.1806        -1.19829
           29766         47.1650         42.4643         37.8750         14.0848
           29767         45.3890         40.7954         36.5698         13.5453
           29768         47.4796         43.3770         37.3575         14.1141
           29769         84.2568         95.7584         48.0928         8.60082
           29770         77.7705         88.1917         49.4319        -7.88319
           29771         78.0088         88.5855         49.2928        -7.63388
           29772         49.8824         45.7094         39.0568        -14.8181
           29773         48.4287         42.4173         40.3826         14.4716
           29774         49.4676         43.0662         41.6564         14.7317
           29775         75.6242         50.2339         86.7271         3.19502
           29776         85.4811         97.4359         49.3095        -7.88135
           29777         85.5994         97.6097         48.9589        -7.77815
           29778         77.4981         87.7758         49.4086         8.10404
           29779         77.0321         87.1029         49.0895         8.42788
           29780         91.7889         42.4561         105.070        -3.82255
           29781         92.4224         41.9926         105.814        -2.90455
           29782         91.6567         42.4422         105.016        -3.07190
           29783         90.8048         42.9906         104.066        -3.71373
           29784         91.7009         42.6051         104.888        -4.51439
           29785         56.1377         40.1125         59.2659         11.6517
           29786         56.5956         40.1057         60.4235         11.0592
           29787         77.7574         87.0765         48.0177         10.6366
           29788         83.6022         96.0394         54.9125        -2.83619
           29789         56.8467         59.3674         39.6307        -12.7703
           29790         57.7142         59.9893         40.2874        -13.2406
           29791         58.1993         60.9937         40.5065        -12.8685
           29792         63.4117         67.7908         40.8750        -13.2367
           29793         63.5302         68.3976         40.8032        -12.6990
           29794         62.5735         67.3251         40.2324        -12.5536
           29795         56.2420         42.0129         59.2448         11.2128
           29796         56.1848         42.5215         58.4427         11.8064
           29797         56.6435         42.6900         59.2940         11.5691
           29798         67.8432         48.6287         76.7545        -5.13692
           29799         63.0802         61.8237         64.1345        -1.70682
           29800         60.9734         54.9624         65.3666        -2.36650
           29801         61.4846         54.4238         66.5346        -2.05116
           29802         61.4755         54.5647         66.6047     58.5218E-03
           29803         60.8977         55.0642         65.3372        -1.32418
           29804         61.4640         54.5322         66.5626        -1.04684
           29805         62.8119         62.6864         62.5075        -2.99652
           29806         60.5018         55.5401         64.1708        -2.70319
           29807         68.7668         77.1339         44.5600         8.76979
           29808         94.8724         109.056         63.5223    -2.14007E-03
           29809         88.5891         44.6841         102.032    -146.549E-03
           29810         88.9631         44.3100         102.416    -103.708E-03
           29811         68.6006         76.4903         44.0640        -9.73154
           29812         88.0580         45.2807         101.484    -179.808E-03
           29813         88.3254         44.9775         101.761    -108.828E-03
           29814         87.9481         45.4008         101.370     64.7646E-03
           29815         87.0536         99.1227         64.0281    -143.136E-03
           29816         86.7520         98.9643         62.9143    -97.1809E-03
           29817         87.1992         99.2014         64.5343    -1.52513E-03
           29818         61.2168         43.3969         68.6556         6.58410
           29819         61.4373         43.6572         68.7143         6.99539
           29820         61.8537         43.7578         69.5770         6.18371
           29821         65.8120         75.5994         43.6780        -1.84425
           29822         70.1412         80.1142         46.8730        -4.45775
           29823         69.5500         79.4292         47.2008        -4.05823
           29824         63.5931         71.7440         47.0996        -4.38283
           29825         63.0306         70.7874         47.7784        -4.52129
           29826         74.3295         85.6400         38.1162    -833.601E-03
           29827         74.0156         85.2825         37.9506    -700.747E-03
           29828         73.6579         84.8773         37.7968    -523.815E-03
           29829         82.6125         94.7133         37.5546    -513.760E-03
           29830         85.9677         45.8559         98.6329        -5.23235
           29831         85.8419         44.7800         98.5042        -4.88278
           29832         70.6623         81.5675         39.5921    -774.663E-03
           29833         78.7378         90.6624         39.5704    -750.563E-03
           29834         80.4237         92.4745         39.2332        -1.32468
           29835         80.7716         92.8522         39.3270        -1.58053
           29836         80.3497         92.4037         39.7472        -1.87760
           29837         79.3971         90.4043         51.3058        -6.75622
           29838         73.9013         47.7867         85.1175     329.936E-03
           29839         84.2938         95.7964         49.5160         8.56570
           29840         50.7896         48.6652         37.3139        -14.5470
           29841         42.6946         38.2507         34.7560        -12.6645
           29842         77.2735         87.3274         50.3967         8.29262
           29843         87.2585         99.8529         50.8652        -6.71328
           29844         74.1393         49.9441         85.1613         1.01199
           29845         91.2097         42.6327         104.639        -2.10850
           29846         90.9718         42.8329         104.338        -2.82123
           29847         91.8796         42.2423         105.305        -2.35749
           29848         92.8513         41.6931         106.288        -2.40841
           29849         93.9219         41.1365         107.369        -2.43298
           29850         92.0729         42.2836         105.378         3.68662
           29851         91.5342         42.1487         104.972        -1.55285
           29852         91.2070         42.2885         104.579        -2.31897
           29853         92.2469         41.6663         105.629        -2.38912
           29854         84.0913         46.7979         96.4965        -5.34043
           29855         72.5551         80.3228         48.2148         10.9630
           29856         72.5638         80.2468         48.0004         11.1624
           29857         71.9959         79.3434         47.6901         11.5120
           29858         67.9913         47.2925         77.2533        -4.88765
           29859         67.6653         47.5636         76.7803        -4.93388
           29860         67.0255         47.4958         75.7987        -5.51514
           29861         82.3754         94.6226         52.5994        -3.77146
           29862         82.0984         94.3417         51.8078        -3.80280
           29863         82.4531         94.8078         52.1519        -3.39512
           29864         68.2573         49.7387         77.2791        -4.35233
           29865         67.9839         50.1161         76.8290        -4.39150
           29866         67.5258         50.0652         76.1155        -4.84329
           29867         59.7092         61.0467         40.2889        -14.9978
           29868         60.0177         60.9611         40.8602        -15.3535
           29869         60.8412         62.1050         41.1850        -15.3429
           29870         79.0012         88.4438         47.7640         10.9835
           29871         79.0263         88.3835         47.5162         11.1859
           29872         78.2904         87.3020         47.1744         11.5577
           29873         83.0963         95.0983         36.4946    -104.666E-03
           29874         84.0864         95.9844         35.3385    -466.454E-03
           29875         73.9933         85.1094         36.1047    -481.610E-03
           29876         77.9666         50.1780         89.0232         5.85495
           29877         80.8054         48.5281         92.5323         5.85174
           29878         81.1852         48.5476         92.8304         6.41295
           29879         79.8741         49.0000         91.4354         5.73796
           29880         78.3478         47.4097         89.7946         5.31524
           29881         78.9214         47.1318         90.5518         5.01376
           29882         78.9713         47.0605         90.7014         4.60033
           29883         80.1288         46.7013         91.9959         4.92254
           29884         89.9970         43.4476         103.462     929.477E-03
           29885         89.8453         43.5659         103.288         1.36156
           29886         73.1239         81.8624         46.7372        -9.78626
           29887         64.0677         45.8236         71.6753         7.11645
           29888         85.6778         98.2138         59.3411     703.087E-03
           29889         93.5799         107.959         57.8224     577.258E-03
           29890         66.2212         72.8423         45.9440        -10.2480
           29891         76.0553         86.9662         33.0720        -1.10663
           29892         84.9644         96.6755         33.9522    -893.404E-03
           29893         59.1199         62.1108         54.9148         3.29509
           29894         59.4087         62.3720         54.7554         4.32707
           29895         59.5099         63.1394         53.9242         4.15413
           29896         64.6895         71.7475         52.8131         3.51223
           29897         64.2245         70.8520         53.6058         3.12404
           29898         64.1852         70.3963         53.9911         4.07558
           29899         64.6535         71.2955         53.2004         4.46083
           29900         64.9699         71.4258         53.0161        -5.64089
           29901         64.5556         70.4661         53.8160        -5.71533
           29902         64.1701         69.5067         54.6081        -5.77941
           29903         63.8346         68.5711         55.4507        -5.78490
           29904         63.7530         69.5919         54.7773         3.31278
           29905         63.8880         70.2108         54.1781         2.62919
           29906         63.5793         69.5675         54.8022         1.98832
           29907         59.3931         60.7087         56.5331         5.10091
           29908         47.4290         41.4872         38.5696         14.6157
           29909         46.1395         41.2003         36.7533         14.0811
           29910         47.6041         42.4772         37.9047         14.5506
           29911         48.8156         42.9069         39.4944         15.0193
           29912         49.0507         41.8123         41.0555        -15.1522
           29913         62.7107         64.0199         60.9602         2.62104
           29914         59.7729         57.1293         61.2464         4.35452
           29915         48.5981         40.8989         41.2584         14.9914
           29916         48.3360         40.0396         41.7633         14.8460
           29917         49.6723         41.4739         42.6244         15.2557
           29918         48.9212         43.0931         39.4923        -15.0384
           29919         50.0839         44.3517         40.2086        -15.3613
           29920         49.8553         44.6833         39.5102        -15.2025
           29921         50.5345         39.1419         47.4516         14.4607
           29922         51.0709         40.5200         46.7195         15.0192
           29923         51.6194         40.4573         48.0343         14.8752
           29924         51.6952         48.2150         39.3489        -15.2378
           29925         68.9030         79.3216         42.1940         2.72494
           29926         78.1535         90.0380         39.9381     822.755E-03
           29927         75.6110         87.2182         41.9246         1.72480
           29928         76.1514         87.7903         41.9065         2.21596
           29929         76.6182         88.3386         41.4092         1.82057
           29930         64.7090         57.6983         69.8086         2.06225
           29931         64.5587         58.1522         69.3526         1.76686
           29932         64.9547         58.0075         70.1471     946.424E-03
           29933         63.2209         52.6658         69.8109         2.95944
           29934         84.9673         97.0027         35.7618    -7.07944E-03
           29935         85.0365         97.0737         35.7415    -2.92316E-03
           29936         84.9740         97.0475         35.9969    -32.0426E-03
           29937         75.8947         87.1591         35.6757     4.37129E-03
           29938         75.8127         87.0481         35.4910     52.2038E-03
           29939         75.6791         86.9273         35.7144     42.3794E-03
           29940         71.6075         48.9919         82.1315         1.36896
           29941         90.0407         43.4321         103.414         2.45273
           29942         90.0038         43.4428         103.428         1.76462
           29943         90.7041         42.9548         104.148         1.73064
           29944         90.7459         42.9415         104.140         2.42189
           29945         72.7933         80.5492         45.7182        -11.5916
           29946         73.3207         80.9288         45.7898        -12.0480
           29947         59.1486         44.2233         63.2339        -10.6574
           29948         59.1129         42.1964         63.4888        -10.9843
           29949         93.3177         107.686         56.8836     768.420E-03
           29950         63.6488         44.6670         70.6934         8.48807
           29951         75.6752         86.7638         34.4389    -513.367E-03
           29952         75.8089         86.8467         33.9966    -672.306E-03
           29953         53.3798         40.3427         52.2726        -14.1216
           29954         52.8581         40.2801         51.1169        -14.3474
           29955         73.1540         81.1614         48.2417        -10.8389
           29956         72.0212         79.5973         48.1377        -11.0411
           29957         83.0382         95.3782         53.9502         3.33627
           29958         68.3662         50.4747         77.3982         3.75985
           29959         68.8082         50.7291         78.0454         3.12093
           29960         67.6594         49.1957         76.4011         5.13362
           29961         70.0165         47.5410         80.1414         3.13681
           29962         54.5370         44.1324         52.0940        -14.2813
           29963         84.4279         95.8096         32.9877        -2.64216
           29964         75.6768         86.1838         31.7732        -3.06175
           29965         84.5671         96.6739         36.4146    -164.553E-03
           29966         75.5601         86.8154         35.8818     16.8288E-03
           29967         60.0126         56.5605         62.0388        -4.56641
           29968         91.3224         42.6524         104.647         3.31470
           29969         65.7294         75.3112         44.2814         2.74544
           29970         66.7775         76.6618         43.5655         2.83134
           29971         73.7526         84.8632         43.9338         3.45793
           29972         74.3941         85.6307         43.5187         3.39247
           29973         74.2236         85.5199         43.3326         2.80292
           29974         59.8693         59.5646         57.5510        -7.12434
           29975         60.2240         60.1083         56.6379        -8.37629
           29976         59.7605         58.2849         59.2663        -6.21888
           29977         59.5948         58.4987         59.1274        -5.54588
           29978         63.4648         66.8320         56.8046        -6.60481
           29979         63.7381         67.7271         56.0033        -6.63719
           29980         63.9416         67.7648         55.6810        -7.51224
           29981         63.6612         66.8699         56.4836        -7.47939
           29982         62.8701         64.3723         59.6186        -5.54566
           29983         62.7898         63.8326         60.4095        -4.99169
           29984         62.8311         64.9117         59.3009        -4.72389
           29985         66.6911         75.1072         50.1812         4.37533
           29986         61.0312         67.1957         50.3712         4.35956
           29987         61.6623         42.5831         69.7122         5.70617
           29988         87.7093         45.6932         101.121    -161.070E-03
           29989         87.8191         45.5386         101.233    -310.353E-03
           29990         87.9440         45.4066         101.366    -69.6571E-03
           29991         62.0509         43.8419         70.0705        -5.48788
           29992         95.0965         109.199         64.5995    -35.7474E-03
           29993         95.3020         109.319         65.5938     24.1102E-03
           29994         62.5844         69.9234         44.5891        -7.23780
           29995         61.9758         42.8020         70.1009        -5.63652
           29996         87.5278         99.3464         65.7612    -54.1828E-03
           29997         87.3308         99.2561         65.0481    -146.260E-03
           29998         61.5893         43.5436         69.4411         5.74008
           29999         61.1247         43.2401         68.7419         6.15042
           30000         87.7153         45.6928         101.129    -23.5133E-03
           30001         87.8298         45.5449         101.247    -178.611E-03
           30002         63.1014         70.5156         45.0080         7.24291
           30003         67.1244         55.4138         74.6388     142.189E-03
           30004          66.625         56.1675         73.6117    -3.91702E-03
           30005         67.2571         55.7414         74.6931    -534.996E-03
           30006         66.6225         51.2280         75.3157    -149.811E-03
           30007         66.8778         50.8913         75.7436     325.211E-03
           30008         66.0515         51.1084         74.5404         1.17069
           30009         67.5778         50.9832         76.6165        -1.08627
           30010         47.9389         44.4627         36.9182         14.1390
           30011         88.0074         100.842         52.7455         6.13896
           30012         85.8026         97.8816         49.2886         7.66726
           30013         42.7469         39.2829         33.6571        -12.5632
           30014         47.4774         43.7284         36.9350        -14.0576
           30015         48.7930         44.9134         37.9403        -14.4695
           30016         73.9583         48.2102         85.0516        -2.01448
           30017         73.9122         48.0748         85.0569        -1.44245
           30018         73.5981         51.1760         84.1826        -2.52464
           30019         70.8930         49.3437         81.1866        -1.38973
           30020         71.0785         49.5097         81.3301        -2.08115
           30021         67.8908         50.6232         77.1407    -537.453E-03
           30022         68.0305         50.3153         77.4016     24.8848E-03
           30023         67.0286         50.5861         76.0007     885.409E-03
           30024         71.6001         53.0942         81.1750        -3.06157
           30025         71.1438         53.5401         80.4610        -3.09913
           30026         71.8036         53.4884         81.1940        -3.88264
           30027         72.2711         53.0469         81.9170        -3.83780
           30028         68.4733         54.4862         76.8448    -755.665E-03
           30029         67.7499         54.9626         75.6907    -285.323E-03
           30030         67.9758         55.2762         75.8633        -1.07194
           30031         61.0611         67.7815         49.6766        -3.34239
           30032         67.2685         76.4493         49.0172        -2.89871
           30033         67.0384         75.9317         49.4992        -3.50779
           30034         90.2637         103.912         51.3409         4.03903
           30035         89.8223         103.343         50.6070         4.35969
           30036         89.8135         103.314         51.0934         4.50211
           30037         69.3980         47.5294         79.2854         3.61712
           30038         69.3138         47.7093         79.1920         3.41758
           30039         59.4189         60.1595         40.6257         15.3299
           30040         58.3091         58.6489         40.1798         15.3008
           30041         52.7430         43.3312         48.7856        -14.5846
           30042         80.5653         90.5384         47.8594        -10.5855
           30043         79.7463         89.4224         47.8218        -10.8400
           30044         52.4119         40.3263         50.0178        -14.5608
           30045         52.0366         40.4537         48.9629        -14.7723
           30046         54.2402         52.6078         39.8071         15.0994
           30047         81.8713         94.0870         51.3073         3.89250
           30048         81.4441         93.5528         50.7018         4.22848
           30049         81.5858         93.6642         51.3138         4.33658
           30050         81.2039         93.1175         51.1902         4.81232
           30051         73.2184         47.7955         84.2903     348.531E-03
           30052         73.1716         47.9011         84.2264    -81.6526E-03
           30053         73.0099         48.0773         84.0078    -436.153E-03
           30054         72.8950         48.2374         83.8374    -859.518E-03
           30055         87.8672         100.694         50.3299         6.22426
           30056         51.5271         48.5862         38.7302         15.0128
           30057         50.7851         43.1142         44.4665        -14.8343
           30058         43.8201         39.7156         35.0543        -12.9906
           30059         84.3217         95.8583         50.0498        -8.44692
           30060         76.8514         86.7061         50.3688        -8.53348
           30061         76.9771         86.9148         49.9479        -8.51860
           30062         77.1014         87.1239         49.7153        -8.44263
           30063         77.3890         87.6039         49.4220        -8.19840
           30064         77.6450         47.3133         89.3678         3.25996
           30065         45.8953         40.4848         37.9098         13.7232
           30066         73.2221         50.0072         84.0444    -192.104E-03
           30067         73.9136         50.5558         84.7406        -1.86993
           30068         65.4079         51.8281         73.4879    -323.339E-03
           30069         65.9412         57.4473         71.9926     545.004E-03
           30070         66.6575         56.6778         73.4179     780.969E-03
           30071         73.7626         85.0238         38.5265        -1.04102
           30072         72.3955         83.4906         39.8100        -1.76680
           30073         72.6607         83.7733         40.0548        -2.06154
           30074         81.4011         93.5254         39.1137        -1.56841
           30075         72.0405         83.1019         39.6236        -1.49100
           30076         89.0833         44.0819         102.169        -4.39626
           30077         89.8307         43.6130         102.999        -4.11119
           30078         89.1690         43.2826         102.248        -4.02858
           30079         89.9665         42.8735         103.139        -3.65828
           30080         63.3681         60.5891         65.5771         2.40668
           30081         85.2958         97.1678         34.6496    -75.2464E-03
           30082         85.4114         97.2478         34.4025    -60.0488E-03
           30083         85.3769         97.2043         34.3676    -163.339E-03
           30084         76.3134         87.3950         33.9356    -81.1272E-03
           30085         76.4902         87.5234         33.4916    -82.7472E-03
           30086         76.3312         87.3943         33.7975    -203.425E-03
           30087         68.6523         50.0796         78.2559     261.726E-03
           30088         67.8431         50.4980         77.1148     171.934E-03
           30089         69.0965         53.9797         77.8435     979.154E-03
           30090         68.6433         54.6835         76.9836         1.27416
           30091         58.9044         62.1860         40.8752        -12.5659
           30092         59.7271         63.5076         41.3952        -12.2400
           30093         56.8274         39.0692         63.4829         7.14374
           30094         92.3389         41.6133         105.710         2.52283
           30095         69.4752         79.5074         47.0037         3.32535
           30096         69.5524         79.3236         47.3523         4.44248
           30097         67.0231         50.9205         75.9322    -34.9761E-03
           30098         66.1944         51.3628         74.7018    -181.098E-03
           30099         68.0400         55.2422         75.9622         1.12537
           30100         67.3309         55.9731         74.6844         1.00411
           30101         75.9808         86.9717         33.5767    -780.638E-03
           30102         92.1288         106.309         53.5942         1.94793
           30103         65.6266         45.6739         73.7130         7.16242
           30104         69.3383         75.8767         46.9872        -11.6613
           30105         56.5878         40.9601         59.1481        -12.2293
           30106         75.1658         83.5594         46.7575        -11.3797
           30107         59.0787         61.3951         41.2110         13.5738
           30108         81.9124         94.3350         50.1533         2.96700
           30109         72.5510         51.6978         82.8164        -2.14856
           30110         71.6243         52.2041         81.5683        -1.78778
           30111         72.0407         52.3791         81.9801        -2.55568
           30112         69.9155         49.6478         79.9328    -913.395E-03
           30113         68.9475         50.0269         78.6404    -543.878E-03
           30114         69.1905         50.1258         78.9044        -1.15019
           30115         70.1759         49.7568         80.2037        -1.52419
           30116         67.8156         77.2059         48.5205        -3.16414
           30117         49.3799         42.6961         40.6994        -15.2391
           30118         50.1085         42.6864         42.0559        -15.4407
           30119         50.4358         43.5832         41.7049        -15.5199
           30120         49.9670         43.7204         40.6283        -15.3933
           30121         50.3041         41.1206         44.3138        -15.2545
           30122         49.3543         40.1519         43.6262        -14.9677
           30123         49.4492         39.6768         44.4176        -14.8369
           30124         48.9065         43.6077         38.9637         14.9573
           30125         50.0102         43.9884         40.4684         15.3676
           30126         51.0507         44.8048         41.4822         15.6688
           30127         50.9024         44.1740         41.8732         15.6637
           30128         75.8680         87.1784         36.1125    -6.57337E-03
           30129         75.8783         87.2371         36.5624    -19.3314E-03
           30130         75.8298         87.2033         36.7596    -81.9264E-03
           30131         63.7485         52.1427         70.7527         3.07139
           30132         62.8375         52.7302         68.9941         3.91422
           30133         60.5053         63.2607         53.8436        -7.43920
           30134         59.7437         61.2625         55.8679        -6.26114
           30135         65.4330         72.4056         52.2593        -5.52994
           30136         67.5723         48.1627         76.7050         4.36009
           30137         66.9892         48.0383         75.7786         5.09075
           30138         66.5290         48.4441         75.0923         5.10563
           30139         67.0970         48.5688         76.0091         4.37311
           30140         68.4567         48.1044         78.0121         3.61116
           30141         67.9990         47.9071         77.3169         4.27796
           30142         88.4478         101.599         48.0079         4.94608
           30143         88.5259         101.675         48.5944         5.11491
           30144         90.0147         103.610         50.4639         4.06483
           30145         89.6449         103.145         49.6728         4.22269
           30146         56.6975         55.1394         40.9865         15.8570
           30147         57.2506         56.2628         40.7684         15.7460
           30148         58.4100         57.4985         41.6066         15.9881
           30149         55.9105         46.3439         52.4093        -14.8363
           30150         55.5413         45.4827         52.7021        -14.5566
           30151         56.0363         45.8025         53.5753        -14.4425
           30152         55.2154         45.9450         51.1227        -14.9789
           30153         54.6369         45.4894         50.3003        -14.9880
           30154         54.9111         45.0382         51.6949        -14.6364
           30155         81.2154         91.4398         47.7822        -10.3402
           30156         72.9766         80.8478         47.4982        -11.1545
           30157         73.9063         82.3160         47.8544        -10.5728
           30158         56.0793         53.4726         41.9728         16.0026
           30159         55.4426         53.7894         40.7107         15.4168
           30160         56.4802         54.8166         41.5397         15.6703
           30161         79.6133         91.1775         48.6746         5.59041
           30162         80.0699         91.8332         48.8362         5.08784
           30163         79.5665         91.1955         48.2364         5.36634
           30164         81.2444         93.0945         51.7082         4.96892
           30165         61.8959         67.6750         50.3015        -6.45789
           30166         62.4382         69.0184         49.2759        -5.99480
           30167         62.4068         68.4255         49.8073        -6.82833
           30168         68.1519         77.4416         48.5107        -4.12076
           30169         68.7048         78.1974         48.0324        -4.25873
           30170         68.6668         77.8918         48.3409        -5.05029
           30171         52.1701         41.8626         47.3219         15.3937
           30172         50.6136         40.6388         45.5880         15.1063
           30173         52.1038         40.5132         49.0452         14.7765
           30174         52.5713         41.7348         48.4031         15.2664
           30175         53.0367         41.7753         49.4066         15.1732
           30176         52.0391         46.5095         41.4821        -15.8481
           30177         50.7803         45.6012         40.2221        -15.4437
           30178         51.1911         45.4003         41.1339        -15.6507
           30179         72.3327         47.9996         83.1900     434.912E-03
           30180         72.7406         48.4625         83.6013        -1.28215
           30181         68.7673         79.2861         41.6142        -1.85743
           30182         68.6905         79.1036         42.1284        -2.49782
           30183         68.0129         78.3009         42.4400        -2.35728
           30184         72.1914         82.8533         45.1981        -4.03603
           30185         72.7769         83.4973         44.9488        -4.37363
           30186         71.7604         82.1800         45.7090        -4.58478
           30187         64.3956         73.4283         45.5102        -2.92329
           30188         64.8841         73.9312         45.4650        -3.57506
           30189         64.9313         74.1445         45.1296        -3.06054
           30190         66.9268         55.7730         74.2139    -8.71181E-03
           30191         65.3335         58.1711         70.6829     269.006E-03
           30192         63.1551         53.1192         69.7731        -1.28074
           30193         63.1359         52.8865         69.6913        -2.45016
           30194         58.7612         40.8805         64.5395         9.21457
           30195         58.9732         41.2545         64.4090         9.73894
           30196         64.6523         44.4013         72.8246        -6.79552
           30197         64.4845         44.4908         72.3804        -7.30659
           30198         60.5900         64.8501         41.9264        -11.9264
           30199         62.6845         68.9128         43.7634        -9.67805
           30200         63.3627         69.3072         44.0116        -10.4026
           30201         90.1138         43.2076         103.562        -1.03646
           30202         89.8499         43.4999         103.319    -304.074E-03
           30203         88.7054         44.5192         102.143    -495.024E-03
           30204         88.3151         44.9713         101.748    -225.232E-03
           30205         64.5949         46.2694         72.3179        -7.02083
           30206         67.5398         74.6913         43.1647        -10.7032
           30207         68.6773         76.0190         43.8235        -10.7797
           30208         90.1100         43.3708         103.570        -1.15215
           30209         89.8354         43.5547         103.308    -338.823E-03
           30210         88.7274         44.5540         102.172    -408.062E-03
           30211         88.5962         44.6889         102.040    -40.6251E-03
           30212         86.3058         98.6891         61.3383    -245.367E-03
           30213         86.4896         98.8103         61.9686    -51.4539E-03
           30214         67.0777         73.7318         46.3761         10.5150
           30215         60.8735         43.5954         67.5651         7.86355
           30216         61.6537         43.9817         68.7708         7.34905
           30217         84.6296         95.8996         32.5499        -3.02579
           30218         75.9520         86.3165         31.1656        -3.51085
           30219         80.2532         91.7640         50.7643        -5.81005
           30220         79.9012         91.2155         50.9028        -6.21754
           30221         71.9192         48.0292         82.6718    -729.288E-03
           30222         73.1840         47.9171         84.2397     109.817E-03
           30223         72.4304         48.0870         83.3045    -80.8123E-03
           30224         71.1329         48.2511         81.6684    -926.566E-03
           30225         79.6494         46.8580         91.4780        -4.71193
           30226         82.1029         92.7255         48.4037         9.80149
           30227         82.9209         93.8816         48.8154         9.34610
           30228         55.1609         53.7096         39.7044        -15.4280
           30229         53.6113         51.7960         38.9671        -15.1795
           30230         75.9993         85.4679         49.4540         9.16817
           30231         76.7695         86.6084         49.8717         8.65373
           30232         76.2952         85.9228         49.3465         9.00259
           30233         75.1953         84.2654         48.9639         9.69844
           30234         71.9886         50.5602         82.4205    -156.873E-03
           30235         73.3232         50.3189         84.1104     831.481E-03
           30236         72.4778         50.7171         83.0025     587.513E-03
           30237         71.1498         50.9991         81.2767    -418.605E-03
           30238         88.3064         101.304         50.0995        -5.79960
           30239         87.8701         100.701         50.3102        -6.20998
           30240         90.6203         42.9967         104.063        -1.68664
           30241         90.7246         42.6924         104.159        -1.40665
           30242         77.6591         88.1991         30.4707        -1.90436
           30243         77.0520         87.6883         31.1966        -1.83640
           30244         86.3766         97.7588         31.9859        -1.62715
           30245         85.8356         97.2971         32.5134        -1.56635
           30246         64.1818         59.0986         68.1939        -1.46244
           30247         64.0215         58.9651         67.8982        -2.26060
           30248         85.2316         97.1076         34.6988    -131.652E-03
           30249         76.0009         87.1713         34.8129    -127.151E-03
           30250         76.1724         87.3014         34.3731    -88.8214E-03
           30251         76.1538         87.2677         34.2751    -160.223E-03
           30252         75.9468         87.1835         35.3945     12.0333E-03
           30253         71.7941         79.1176         47.7783        -11.4329
           30254         55.4236         55.7586         39.4765         14.2069
           30255         55.9813         55.9479         40.0479         14.6117
           30256         91.0435         104.915         52.4106         3.34548
           30257         90.5441         104.281         51.5501         3.74320
           30258         66.8888         47.2682         75.5711         5.80061
           30259         67.4016         47.2884         76.3610         5.37821
           30260         66.5388         47.5393         75.0197         5.94019
           30261         56.0732         45.2416         54.4862        -14.0676
           30262         55.1867         44.5735         53.1217        -14.1972
           30263         65.3839         74.6739         44.9627         3.40419
           30264         84.8093         96.5087         48.7833        -8.30451
           30265         78.3628         49.6509         89.6943         5.28667
           30266         77.0378         50.3254         88.0778         5.06721
           30267         76.4690         50.3456         87.5345         4.37881
           30268         47.9717         43.5199         38.0919        -14.3069
           30269         49.0719         44.3090         39.2184        -14.6561
           30270         51.9220         44.2511         45.4082        -15.1128
           30271         52.1351         45.0191         44.7725        -15.3013
           30272         51.5073         45.3767         42.8296        -15.3085
           30273         52.4904         45.9801         44.1990        -15.4898
           30274         51.1653         47.5950         39.2234         15.0661
           30275         52.4934         48.7905         40.3468         15.4459
           30276         51.6574         47.1853         40.6978         15.3412
           30277         50.3263         45.9839         39.5716         14.9663
           30278         85.6712         97.7208         48.6602         7.69178
           30279         48.4681         43.6689         38.8525         14.4834
           30280         48.2347         42.9530         39.3079         14.4327
           30281         46.9478         41.7448         38.3463         14.0450
           30282         47.5022         41.7765         39.3878         14.2041
           30283         50.1039         44.6825         39.9431         15.3100
           30284         51.1785         45.5859         40.8940         15.6315
           30285         77.2780         47.7110         88.6121         4.87190
           30286         48.4578         38.6649         43.7270        -14.5125
           30287         48.4349         39.1336         43.0705        -14.6622
           30288         85.2274         97.0788         34.5631    -219.866E-03
           30289         76.1344         87.2240         34.1165    -290.608E-03
           30290         70.1880         49.9546         80.1287        -2.08867
           30291         69.2688         54.0007         78.0540        -1.24387
           30292         70.4226         53.8008         79.5219        -2.54491
           30293         71.0693         53.9249         80.1760        -3.57058
           30294         72.7062         83.8500         39.3684        -1.47544
           30295         82.1646         94.3011         38.2921        -1.00420
           30296         82.3019         94.4753         38.6364        -1.34611
           30297         81.8157         93.9660         38.9196        -1.48016
           30298         90.2338         43.2946         103.585        -2.74301
           30299         90.0623         43.4506         103.309        -3.62075
           30300         89.3382         43.9286         102.692        -2.38440
           30301         89.4762         43.8319         102.779        -2.95444
           30302         90.0860         43.3957         103.484        -2.17029
           30303         89.4212         43.3034         102.645        -3.15337
           30304         89.1911         43.3593         102.339        -3.61037
           30305         90.2027         42.8027         103.449        -3.19881
           30306         89.3097         43.6050         102.644        -2.21955
           30307         89.4980         43.3761         102.785        -2.70787
           30308         90.3499         42.8116         103.693        -2.40057
           30309         90.1485         43.0470         103.536        -1.91003
           30310         75.4840         86.8893         42.9307         3.42819
           30311         61.5168         54.2315         66.3803         3.50307
           30312         61.5049         54.1562         66.1610         4.30922
           30313         61.1982         54.5216         65.4327         4.42215
           30314         63.2076         60.3313         65.0785         3.93286
           30315         63.4729         59.9145         66.1521         2.96815
           30316         67.5977         55.1288         75.4166     273.823E-03
           30317         68.1874         54.5687         76.4339     425.792E-03
           30318         69.2782         76.2453         47.3730         10.8611
           30319         68.1586         74.8307         46.7954         10.9223
           30320         67.2553         73.5017         46.1258         11.3064
           30321         89.5880         43.7656         103.009        -1.63824
           30322         57.5370         42.3335         61.8015         10.2508
           30323         56.7943         42.0960         60.4120         10.7550
           30324         57.4973         42.7182         61.2338         10.7597
           30325         58.4168         42.7429         63.2876         9.75262
           30326         59.2370         43.5083         64.1661         9.84069
           30327         58.6212         42.4271         64.0985         9.07909
           30328         92.8100         107.059         56.2723        -1.81979
           30329         92.8119         107.092         55.7834        -1.58575
           30330         93.1396         107.445         56.9837        -1.42569
           30331         93.1457         107.479         56.5862        -1.17490
           30332         66.1643         47.5975         74.3519        -6.40186
           30333         65.2786         47.0237         73.1022        -6.92011
           30334         64.4137         46.6962         71.7702        -7.50598
           30335         85.2699         97.8938         57.9811    -804.746E-03
           30336         84.8684         97.5501         56.7221    -906.462E-03
           30337         84.7826         97.5060         56.2676    -593.319E-03
           30338         58.9883         61.4670         41.1087        -13.3957
           30339         59.6793         62.6572         41.4760        -13.0921
           30340         60.4641         63.9079         41.8912        -12.8321
           30341         61.3181         65.2535         42.4221        -12.5226
           30342         66.0151         45.5881         74.3874        -6.76778
           30343         65.1525         45.0734         73.1682        -7.24765
           30344         64.2802         44.6803         71.8465        -7.82767
           30345         64.6589         69.6407         41.4532        -12.9023
           30346         64.7900         70.3463         41.4247        -12.2094
           30347         65.8516         71.3979         42.0389        -12.5565
           30348         65.2332         71.3301         41.6769        -11.5937
           30349         57.2329         40.9241         60.7190         11.5310
           30350         57.8608         41.1387         61.9374         11.0645
           30351         58.4983         41.3667         63.1079         10.6270
           30352         58.9608         42.0538         63.3031         10.9955
           30353         75.2869         83.9854         47.1357         10.8244
           30354         74.5016         82.8117         46.5667         11.2625
           30355         74.2066         82.6629         46.6858         10.8487
           30356         73.3635         81.4184         46.0824         11.2787
           30357         89.5516         43.5607         102.954        -1.53911
           30358         89.3637         43.9052         102.660         2.96388
           30359         62.3684         69.5471         48.6851         4.78503
           30360         62.9111         70.2354         48.3329         5.27265
           30361         62.9796         70.6525         47.8917         4.64399
           30362         63.5787         71.3927         47.5494         5.13380
           30363         68.9507         78.1432         48.2408         5.48820
           30364         69.2124         78.7005         47.8133         4.94635
           30365         69.7150         79.2051         47.5957         5.51394
           30366         66.4226         70.2406         43.0707         14.7020
           30367         65.8100         69.0078         43.1053         15.1153
           30368         92.0738         106.272         52.8252         1.53884
           30369         91.8203         105.953         52.4042         1.91840
           30370         91.5230         105.601         51.3712         1.88987
           30371         91.2464         105.247         50.9678         2.26882
           30372         64.0457         46.0472         70.8527         8.64031
           30373         68.7028         74.6436         46.4798        -12.3485
           30374         67.9624         73.4792         46.1275        -12.6671
           30375         68.1251         73.4403         46.1330        -13.0042
           30376         68.8622         74.6080         46.4901        -12.6865
           30377         58.2636         43.4137         60.1289        -12.9722
           30378         57.6830         43.2470         58.8961        -13.3586
           30379         74.2003         81.9374         46.0838        -12.1684
           30380         74.5605         82.2711         46.1177        -12.3565
           30381         74.8765         82.9773         46.4475        -11.8036
           30382         60.8359         62.0715         42.9465         14.9386
           30383         60.0736         60.6686         42.7257         15.2182
           30384         83.1380         95.7850         52.3036         1.94824
           30385         76.1562         50.9017         86.9374         5.03096
           30386         75.7709         47.8982         87.1010         3.28613
           30387         75.5163         48.1305         86.7021         3.73839
           30388         74.0693         85.2372         36.5241    -174.967E-03
           30389         74.4726         85.6446         36.1322    -237.442E-03
           30390         83.5560         95.5720         36.3368    -59.9795E-03
           30391         83.0454         95.1024         36.9160     168.792E-03
           30392         83.5027         95.5750         36.7587     212.352E-03
           30393         60.2396         65.2868         51.9710         4.41508
           30394         60.3007         65.8266         51.4080         3.84124
           30395         60.6278         66.4427         50.9412         4.11345
           30396         65.3401         72.6312         52.1045         4.60317
           30397         65.8407         73.6857         51.2510         4.28973
           30398         65.1013         72.5822         52.1053         3.50975
           30399         66.5873         75.5193         49.6223         2.29289
           30400         66.3148         74.7435         50.3980         3.56029
           30401         68.9139         53.7139         77.6984     357.680E-03
           30402         69.7270         53.0944         78.9525     654.692E-03
           30403         70.5271         52.3957         80.1750     721.100E-03
           30404         71.2519         52.4296         81.0487         1.67601
           30405         68.7478         49.6581         78.4559    -570.501E-03
           30406         60.4394         55.7373         63.1757        -5.04479
           30407         60.5715         55.5242         63.1356        -5.92786
           30408         60.8593         54.9730         64.1801        -5.50500
           30409         62.8109         62.7316         61.1933        -5.89014
           30410         62.8301         62.0959         61.9348        -5.82225
           30411         62.8110         62.2567         62.1538        -5.02413
           30412         62.7861         62.8941         61.4060        -5.09277
           30413         64.0384         69.6967         54.5968         4.74997
           30414         59.6026         61.7452         55.4060         5.51433
           30415         73.2488         51.0038         83.8451        -1.86309
           30416         72.2073         51.5232         82.4743        -1.48198
           30417         71.1930         51.9544         81.1262    -927.032E-03
           30418         70.2859         52.4488         79.8546    -500.482E-03
           30419         79.5987         91.5947         40.0182         1.85824
           30420         80.1494         92.1871         39.6666         1.70963
           30421         79.9139         91.9318         39.4844         1.36919
           30422         71.5458         82.5077         40.3629         2.03043
           30423         71.6512         82.6651         39.7356         1.43894
           30424         70.9103         81.7854         40.5711         1.95964
           30425         62.3313         69.1816         49.0711         5.35237
           30426         75.2255         86.5627         37.0590    -330.355E-03
           30427         64.7369         71.0210         53.3814         5.43184
           30428         77.9045         89.7249         41.1349        -2.40119
           30429         69.3214         79.8473         41.8591        -2.58337
           30430         69.3973         80.0135         41.3812        -2.03934
           30431         79.7621         89.3412         47.2726         11.0880
           30432         79.4583         88.8803         46.9637         11.2911
           30433         79.7109         89.3086         47.5382         11.0073
           30434         59.8010         59.5393         41.9768        -16.0046
           30435         59.5325         59.6096         41.3781        -15.7607
           30436         68.5245         51.5210         77.5599        -2.68467
           30437         89.8310         103.372         50.2497        -4.21345
           30438         80.3974         92.2648         49.1416        -4.83400
           30439         80.7691         92.6886         49.8735        -4.75465
           30440         80.1036         91.8329         49.0931        -5.21330
           30441         81.4385         93.5316         50.7835        -4.28029
           30442         55.9377         53.4940         41.7221        -15.9014
           30443         55.8708         52.3756         42.6213        -16.2694
           30444         56.0556         54.6700         40.9818        -15.4315
           30445         68.4294         48.4823         78.0075        -3.10172
           30446         73.0914         81.0035         47.7691         11.0810
           30447         72.7464         80.4646         47.4705         11.3098
           30448         73.0867         81.0113         48.0224         11.0007
           30449         63.3041         53.1558         70.0255    -432.796E-03
           30450         64.6421         59.0096         69.0893    -140.754E-03
           30451         60.3371         56.3048         61.4617         7.15037
           30452         80.2561         48.6138         92.0253         5.25303
           30453         75.4305         86.9014         42.6799        -2.90265
           30454         76.6799         88.3281         41.9758        -2.80627
           30455         76.2393         87.7628         42.5237        -3.35921
           30456         75.0636         86.3993         43.1732        -3.45973
           30457         74.3522         85.6160         43.4285        -3.17808
           30458         68.0154         78.1717         42.9291        -3.06700
           30459         67.3441         77.3388         43.3329        -3.02843
           30460         66.2233         74.0408         51.0208         5.09856
           30461         82.6852         93.5635         47.3487         9.50320
           30462         82.1263         92.7573         47.3600         9.84608
           30463         54.6131         51.3429         41.4520        -15.8798
           30464         55.3650         51.9656         42.2376        -16.0805
           30465         55.7333         52.7964         41.9427        -16.0621
           30466         86.4552         98.8398         48.2713        -6.98076
           30467         86.2482         98.5908         47.7153        -6.97989
           30468         86.8038         99.3409         48.0304        -6.60161
           30469         71.6277         51.1775         81.8544     343.391E-03
           30470         70.8091         51.6772         80.7111     95.1615E-03
           30471         70.3376         51.4962         80.1278    -666.722E-03
           30472         69.0677         51.8113         78.3251        -1.75470
           30473         79.0063         90.1921         48.9613        -6.48334
           30474         78.8091         89.9909         48.5055        -6.44931
           30475         79.1606         90.4763         48.7532        -6.17983
           30476         71.8092         48.2986         82.5183    -137.387E-03
           30477         71.0146         48.6090         81.4953    -227.408E-03
           30478         70.3497         48.5663         80.6477        -1.01806
           30479         68.9622         48.6980         78.7775        -2.21368
           30480         75.2102         84.3715         48.2181         9.68290
           30481         75.7953         85.2516         48.5023         9.30093
           30482         75.5111         84.8516         48.2052         9.46380
           30483         69.9742         48.8299         80.1449     875.515E-03
           30484         69.0903         49.3947         78.9385     703.133E-03
           30485         68.8310         49.8031         78.5429     125.794E-03
           30486         69.6369         49.4899         79.6289    -193.311E-03
           30487         68.3182         49.7062         77.8738         1.02476
           30488         69.9016         52.2821         79.3956     192.500E-03
           30489         69.3297         51.9515         78.6770         1.28771
           30490         51.5636         43.7404         43.6627        -15.8005
           30491         51.4375         44.1478         42.9176        -15.8071
           30492         74.9989         86.2898         36.8027    -230.050E-03
           30493         84.2020         96.3580         36.9608    -395.490E-03
           30494         84.3464         96.5529         37.2451    -504.707E-03
           30495         64.1481         51.8036         71.4368         3.10028
           30496         68.1866         55.6070         75.9676        -1.87328
           30497         60.0391         63.8932         53.3055        -5.37690
           30498         59.9700         63.3753         53.8106        -5.61694
           30499         59.7981         63.5884         53.5688        -4.79820
           30500         60.6593         63.1579         53.8719        -7.97694
           30501         60.9120         63.3472         53.6124        -8.55021
           30502         60.7903         62.6694         54.1806        -8.71661
           30503         65.9647         73.4604         51.4398        -5.40493
           30504         66.0834         71.9490         52.1334        -8.62965
           30505         65.6428         70.9539         52.8009        -8.81326
           30506         87.9678         100.902         48.7582         5.76145
           30507         88.2076         101.185         49.6819         5.79958
           30508         57.4457         57.1306         40.1806         15.4613
           30509         69.5801         48.0535         79.5933         2.70142
           30510         69.2709         48.2069         79.1800         2.71435
           30511         69.9758         48.1069         80.1387         2.26162
           30512         68.7889         47.9366         78.4720         3.55068
           30513         68.8157         48.1971         78.5350         3.16510
           30514         69.1441         48.0334         78.9857         3.10457
           30515         53.1889         44.4010         48.2553        -14.9624
           30516         53.7072         45.3936         48.0152        -15.2535
           30517         52.9619         44.8257         47.0653        -15.1680
           30518         53.5095         44.4314         49.0298        -14.8734
           30519         82.4868         93.2504         47.9775        -9.66979
           30520         81.7722         92.2294         47.7214        -10.0733
           30521         82.0422         92.6160         47.6209        -9.93152
           30522         74.7556         83.6347         48.2151        -10.0232
           30523         74.2775         82.9258         47.8302        -10.3132
           30524         52.0739         41.7429         47.2942        -15.3480
           30525         51.7792         41.8219         46.5206        -15.4210
           30526         52.4810         41.6583         48.3045        -15.2512
           30527         53.6064         48.8253         41.9851         16.0926
           30528         70.0661         51.3834         79.7787         1.10513
           30529         61.4364         66.8636         50.8847        -6.23870
           30530         66.4266         74.2912         50.8309        -5.34838
           30531         66.5771         74.7579         50.4774        -4.80911
           30532         67.0522         75.1702         50.2086        -5.73660
           30533         67.5931         76.6890         48.9916        -3.85416
           30534         66.8404         75.4165         49.9408        -4.17413
           30535         53.6217         48.2611         42.6107        -16.1958
           30536         72.7213         83.6170         44.6062        -3.49794
           30537         65.5193         75.0520         44.3989        -2.64238
           30538         65.4735         74.8628         44.7454        -3.16021
           30539         63.8604         58.7630         67.5758        -3.13759
           30540         60.2677         55.9759         63.0815        -4.10971
           30541         85.0548         96.9190         34.7080    -284.064E-03
           30542         85.0992         96.9907         34.8430    -179.479E-03
           30543         75.9995         87.1361         34.5530    -210.822E-03
           30544         84.9633         96.9132         35.2428    -112.400E-03
           30545         84.9887         96.9507         35.3043    -79.9608E-03
           30546         85.0250         96.9520         35.0814    -136.535E-03
           30547         66.2225         71.6811         45.3346         12.1334
           30548         89.1091         44.1574         102.492        -1.97409
           30549         88.8086         44.3320         102.120        -2.60394
           30550         88.3326         44.6378         101.564        -3.08022
           30551         88.8130         44.2892         102.080        -2.99585
           30552         69.8688         77.1926         47.8820         10.4306
           30553         69.5740         76.4261         47.2982         11.2143
           30554         58.3001         43.0657         62.6162         10.3290
           30555         58.8606         43.8409         63.0097         10.5630
           30556         56.1709         41.6237         59.6011         10.8192
           30557         56.8579         42.4849         60.0545         11.1463
           30558         66.8257         47.6562         75.3890        -5.88252
           30559         66.2072         47.9645         74.3139        -6.44655
           30560         92.7586         107.062         55.1288        -1.28086
           30561         92.8070         107.024         56.7408        -2.01299
           30562         92.5012         106.713         55.2465        -2.01140
           30563         66.6926         45.7589         75.4219        -6.23931
           30564         66.0285         45.8041         74.3355        -6.85214
           30565         84.7792         97.2787         57.5442        -1.90218
           30566         84.6518         97.2254         56.8144        -1.73963
           30567         84.9925         97.5541         57.6935        -1.48629
           30568         85.7915         98.2570         59.9317    -938.050E-03
           30569         85.3645         97.9249         58.5405        -1.06449
           30570         62.7809         66.8256         43.3333        -12.8294
           30571         63.9901         44.8847         71.1868        -8.32147
           30572         65.7329         70.8383         42.0607        -13.0787
           30573         88.2587         44.2194         101.464        -2.93949
           30574         88.7641         43.8654         102.008        -2.81854
           30575         88.7534         43.9958         102.042        -2.47478
           30576         75.9388         84.9526         47.6226         10.4483
           30577         75.6036         84.2218         47.0509         11.1282
           30578         89.0590         43.9248         102.422        -1.88500
           30579         88.6570         44.3425         102.031        -1.60765
           30580         59.2717         41.7741         64.3817         10.2070
           30581         59.4388         42.1485         64.2692         10.5640
           30582         70.0884         80.3994         46.3334         2.98397
           30583         59.2201         62.4461         41.1063         12.7109
           30584         59.9311         58.0663         59.3147        -6.97608
           30585         60.0987         57.8462         59.3355        -7.68756
           30586         60.1099         57.2640         60.2260        -7.20282
           30587         62.8182         63.4850         60.5161        -5.64086
           30588         72.7002         51.7299         82.9725         2.38486
           30589         72.1695         52.2527         82.1789         2.50298
           30590         63.0229         65.4107         58.4730         5.74449
           30591         63.0322         66.0548         58.0176         5.03716
           30592         59.7051         58.4209         59.1092         6.08325
           30593         59.7811         57.3882         60.6581         5.22929
           30594         59.8950         57.5842         60.1811         6.19650
           30595         59.9538         59.1471         57.9215         7.46254
           30596         51.0633         44.7683         41.5511        -15.6730
           30597         49.4492         41.8217         41.8110         15.2383
           30598         50.4533         42.9819         42.3725         15.5339
           30599         50.6700         42.6589         43.1753         15.5496
           30600         52.0198         43.6774         44.6590         15.8588
           30601         80.3149         92.3096         38.4579     384.368E-03
           30602         76.6071         88.2577         41.9388         2.69474
           30603         76.0232         87.5558         42.4654         3.07053
           30604         77.0424         88.6904         42.0493         3.20310
           30605         77.6648         89.4107         41.6176         2.97666
           30606         68.9612         79.2719         42.6152         3.35380
           30607         71.5457         82.5466         38.3886     61.6754E-03
           30608         63.7875         68.7494         55.3614         5.27724
           30609         63.3561         67.3875         56.6536         5.19718
           30610         64.3296         70.1392         54.1137         5.35382
           30611         75.5441         84.8420         48.5650        -9.49635
           30612         51.5042         42.2742         45.3430        -15.5608
           30613         51.5476         42.8928         44.6540        -15.6920
           30614         88.0268         100.925         50.0299         6.03032
           30615         85.4907         97.4986         48.1421         7.72031
           30616         70.3803         48.1737         80.6850         1.78068
           30617         51.1997         45.6910         41.7420        -15.2598
           30618         50.6415         44.6873         41.9097        -15.0999
           30619         49.4631         43.7205         40.7605        -14.7847
           30620         70.9926         51.1042         81.0554     448.018E-03
           30621         83.2841         94.3772         48.3241        -9.21334
           30622         84.2720         95.7720         48.2937        -8.60995
           30623         84.5734         96.2095         48.0431        -8.37566
           30624         85.1119         96.9442         48.5314        -8.07029
           30625         77.1292         88.8900         41.3004        -2.07822
           30626         68.9331         79.5411         41.0670        -1.29122
           30627         53.1431         41.3697         50.2341         14.9157
           30628         54.9446         44.0072         50.9393         15.5902
           30629         59.9028         58.9647         42.9153        -16.3327
           30630         88.4634         101.647         47.5456        -4.69022
           30631         79.9722         91.7687         48.4068        -4.93526
           30632         55.1025         50.9938         42.5803        -16.2703
           30633         56.7665         48.1259         52.0596         15.2921
           30634         56.6812         47.0535         53.4708         14.7828
           30635         60.1682         56.9390         60.7213         7.03535
           30636         62.8949         63.5209         59.9525         6.70317
           30637         85.8451         98.3811         59.6893    -91.8075E-03
           30638         86.1527         98.5997         60.7389    -16.7637E-03
           30639         64.0828         69.3445         44.1760        -11.6875
           30640         63.6472         68.1506         43.8172        -12.5524
           30641         64.5519         69.4882         44.3973        -12.2788
           30642         63.6738         69.2726         44.0730        -11.0496
           30643         62.2022         67.8075         43.1923        -10.5585
           30644         61.7903         43.2449         68.1736        -9.10015
           30645         61.6452         43.5135         67.6163        -9.60837
           30646         61.4249         44.3872         67.8281         8.42303
           30647         61.7040         44.2610         68.5303         7.85641
           30648         89.3086         43.9698         102.768    -240.733E-03
           30649         61.4828         43.0066         67.7838         9.14826
           30650         61.4455         43.3188         67.3778         9.62607
           30651         70.9374         77.9698         44.7059         12.1094
           30652         70.2033         77.2077         44.3814         11.8933
           30653         70.7010         78.1539         44.7834         11.3290
           30654         69.0267         75.9919         43.8148        -11.5435
           30655         68.7029         74.7412         43.5322        -12.8120
           30656         69.7534         76.4222         44.1197        -12.2524
           30657         64.2858         69.5004         44.3018         11.8139
           30658         65.3529         70.4874         44.8504         12.2794
           30659         64.3932         69.1718         44.2640         12.4400
           30660         89.3076         44.0019         102.770    -199.842E-03
           30661         88.9621         44.3191         102.416    -25.2077E-03
           30662         61.9046         45.2442         68.0395        -8.83481
           30663         61.7560         45.6907         67.4102        -9.34601
           30664         93.1212         107.500         55.7846    -307.901E-03
           30665         93.4235         107.818         56.9779    -108.129E-03
           30666         93.6435         108.032         57.9523    -338.885E-03
           30667         68.6833         77.6175         48.5957         5.86692
           30668         68.1263         76.6442         49.2372         6.22642
           30669         60.7496         66.1820         51.2763         4.99203
           30670         61.1618         66.9447         50.7122         5.23956
           30671         62.1782         68.6328         49.5327         5.82384
           30672         62.7709         69.6829         48.8124         5.86543
           30673         65.2462         46.8891         72.8580         7.44820
           30674         58.7563         45.6075         60.8707        -12.1542
           30675         75.1828         82.9693         46.2529        -12.4738
           30676         74.7325         82.3880         46.1260        -12.5138
           30677         74.3679         81.7187         45.9235        -12.8644
           30678         74.8080         82.2956         46.0548        -12.8157
           30679         75.6728         83.5536         46.3415        -12.5119
           30680         82.8179         95.4636         51.3879         1.86695
           30681         64.8427         49.6658         71.5031         7.66926
           30682         64.3251         48.7084         70.7875         8.21154
           30683         64.1410         49.4158         70.2233         8.38606
           30684         71.0862         80.8575         46.7336         6.05642
           30685         70.1678         79.6058         47.4348         6.12261
           30686         70.6806         80.1081         47.2209         6.61836
           30687         71.3865         81.7142         45.9644         4.54771
           30688         71.4946         81.5412         46.3005         5.60245
           30689         71.9084         82.2321         45.8040         5.07458
           30690         63.4652         70.8989         48.0091         5.77636
           30691         64.1061         71.6813         47.6456         6.23382
           30692         64.2179         72.1750         47.1869         5.59231
           30693         61.1056         54.6151         65.0032         5.02753
           30694         62.9875         60.8192         63.9223         4.83354
           30695         63.3090         59.5527         65.6729         4.45611
           30696         63.0856         60.0401         64.5179         5.35661
           30697         69.3312         78.5095         48.0507         5.96205
           30698         84.2920         96.4102         36.6400    -252.351E-03
           30699         78.7486         89.7125         49.3872        -6.94183
           30700         78.2390         88.9980         49.0171        -7.31312
           30701         78.0491         88.8234         48.4580        -7.25923
           30702         78.5587         89.5384         48.8150        -6.88637
           30703         77.2584         87.5386         48.6619        -8.11712
           30704         72.2807         48.7018         82.9970         1.44095
           30705         70.9438         49.0147         81.3395     657.781E-03
           30706         71.6100         48.7366         82.2038     730.988E-03
           30707         74.7166         47.9357         86.0025         1.90619
           30708         76.0317         47.7318         87.4837         2.87748
           30709         49.4337         45.8474         38.0376         14.5919
           30710         50.3275         45.2238         40.5577        -15.0212
           30711         51.9397         46.7899         41.7904        -15.4636
           30712         51.6896         45.5629         42.9871         15.3467
           30713         76.3990         86.1574         48.7952         8.88479
           30714         76.7272         86.6801         48.7655         8.61301
           30715         77.3287         87.6005         48.8959         8.13185
           30716         85.2669         97.1728         48.2943        -7.92543
           30717         66.0026         47.7358         74.1543        -6.28745
           30718         57.2258         46.8796         55.2819         14.2899
           30719         77.5791         86.1685         46.7208         12.0628
           30720         77.5271         86.1702         46.8841         11.9311
           30721         71.3571         78.2454         47.2646         12.0248
           30722         71.4030         78.3934         47.4314         11.8524
           30723         66.8596         50.1075         75.0267        -5.47238
           30724         76.5002         88.0394         42.4642         3.49526
           30725         67.0157         76.8181         43.8253         3.46470
           30726         66.7983         76.3678         44.3634         4.07427
           30727         67.2018         76.9384         43.9889         3.91507
           30728         64.3500         51.4970         71.7627        -3.39853
           30729         89.9849         43.4698         103.305         2.96523
           30730         52.7266         44.9455         44.5720        -16.0898
           30731         72.6141         79.6180         45.3497        -12.7520
           30732         73.0123         79.9461         45.4477        -13.0037
           30733         73.7794         81.1194         45.7816        -12.6606
           30734         73.3829         80.7905         45.6901        -12.4056
           30735         73.5232         80.5171         45.6349        -13.0958
           30736         73.9332         80.9993         45.7535        -13.1384
           30737         73.9618         81.2424         45.7985        -12.8232
           30738         59.2900         45.0384         62.7095        -11.2354
           30739         63.8802         47.6549         70.3572         8.41461
           30740         63.3061         44.9507         69.8790         9.03949
           30741         63.5386         45.6801         70.0047         9.08558
           30742         63.7279         46.4432         70.1369         8.99026
           30743         63.2314         46.0747         69.2870         9.43443
           30744         92.2661         106.514         53.1278         1.17371
           30745         91.9489         106.142         52.0279         1.14146
           30746         91.7595         105.902         51.7244         1.50862
           30747         67.0917         71.4924         43.1142         14.3019
           30748         67.8335         72.8574         43.2929         13.8216
           30749         65.2466         67.8705         43.2457         15.4448
           30750         61.5761         63.4460         43.1181         14.6369
           30751         61.9106         64.7616         42.9561         13.8509
           30752         62.3298         64.8022         43.4072         14.3107
           30753         61.9928         63.5241         43.6420         15.0054
           30754         58.8744         43.4593         61.5378        -12.4495
           30755         59.3037         42.8792         63.1378        -11.5358
           30756         58.5225         44.2258         59.8746        -13.3165
           30757         59.1055         44.2668         61.2809        -12.7968
           30758         66.9632         72.2824         45.6666        -12.5802
           30759         66.3706         48.4457         74.4661        -6.33582
           30760         65.7243         48.5644         73.3574        -6.89027
           30761         92.1645         106.320         54.2973        -2.23878
           30762         92.4601         106.695         54.6242        -1.77329
           30763         89.3822         43.8720         102.621        -3.44069
           30764         69.9800         76.7990         47.3449         11.4547
           30765         69.4427         75.8368         46.9096         11.9447
           30766         64.1743         68.1499         41.5157        -13.9004
           30767         64.4364         68.9181         41.4676        -13.4245
           30768         65.5081         70.1102         42.0722        -13.6075
           30769         57.3474         43.0294         60.5250         11.2291
           30770         58.0175         43.2482         61.8003         10.7873
           30771         58.5906         44.0062         62.2009         11.0240
           30772         76.0175         84.6168         47.0544         11.3451
           30773         74.8885         83.1045         46.5672         11.5955
           30774         55.7206         40.0539         58.3544         12.0077
           30775         56.2301         40.7013         58.6312         12.3014
           30776         56.6444         40.7813         59.5442         11.9478
           30777         57.1439         41.5201         59.7076         12.3230
           30778         66.1620         46.1405         74.4773        -6.78285
           30779         65.4839         46.1164         73.3643        -7.35730
           30780         84.1806         96.7842         55.4410        -1.94125
           30781         84.4908         97.1163         56.1187        -1.61726
           30782         84.9193         97.5459         57.1539        -1.24308
           30783         84.5166         97.1852         55.9262        -1.35880
           30784         58.3393         60.3409         40.8271        -13.6522
           30785         57.1369         58.9289         40.0578        -13.5147
           30786         62.3754         53.2119         68.0737         3.97875
           30787         61.8689         53.7046         66.9850         4.24213
           30788         61.9501         53.7858         67.3068         3.40826
           30789         61.4021         54.1488         65.7064         5.12270
           30790         61.0013         54.6904         64.4690         5.76499
           30791         63.9682         58.9471         67.7903         2.42812
           30792         75.3555         82.7995         46.1027        -13.0960
           30793         76.0994         83.9230         46.2919        -12.7810
           30794         76.0649         83.9415         46.3223        -12.6795
           30795         75.1869         82.7966         46.1635        -12.7660
           30796         74.4451         81.6695         45.9059        -13.0885
           30797         59.4886         48.3837         59.7127        -13.1837
           30798         63.9042         65.8558         42.8693         15.6223
           30799         81.5843         94.0448         48.9914         2.50311
           30800         81.6147         94.0183         49.4272         2.91717
           30801         65.0993         50.5839         71.8088         7.18916
           30802         59.7193         59.2839         43.2055         15.7744
           30803         69.1607         74.5655         46.5509        -13.2576
           30804         69.8006         75.6381         46.7514        -12.9293
           30805         69.7366         75.6520         46.7327        -12.7991
           30806         69.7621         75.8356         46.8157        -12.5738
           30807         72.0112         82.0312         46.1445         6.12264
           30808         70.5287         79.7171         47.4873         7.07093
           30809         64.9694         73.4175         46.3966         5.30929
           30810         64.6185         71.9335         47.7109         7.22976
           30811         91.8531         105.919         54.0434        -2.68415
           30812         91.8345         105.925         53.4243        -2.47210
           30813         67.1555         48.7258         75.6753        -5.66393
           30814         66.4817         48.8510         74.5694        -6.20744
           30815         70.8546         78.0564         47.8089         11.1605
           30816         77.0669         86.0433         47.5488         11.0488
           30817         76.3906         84.9910         47.0486         11.5065
           30818         66.9644         46.4464         75.7025        -6.11552
           30819         66.2564         46.4095         74.5895        -6.68673
           30820         83.5654         96.0768         54.3567        -2.59433
           30821         83.8604         96.4574         54.6383        -2.11801
           30822         56.5986         58.6586         39.5802        -13.1364
           30823         60.9227         54.8136         63.9279         6.43913
           30824         62.9777         59.8031         63.8077         6.68975
           30825         67.1935         54.4274         75.0491         1.28898
           30826         67.5062         54.6837         75.4427     470.210E-03
           30827         68.2002         54.2023         76.5769     24.7971E-03
           30828         66.8941         55.1322         74.3928     897.791E-03
           30829         66.4032         50.4590         75.0939         2.10891
           30830         66.5102         50.1396         75.2499         2.58647
           30831         65.7100         50.3927         73.9840         3.31623
           30832         65.5964         50.7151         73.8317         2.83588
           30833         66.2255         50.7942         74.8221         1.62797
           30834         65.5176         51.0030         73.7185         2.35888
           30835         73.3500         84.1251         44.7331        -4.66626
           30836         73.1672         84.0793         44.4949        -3.89066
           30837         73.7440         84.7111         44.2781        -4.18320
           30838         75.8606         87.0649         35.1915    -100.626E-03
           30839         84.9120         96.9102         35.5576    -43.7853E-03
           30840         84.9918         96.9834         35.4817    -33.7005E-03
           30841         68.6801         78.9824         42.5853        -3.09341
           30842         69.3074         79.7260         42.3158        -3.17920
           30843         80.9060         90.9884         47.2546         10.5437
           30844         81.5508         91.9290         47.2805         10.1749
           30845         87.5770         100.413         47.9518        -5.84878
           30846         87.1195         99.7966         47.7795        -6.21269
           30847         86.8572         99.4796         47.2139        -6.20882
           30848         67.7527         49.7124         77.0848        -1.74292
           30849         74.4013         83.2386         47.4962         10.0749
           30850         74.0660         82.6021         47.7279         10.4424
           30851         74.6602         83.5629         47.8030         10.0138
           30852         75.7598         87.1435         36.9416    -185.369E-03
           30853         84.9832         97.2285         37.1257    -197.293E-03
           30854         84.9705         97.1531         36.7055    -75.5129E-03
           30855         85.0845         97.3857         37.4525    -132.264E-03
           30856         84.8677         97.0815         36.9758    -242.936E-03
           30857         84.7272         96.9457         37.0930    -339.664E-03
           30858         89.9830         43.4211         103.459     221.677E-03
           30859         90.2902         103.975         50.6676         3.76317
           30860         59.3561         58.5436         42.2786         16.1601
           30861         56.1232         53.7893         41.4771         15.9917
           30862         88.1476         101.158         48.5975         5.51939
           30863         87.6411         100.483         48.2205         5.89332
           30864         67.2863         47.6612         76.2160         5.14831
           30865         66.7173         48.8647         75.4515         4.37521
           30866         66.0346         48.9340         74.3257         5.12442
           30867         65.8173         49.3201         74.0191         4.87354
           30868         66.5034         49.2455         75.1489         4.12171
           30869         57.0893         48.6166         52.2317        -15.3492
           30870         57.5709         49.6552         52.0330        -15.5461
           30871         56.9563         49.3053         50.6961        -15.7322
           30872         54.4878         46.6040         48.1651        -15.5112
           30873         54.3820         45.5828         49.4740        -15.1338
           30874         81.2548         91.4894         47.5032        -10.3524
           30875         81.4056         91.7214         47.2253        -10.2535
           30876         79.2025         88.5261         46.6270        -11.3987
           30877         79.1909         88.4893         46.8330        -11.4270
           30878         52.7764         42.7429         47.4900        -15.6307
           30879         53.4092         43.7170         47.6470        -15.8547
           30880         52.1876         42.6933         46.2518        -15.6657
           30881         53.6647         41.3642         51.4905        -14.6912
           30882         54.0923         41.3035         52.5963        -14.4458
           30883         55.3985         44.6400         51.2113        -15.7028
           30884         56.4255         45.6204         52.5632        -15.6810
           30885         72.2221         79.7011         47.8034        -11.3810
           30886         71.9505         79.1938         47.1619        -11.7742
           30887         56.4579         52.7189         43.3768         16.4666
           30888         57.1891         53.6501         43.8687         16.5465
           30889         57.1854         53.0884         44.4824         16.6794
           30890         56.4647         52.1618         44.0013         16.5980
           30891         80.9094         92.9403         49.6302         4.39398
           30892         81.3285         93.4672         50.1943         4.09298
           30893         80.5391         92.4762         49.1437         4.62678
           30894         66.7002         52.1665         74.5764         4.33292
           30895         66.9718         52.5010         75.0085         3.67956
           30896         79.0719         90.4021         48.4545         6.12023
           30897         62.9859         69.5439         49.0588        -6.72910
           30898         62.7643         69.8221         48.6822        -5.57876
           30899         69.3115         78.1369         48.3550        -6.80231
           30900         69.0731         78.2986         48.1537        -5.53810
           30901         53.6162         43.0533         49.0219         15.5833
           30902         63.0138         60.7403         64.0957        -4.70076
           30903         60.9453         54.7637         64.0663        -6.30547
           30904         74.2169         85.4369         36.9308     140.127E-03
           30905         74.7926         85.9602         35.7843    -307.154E-03
           30906         74.5637         85.7803         36.4837    -17.0923E-03
           30907         74.8803         86.0953         36.1385    -86.0511E-03
           30908         72.1043         83.1545         37.9682     9.67509E-03
           30909         82.5293         94.6190         37.5175     464.281E-03
           30910         60.2406         57.5420         59.4067        -8.30808
           30911         60.3062         58.0769         58.5846        -8.83500
           30912         63.2930         66.7049         57.1953         5.78385
           30913         84.5679         97.3316         55.4940     106.038E-03
           30914         84.6816         97.4316         55.8642    -248.366E-03
           30915         64.9520         69.5986         44.5598        -12.7869
           30916         65.8181         70.9234         45.0865        -12.4739
           30917         61.9208         43.0171         68.7288        -8.49657
           30918         61.5558         43.9225         67.0834        -10.1031
           30919         61.4856         42.7390         68.1314         8.63773
           30920         61.3156         43.6411         66.8189         10.1051
           30921         70.8341         77.4600         44.5990         12.6884
           30922         69.4109         75.4705         43.8982         13.0133
           30923         69.9213         76.4693         44.1833         12.4891
           30924         70.3909         76.9023         44.3582        -12.7085
           30925         64.1495         69.8437         44.3548         11.0691
           30926         64.0605         70.1781         44.5234         10.3442
           30927         64.5486         68.8967         44.3589         13.0159
           30928         62.0410         44.8429         68.6504        -8.24233
           30929         61.6478         46.2639         66.7628        -9.85784
           30930         93.1572         107.540         55.9014     133.382E-03
           30931         92.8938         107.255         54.8882    -83.8461E-03
           30932         92.6262         106.953         53.9099     214.983E-03
           30933         67.5561         75.5370         49.9714         6.72160
           30934         68.1304         76.4101         49.3876         6.77805
           30935         62.2096         67.6580         50.3783         7.37001
           30936         62.0795         67.7719         50.2713         6.84631
           30937         84.4804         96.7226         37.4261    -551.540E-03
           30938         84.3477         96.5828         37.4617    -595.804E-03
           30939         84.4809         96.6944         37.2103    -462.265E-03
           30940         84.4217         96.6953         37.7147    -701.127E-03
           30941         84.2267         96.4943         37.8111    -787.714E-03
           30942         75.8342         85.3182         48.4587        -9.27011
           30943         75.6316         85.1163         47.9415        -9.26607
           30944         75.7888         85.4256         47.7729        -9.04055
           30945         75.1314         84.4125         47.6031        -9.51320
           30946         77.7945         88.3491         48.8227        -7.66385
           30947         85.7535         97.8992         47.7378         7.39380
           30948         85.2235         97.1685         47.5700         7.76178
           30949         54.8421         51.5105         41.7256         15.9437
           30950         53.5477         48.2242         43.3699         15.8357
           30951         54.6822         49.5386         44.1173         16.0752
           30952         83.9991         95.4211         47.6986         8.69794
           30953         48.9848         44.7807         38.4708         14.5711
           30954         48.1889         42.7993         39.4161        -14.4192
           30955         78.2230         89.0376         48.7228         7.19698
           30956         78.3578         89.3025         48.4627         6.93324
           30957         77.5930         88.1279         48.4098         7.67878
           30958         76.7906         86.8275         48.5533         8.48757
           30959         77.2271         87.5311         48.4789         8.07340
           30960         85.3036         97.2612         47.7956        -7.77194
           30961         84.9082         96.7033         47.8208        -8.07207
           30962         83.8448         95.1638         48.3791        -8.89227
           30963         83.7305         95.0312         47.7552        -8.89824
           30964         83.2352         94.3613         47.3476        -9.12904
           30965         83.6025         94.9017         47.2364        -8.84282
           30966         84.1040         95.5755         47.6437        -8.61100
           30967         81.8829         94.2839         50.1988        -3.07542
           30968         81.4145         93.7687         49.1572        -3.09438
           30969         82.2591         94.6843         51.1411        -3.07049
           30970         59.1163         58.0789         43.1850        -15.9663
           30971         59.5270         58.1071         43.9272        -16.2267
           30972         58.7012         58.1579         42.4647        -15.5980
           30973         57.0423         56.2268         41.3546        -15.3559
           30974         65.4837         47.7285         73.2570        -6.83040
           30975         64.7650         47.5801         71.9667        -7.65115
           30976         65.4090         47.3956         73.1253        -7.08292
           30977         79.7432         91.4102         48.4897        -5.30287
           30978         79.8367         91.4341         49.0785        -5.55131
           30979         54.3657         49.6259         42.5742        -16.2595
           30980         67.5893         48.7988         76.7979        -3.49840
           30981         66.8254         49.2686         75.6641        -3.69927
           30982         66.7967         49.7702         75.6663        -2.90193
           30983         55.8694         47.3741         50.6729         15.3832
           30984         58.0466         47.3985         56.8608         13.9614
           30985         80.3301         90.1520         47.1576         10.8482
           30986         53.8530         42.6812         50.0975         15.3506
           30987         57.5822         45.5913         55.7913         14.9228
           30988         56.8704         44.4413         55.3278         14.7974
           30989         56.9916         45.1210         54.7792         15.0894
           30990         56.1699         43.2537         55.0674         14.5331
           30991         55.4034         42.0208         54.7990         14.1840
           30992         76.6562         84.9968         46.7152         12.1112
           30993         70.7376         77.2237         47.0654         12.3790
           30994         70.6741         77.0638         46.9474         12.5151
           30995         70.1827         76.4441         46.9513         12.4718
           30996         70.8034         77.4590         47.1875         12.1334
           30997         73.5159         81.7109         47.6425         10.8170
           30998         62.7233         63.5699         43.1368        -16.0675
           30999         62.8196         64.4106         42.3607        -15.6165
           31000         62.0614         63.7253         41.7274        -15.3690
           31001         63.5045         65.7512         42.2682        -15.2991
           31002         62.7506         65.0659         41.6380        -15.0506
           31003         57.9333         56.2176         42.2148        -16.1965
           31004         58.5027         56.6045         42.9589        -16.3778
           31005         59.1762         57.7366         42.9399        -16.3675
           31006         59.6446         57.9942         43.6898        -16.5238
           31007         65.8581         50.8151         73.2072        -6.21453
           31008         66.3696         50.4089         74.1628        -5.83683
           31009         66.6629         49.7119         74.7425        -5.82583
           31010         90.5989         104.413         50.1242        -3.01840
           31011         90.0198         103.681         48.9564        -3.31372
           31012         90.3646         104.131         49.2909        -2.92162
           31013         91.1131         105.057         51.2614        -2.71909
           31014         90.8255         104.683         50.9655        -3.08523
           31015         88.0400         101.035         48.1585        -5.45797
           31016         88.1206         101.183         47.5445        -5.07910
           31017         67.7439         52.1029         76.3056        -3.04000
           31018         67.0546         52.8739         75.1015        -3.23238
           31019         66.9957         53.6737         74.8911        -2.48722
           31020         70.6486         48.8423         81.0075    -101.794E-03
           31021         60.2757         59.6719         56.9818         8.67387
           31022         63.4796         66.5802         56.9153         6.99561
           31023         63.2068         66.0501         57.6767         6.20287
           31024         77.0623         47.4968         88.6559         3.34920
           31025         77.9803         47.2916         89.6592         3.90718
           31026         71.4526         82.2494         41.5433        -3.24451
           31027         71.0163         81.7415         41.6764        -3.23560
           31028         70.9830         81.7646         41.3344        -2.84538
           31029         76.9786         88.5195         42.5039         3.90930
           31030         75.5928         86.7261         34.8320    -382.095E-03
           31031         84.8318         96.7262         34.9756    -291.927E-03
           31032         84.9479         96.8514         34.9776    -218.942E-03
           31033         84.2941         97.0715         54.6981    -347.253E-03
           31034         73.7138         81.5853         46.0590         11.7455
           31035         61.1210         46.1489         65.7412         10.2961
           31036         53.2963         47.8072         42.4712         16.1410
           31037         52.0441         46.3482         41.6807         15.8638
           31038         72.4527         82.7318         45.7113         5.68896
           31039         75.6744         86.8338         43.6093         4.88163
           31040         76.5014         87.7917         43.2510         4.88199
           31041         65.6143         74.2285         46.0461         5.56935
           31042         68.9479         79.1033         43.1062         4.00745
           31043         68.1993         78.0625         43.7535         4.41696
           31044         68.8264         78.8061         43.5400         4.55231
           31045         84.6028         96.5457         35.3622    -217.744E-03
           31046         84.8464         96.8593         35.6774    -24.4132E-03
           31047         84.8880         96.8578         35.3950    -94.0760E-03
           31048         75.5433         86.7226         35.2358    -229.240E-03
           31049         75.4990         86.7327         35.7399    -83.5614E-03
           31050         75.6750         86.9089         35.5915    -65.4684E-03
           31051         75.6801         86.9612         36.0110     19.8293E-03
           31052         75.8611         87.1150         35.6121    -17.5963E-03
           31053         77.4527         88.9966         42.5214         4.27052
           31054         77.9016         89.4431         42.5887         4.62105
           31055         78.4098         90.0650         42.2337         4.33888
           31056         69.7405         80.0474         42.8167         4.09217
           31057         60.6091         63.4509         53.6764         7.57417
           31058         60.5213         64.0082         53.2248         6.82464
           31059         62.5707         52.7188         68.2794         4.94494
           31060         62.1310         53.2010         67.3695         5.01293
           31061         67.5754         49.8548         76.8280         1.69677
           31062         66.6099         49.8042         75.3784         3.09184
           31063         69.4666         52.9732         78.6492    -141.330E-03
           31064         68.9819         53.7179         77.7869    -462.901E-03
           31065         83.8889         95.9813         36.6819     228.041E-03
           31066         83.8485         95.9949         37.1048     465.331E-03
           31067         82.5828         94.7144         37.8710     778.478E-03
           31068         81.9969         94.0692         37.7630     506.575E-03
           31069         68.8969         50.3980         78.4480        -1.45715
           31070         62.8688         61.2716         62.7967        -5.84523
           31071         62.9766         60.5006         63.7675        -5.69808
           31072         62.8977         61.5106         63.1267        -4.84955
           31073         90.6867         42.9223         104.163     968.355E-03
           31074         72.6299         83.7135         37.4885    -137.331E-03
           31075         81.3247         93.3754         38.1061     528.682E-03
           31076         80.7605         92.7946         38.4696     654.987E-03
           31077         76.7259         84.9490         46.5583        -12.3550
           31078         76.8594         85.0715         46.4680        -12.4369
           31079         58.0155         47.9543         56.0097        -14.3179
           31080         57.8752         48.3131         55.0839        -14.6336
           31081         62.5328         63.7550         42.5433         15.7910
           31082         62.1155         62.7155         42.9117         16.0719
           31083         64.9831         47.7664         72.3661         7.32576
           31084         64.7608         47.3247         71.9666         7.76611
           31085         81.2912         93.6049         49.0484         3.25548
           31086         65.6301         50.9018         72.7748         6.44240
           31087         65.8633         51.1889         73.1706         6.03476
           31088         59.0119         57.7978         43.2529         16.0305
           31089         58.7509         57.0756         43.4458         16.1886
           31090         57.0473         43.8679         56.5154        -14.3204
           31091         56.8286         43.2680         56.7441        -14.0557
           31092         57.2125         43.3478         57.5907        -13.8320
           31093         70.2954         76.5495         46.9457        -12.5351
           31094         70.4769         76.7768         46.9403        -12.5546
           31095         60.2316         56.9481         60.4324         7.62015
           31096         60.3970         56.3156         61.1695         7.73401
           31097         66.0788         75.6711         44.2924        -3.16918
           31098         65.3785         74.5133         45.2710        -3.91343
           31099         73.8264         85.0256         43.6660        -2.99998
           31100         73.1250         84.1720         44.1683        -3.12223
           31101         73.5705         84.6373         44.0680        -3.50971
           31102         75.8356         87.1457         36.1394     22.5903E-03
           31103         75.9127         87.1967         35.8337     2.62599E-03
           31104         75.7568         87.0908         36.4418     100.898E-03
           31105         75.7924         87.1760         36.9032     133.092E-03
           31106         75.8681         87.2298         36.6020     51.5521E-03
           31107         84.9259         96.9837         35.9209     24.0252E-03
           31108         84.8867         97.0042         36.3223     108.794E-03
           31109         84.7823         96.8315         35.9347     38.6554E-03
           31110         84.7446         96.8531         36.3349     125.586E-03
           31111         86.5940         99.0901         47.4931        -6.58721
           31112         79.4935         90.9437         48.9253        -5.89413
           31113         66.8747         54.3462         74.5687        -1.89347
           31114         66.5096         54.2019         73.9961        -2.64438
           31115         55.9813         53.0822         42.0885         16.1131
           31116         56.4084         53.0406         43.1136         16.2951
           31117         90.0284         103.654         49.8857         3.79279
           31118         69.4077         48.7374         79.3913         1.67679
           31119         57.5445         48.6776         53.5031        -15.0961
           31120         56.4223         47.4057         52.1999        -15.1208
           31121         78.9531         88.2666         47.4297        -11.2469
           31122         78.4670         87.4218         46.6321        -11.7843
           31123         74.1766         82.8697         47.4811        -10.2480
           31124         57.0295         54.0267         43.1778         16.3495
           31125         57.6400         54.8672         43.5089         16.3925
           31126         57.7822         54.4865         44.1813         16.5861
           31127         81.6912         93.9267         50.6543         3.79273
           31128         81.1545         93.3071         49.6183         3.98323
           31129         81.0283         93.1918         49.2052         3.88311
           31130         80.7142         92.7920         48.8375         4.12501
           31131         80.8427         92.9096         49.2490         4.22649
           31132         69.2575         78.8717         47.6532        -4.60126
           31133         62.7656         63.2400         61.2978        -4.44516
           31134         62.8177         62.4622         62.3931        -4.03511
           31135         75.3247         86.5351         35.6846    -140.786E-03
           31136         75.3331         86.5071         35.3646    -277.008E-03
           31137         75.1014         86.2711         35.5245    -297.298E-03
           31138         75.0916         86.2966         35.8443    -160.553E-03
           31139         84.3541         96.3238         35.6387    -169.845E-03
           31140         84.4067         96.4168         35.8663    -51.4343E-03
           31141         83.9783         96.0096         36.2160     18.4550E-03
           31142         84.0408         96.0088         35.7801    -228.591E-03
           31143         59.6499         59.7346         57.5219        -6.24934
           31144         59.5674         60.6023         56.6075        -5.82466
           31145         59.7925         58.9137         58.3851        -6.71257
           31146         60.5007         55.8372         62.0166        -7.28725
           31147         60.6998         55.2747         63.0195        -6.85816
           31148         63.5352         67.6597         56.2714        -5.76554
           31149         63.2860         66.7554         57.1675        -5.68471
           31150         62.9900         65.1851         58.7201        -5.72346
           31151         63.0744         65.1515         58.4460        -6.46964
           31152         80.2735         92.2994         38.9465     925.907E-03
           31153         72.4959         83.6178         39.2520         1.31127
           31154         60.3605         56.7352         60.3843         8.24958
           31155         60.3056         57.2620         59.6683         8.45091
           31156         63.0301         64.9005         58.7240         6.41415
           31157         71.8027         78.2883         44.9684        -13.2277
           31158         71.1643         77.6517         44.7178        -13.0039
           31159         61.5005         47.5756         65.5194        -10.6957
           31160         60.8738         47.2484         64.3466        -11.1505
           31161         61.5227         46.8548         66.0882        -10.3049
           31162         62.8130         47.1574         68.5531         9.21797
           31163         83.8467         96.6176         53.5283     777.810E-03
           31164         84.0191         96.8057         53.9035     387.585E-03
           31165         83.4594         96.2327         52.4267     669.342E-03
           31166         92.3978         106.681         53.2903     742.046E-03
           31167         92.3495         106.632         53.0051     444.628E-03
           31168         92.0375         106.262         51.9923     547.225E-03
           31169         92.0829         106.310         52.2744     848.880E-03
           31170         61.3831         44.7685         66.1057         10.8499
           31171         61.2171         43.9786         66.3263         10.5068
           31172         60.8566         44.3285         65.2896         11.1050
           31173         68.5542         73.4915         43.7283         14.1441
           31174         68.6153         74.1979         43.5526         13.3842
           31175         67.8276         72.2042         43.6265         14.5359
           31176         63.4019         66.0906         44.0499         14.4074
           31177         62.6866         64.8188         43.7887         14.7084
           31178         61.4079         44.8634         66.1008        -10.8689
           31179         60.8096         44.6090         64.9725        -11.3252
           31180         61.4314         44.3270         66.5256        -10.5223
           31181         66.1217         70.9604         45.1816        -12.9283
           31182         65.3108         69.6721         44.7871        -13.2392
           31183         65.5991         69.7018         44.9603        -13.6294
           31184         69.3033         75.2669         46.6587         12.5519
           31185         69.4852         75.4014         46.7000         12.6909
           31186         91.3715         105.389         51.5954        -2.41379
           31187         91.4902         105.559         51.3312        -1.94372
           31188         65.8954         49.0845         73.5394        -6.69621
           31189         65.1607         48.8157         72.3089        -7.39760
           31190         64.6419         49.1137         71.2731        -7.89608
           31191         64.4172         48.5600         71.0246        -8.08202
           31192         58.4187         45.0941         60.6254         12.0786
           31193         59.1772         45.7636         61.7061         11.8867
           31194         58.5369         44.4381         61.6244         11.4415
           31195         57.8648         43.5411         61.0941         11.2564
           31196         64.3905         67.2631         42.3564        -15.0197
           31197         63.8291         67.3461         41.5403        -14.2669
           31198         64.7359         68.3020         42.0972        -14.4766
           31199         65.0808         69.1069         42.0662        -14.1097
           31200         65.6359         46.5020         73.5614        -7.19038
           31201         64.8700         46.2311         72.2896        -7.89604
           31202         64.2948         46.3826         71.2246        -8.42842
           31203         64.1270         45.9533         71.0271        -8.55656
           31204         84.1046         96.7598         54.9346        -1.70969
           31205         84.1277         96.8236         54.7425        -1.44742
           31206         60.3191         62.9457         41.9686        -13.6212
           31207         59.5903         61.7807         41.6275        -13.8212
           31208         60.0887         61.9167         42.0909        -14.2766
           31209         60.8065         63.0799         42.4327        -14.0768
           31210         56.4160         41.2446         58.3235         12.7219
           31211         56.8394         41.9970         58.3642         13.0602
           31212         57.5463         42.2642         59.7403         12.6661
           31213         58.5984         43.1951         61.1709         12.4948
           31214         75.9817         84.0583         46.5100         12.2990
           31215         75.4556         83.1718         46.2353         12.6988
           31216         74.6672         82.1392         46.0245         12.7868
           31217         61.7571         53.6956         66.5324         5.05484
           31218         63.6277         59.2241         66.7863         3.46140
           31219         77.5133         88.0358         48.2710        -7.69190
           31220         77.2322         87.7386         47.7237        -7.66837
           31221         83.0942         94.1772         47.2022         9.17639
           31222         52.2039         46.8813         42.2591         15.5212
           31223         53.0358         46.9063         44.0939         15.6695
           31224         53.4798         49.7782         41.1158        -15.6885
           31225         76.3201         86.1571         48.1997         8.77982
           31226         76.2571         86.0068         48.4151         8.90662
           31227         85.6627         97.7978         47.4655        -7.36512
           31228         85.9137         98.1030         47.9799        -7.34518
           31229         65.7506         46.8232         73.7235        -7.01303
           31230         66.3738         46.7258         74.7534        -6.50690
           31231         58.3648         45.6351         59.8726         12.5360
           31232         55.7449         40.8274         57.2976         12.8700
           31233         54.7879         39.9784         56.1917         12.8113
           31234         76.2120         84.5249         46.7294         11.9717
           31235         57.1513         45.8768         54.2265         15.3711
           31236         56.8065         43.8012         55.9878         14.4468
           31237         57.4113         43.7713         57.5762         13.9678
           31238         70.8785         77.6779         47.3431         11.9172
           31239         63.4294         64.2785         43.8243        -16.2065
           31240         89.8103         103.432         48.1919        -3.15407
           31241         90.1468         103.869         48.5385        -2.79040
           31242         89.9585         103.642         47.8676        -2.61977
           31243         66.5963         49.3143         74.6842        -6.01204
           31244         91.5272         105.569         52.2631        -2.47830
           31245         75.9777         85.4656         48.9982        -9.22104
           31246         71.7435         51.0779         82.0200    -320.826E-03
           31247         75.7725         87.2648         38.2391    -583.299E-03
           31248         76.0496         87.5949         38.4748    -432.105E-03
           31249         84.8510         97.1241         37.4084    -392.662E-03
           31250         85.2571         97.6623         38.0985    -216.371E-03
           31251         84.2952         96.3503         36.2108     67.1031E-03
           31252         75.2057         86.4484         36.0898    -20.7650E-03
           31253         74.9642         85.9810         43.9998         4.96848
           31254         74.5415         85.3720         44.4072         5.39100
           31255         75.0388         85.9635         44.1571         5.38960
           31256         75.4508         86.4970         43.8793         5.20054
           31257         67.5506         77.1628         44.2621         4.66374
           31258         67.9904         77.6738         44.1317         4.82145
           31259         67.7622         77.5548         43.8884         4.26379
           31260         66.1660         54.9216         73.2604        -2.45216
           31261         81.8766         94.0450         39.2251        -1.79117
           31262         80.4069         92.4118         40.9361        -3.29328
           31263         80.0988         92.0463         41.2539        -3.59076
           31264         72.0679         82.9534         41.4544        -3.30800
           31265         63.9755         57.2523         68.1992         4.77713
           31266         64.3922         56.4839         69.4023         4.44827
           31267         64.8316         51.2580         72.5909         3.01012
           31268         62.7335         52.2026         68.4336         5.76283
           31269         62.3330         52.6749         67.5938         5.84046
           31270         54.0438         48.3928         43.2689         16.3358
           31271         54.3455         49.4047         42.7788         16.2897
           31272         53.0116         44.9587         45.1598         16.1232
           31273         83.9560         96.2149         37.9545    -922.871E-03
           31274         82.7023         94.8581         38.0159    -918.177E-03
           31275         74.6456         85.9984         38.2307    -902.464E-03
           31276         74.5018         85.8542         38.6364        -1.14040
           31277         74.1830         85.4932         38.5210        -1.07203
           31278         61.7541         46.8311         66.5963         10.0687
           31279         84.1664         96.9546         54.2937     14.9286E-03
           31280         84.4180         97.1824         55.1031     479.487E-03
           31281         84.2169         96.9697         54.6419     861.126E-03
           31282         68.7648         75.0835         43.5777         12.4366
           31283         66.7341         73.7302         51.1154        -7.59976
           31284         67.0586         74.7380         50.5044        -6.70810
           31285         67.3320         74.8597         50.3632        -7.37878
           31286         61.0437         64.7319         52.5893        -7.63073
           31287         61.3968         65.4903         51.9820        -7.80530
           31288         61.2364         64.4090         52.7660        -8.48003
           31289         67.1319         52.9148         75.2268         3.06887
           31290         67.3250         53.3095         75.4828         2.38374
           31291         67.3480         48.9822         76.4467         3.50847
           31292         66.6221         49.4828         75.3699         3.59868
           31293         66.7886         71.6349         45.5321         13.1361
           31294         66.2029         71.2397         45.2624         12.6955
           31295         65.3442         70.0486         44.7762         12.8409
           31296         61.4020         47.3361         65.4671         10.6852
           31297         63.9120         45.5190         70.7614        -8.69063
           31298         62.0775         44.6725         67.6266        -10.0941
           31299         62.4497         45.3458         68.0076        -10.0423
           31300         61.9274         45.0618         67.0897        -10.4338
           31301         64.1065         68.2821         44.1136        -13.0812
           31302         62.1822         47.2344         67.2206        -9.86661
           31303         62.7486         47.5438         68.2133        -9.43468
           31304         62.6047         48.1558         67.5746        -9.80052
           31305         62.0580         47.8455         66.5880        -10.2304
           31306         91.9657         106.168         51.9566    -946.780E-03
           31307         66.9398         70.9932         43.2527        -14.6145
           31308         67.8525         72.0041         43.7787        -14.7766
           31309         69.6512         75.6324         44.0471        -13.1944
           31310         60.4644         43.5383         65.0900         10.9172
           31311         67.1922         50.2500         76.2660         1.36619
           31312         67.9339         50.0847         77.3129     694.379E-03
           31313         70.5401         81.0870         42.2461        -3.72750
           31314         78.2385         90.0664         41.2421         2.76419
           31315         78.5128         90.4038         40.7462         2.21955
           31316         64.8756         70.8412         53.4164         6.35451
           31317         64.8902         70.3740         53.6308         7.21546
           31318         84.5432         96.8090         37.5630    -586.727E-03
           31319         84.6605         96.9599         37.7414    -623.564E-03
           31320         75.4732         86.9536         38.7146    -970.442E-03
           31321         75.3165         86.7868         38.9650        -1.15514
           31322         70.7068         80.7507         46.5699        -4.85042
           31323         69.6705         79.2901         47.4707        -5.08426
           31324         63.3684         70.9701         47.8505        -5.32575
           31325         63.9359         71.9765         47.1749        -5.07253
           31326         59.5893         59.0869         58.3555        -5.83943
           31327         64.5213         68.7642         54.5756        -8.34329
           31328         64.1705         67.8024         55.3566        -8.35957
           31329         63.0937         65.9185         57.9873        -5.64144
           31330         63.2590         65.9908         57.6226        -6.56051
           31331         54.5731         41.3441         53.7156        -14.1932
           31332         57.6245         45.3921         56.1665        -14.7758
           31333         57.2867         44.5844         56.2562        -14.5761
           31334         59.7591         58.8859         43.6198         16.0156
           31335         59.3689         57.7614         43.9668         16.2767
           31336         82.2488         94.5603         51.8201         3.55924
           31337         65.0649         51.0988         71.6614         7.04311
           31338         65.3286         51.6407         72.1016         6.47561
           31339         63.4405         64.7764         43.1680         15.9322
           31340         62.9780         63.7457         43.5000         16.1596
           31341         64.4475         48.0377         71.3657         7.76840
           31342         52.9816         46.1586         45.0725         15.5498
           31343         78.4742         89.4832         48.4695        -6.80369
           31344         86.6384         99.0613         48.8087        -6.97238
           31345         87.2821         99.9109         49.7681        -6.62015
           31346         53.7572         50.5628         40.6753        -15.6568
           31347         54.3338         50.5505         41.8922        -15.9115
           31348         53.1520         50.6761         39.3581        -15.3028
           31349         83.5777         94.7930         48.8444         9.01553
           31350         58.4878         48.7058         56.3674         14.3376
           31351         58.7634         47.8276         58.3383         13.5706
           31352         81.4445         93.8820         48.7385        -2.55649
           31353         81.0943         93.4256         48.4086        -3.00791
           31354         64.2338         47.7988         70.9531        -8.13184
           31355         63.8311         48.4191         70.1453        -8.28658
           31356         59.6602         59.6553         42.8188        -15.5081
           31357         90.4528         104.266         48.8638        -2.41494
           31358         64.6752         51.0092         70.8913        -7.56016
           31359         64.3695         51.8688         70.0702        -7.69587
           31360         65.1535         50.6829         71.9018        -7.08390
           31361         63.9927         64.8491         44.4036        -16.3046
           31362         75.3280         82.8148         46.1209         13.0177
           31363         75.9433         85.8721         47.2256         8.53376
           31364         76.5734         86.7790         47.4755         8.14154
           31365         76.5777         86.9054         47.1381         7.87696
           31366         76.0484         85.6632         48.4554         9.09382
           31367         76.1420         85.7429         48.8447         9.09281
           31368         54.6910         48.8826         45.1143         16.0375
           31369         56.1505         51.4574         44.8314         16.3511
           31370         54.6181         48.1352         46.0920         15.9197
           31371         76.4717         86.7344         47.1443        -7.99001
           31372         76.9479         87.4444         47.2537        -7.60722
           31373         83.6998         95.1461         46.5623        -8.46654
           31374         83.3879         94.7766         46.1931        -8.46884
           31375         83.9383         95.5395         46.2741        -8.11505
           31376         85.9913         98.2905         47.1374        -6.94512
           31377         84.4080         96.0829         46.9832         8.15764
           31378         83.9899         95.5649         46.5311         8.23107
           31379         83.5512         94.9428         46.5114         8.54956
           31380         70.8904         77.6337         46.8423         12.1215
           31381         70.2024         76.5020         46.8098         12.4594
           31382         70.2598         76.4725         46.8469         12.5997
           31383         69.7147         75.4117         46.7268         13.0839
           31384         58.8451         50.2461         55.2044         14.8813
           31385         59.4148         51.8452         54.5950         15.1885
           31386         59.4639         51.3715         55.5731         14.8709
           31387         59.1319         50.0573         56.4609         14.4832
           31388         79.6255         91.5982         46.6795        -3.94850
           31389         79.4635         91.3307         46.8389        -4.36241
           31390         65.4677         49.1929         73.3762        -5.52581
           31391         64.7199         48.9208         71.9570        -6.77764
           31392         63.9669         49.2699         70.4983        -7.47623
           31393         63.9049         48.8574         70.3159        -7.91440
           31394         59.0916         55.9088         45.4551        -16.7451
           31395         59.5768         56.2947         46.1838        -16.8054
           31396         60.0697         57.4222         45.9683        -16.7091
           31397         60.4627         59.2149         44.6814        -16.3168
           31398         88.3756         101.616         46.0631        -3.80534
           31399         87.9394         101.038         46.0371        -4.35100
           31400         65.7411         52.8570         72.7646        -5.14678
           31401         65.0152         52.6473         71.3322        -6.38759
           31402         64.4772         53.0040         70.1143        -7.02866
           31403         64.4365         52.4139         70.1137        -7.39029
           31404         61.7907         60.5658         45.4245        -16.7098
           31405         62.6548         61.9129         45.6511        -16.6811
           31406         77.4134         85.9429         46.2520         12.1442
           31407         76.5525         84.6543         46.1874         12.5250
           31408         76.5262         84.5480         46.2398         12.6394
           31409         57.7439         46.8531         54.6290         15.4311
           31410         57.6431         46.2462         55.1314         15.2114
           31411         72.0456         83.0369         40.6559         2.48142
           31412         79.8787         91.8899         40.1796         2.20229
           31413         79.0614         91.0080         40.3656         2.03694
           31414         60.4467         57.5070         58.8670         9.42858
           31415         60.4450         59.3128         57.0420         9.40069
           31416         60.4921         58.2089         57.9570         9.75735
           31417         63.1276         63.3676         58.8300         8.88036
           31418         63.2619         64.2301         58.1664         8.74199
           31419         72.7883         83.9440         38.7842         1.00344
           31420         72.9044         84.0718         39.3638         1.51319
           31421         73.1920         84.3944         38.8971         1.20666
           31422         66.6303         74.3042         50.8029        -6.12163
           31423         62.0329         67.3569         50.5935        -7.28568
           31424         61.5757         66.5443         51.1777        -7.06743
           31425         66.5267         72.8862         51.5516        -8.43087
           31426         67.9550         75.5366         49.8814        -7.99642
           31427         67.8154         75.6674         49.8647        -7.30330
           31428         60.7482         63.9577         53.2406        -7.53511
           31429         74.0649         82.8286         47.1686        -10.1170
           31430         74.4714         83.3904         47.4222        -9.96184
           31431         78.5030         89.6657         47.8746         6.41664
           31432         78.0261         89.1378         47.1124         6.38857
           31433         78.4442         89.5038         48.1806         6.67168
           31434         56.7113         52.9763         43.9381         16.3993
           31435         87.3101         100.068         47.6357         5.97270
           31436         87.0242         99.6666         47.7538         6.29322
           31437         81.7523         92.2363         47.1026        -10.0303
           31438         72.7505         83.8694         37.8194     213.858E-03
           31439         72.9061         84.0564         38.0975     494.700E-03
           31440         82.6329         94.8023         38.2196         1.04593
           31441         83.0840         95.2752         38.0473     992.187E-03
           31442         84.5282         96.6164         36.3123     144.637E-03
           31443         84.6360         96.6798         35.9700     26.1204E-03
           31444         68.7120         47.5195         78.3205         4.11891
           31445         68.7516         47.7700         78.4005         3.80212
           31446         69.3507         47.8700         79.2580         3.17496
           31447         53.8762         40.3829         53.3955        -13.8690
           31448         82.8154         95.1858         53.1141         3.29955
           31449         73.5511         80.3225         45.6329        -13.4294
           31450         74.5155         81.4641         45.9621        -13.5143
           31451         59.7322         49.3328         59.3292        -13.4305
           31452         60.0401         50.3443         59.0524        -13.6142
           31453         62.8913         48.0197         68.1255         9.65587
           31454         66.7500         69.1548         45.0050         15.9169
           31455         66.2563         68.1866         45.2708         16.1029
           31456         90.3235         104.116         48.2300         2.12178
           31457         81.4872         93.9852         48.4820         2.08421
           31458         63.6011         49.4031         69.1085         8.99302
           31459         63.4327         51.8631         67.8561         9.10503
           31460         63.2299         52.7840         67.0249         9.26240
           31461         63.5604         52.9289         67.8580         8.66809
           31462         61.7745         61.1743         45.3773         16.2339
           31463         59.2062         46.8014         59.0348        -14.0571
           31464         67.8289         72.2809         46.2114        -13.9156
           31465         68.5011         73.4318         46.4001        -13.5947
           31466         68.5486         73.4177         46.4779        -13.6731
           31467         65.3276         72.8288         47.2950         7.55607
           31468         64.4110         71.2712         48.1545         7.79684
           31469         61.0336         54.4978         63.7504         7.42144
           31470         60.5112         55.9725         61.3699         8.11267
           31471         60.7816         55.0958         62.4699         8.12805
           31472         60.6369         55.6246         61.5076         8.58085
           31473         71.9986         77.8852         45.2336        -14.0789
           31474         72.5002         78.7711         45.3199        -13.7525
           31475         71.8372         77.9507         45.0446        -13.7418
           31476         71.3369         77.0621         44.9598        -14.0678
           31477         73.0938         79.5235         45.5332        -13.7404
           31478         72.9555         79.5701         45.4221        -13.4434
           31479         60.3549         47.8027         62.6237        -11.9647
           31480         59.9709         48.4981         60.9422        -12.7290
           31481         62.5308         49.3419         66.7835         10.1763
           31482         62.1570         49.4269         65.8469         10.6344
           31483         62.2946         49.9958         65.8577         10.5894
           31484         83.0754         95.8363         51.4006     564.121E-03
           31485         82.8016         95.5527         50.6709     2.09153E-03
           31486         91.8022         105.975         51.3569     805.220E-03
           31487         69.6445         74.4824         44.4703         14.5759
           31488         70.1174         74.9800         44.8145         14.6776
           31489         69.1678         74.0660         44.1459         14.3673
           31490         65.8795         69.7570         45.2121        -13.9499
           31491         71.1123         78.2738         47.7241         11.3744
           31492         67.1775         49.1075         75.6566        -5.55769
           31493         58.7298         46.9792         59.2536         13.1001
           31494         61.8080         64.5330         40.6833        -14.4455
           31495         66.9687         46.6894         75.6935        -6.04099
           31496         54.9274         39.6830         56.9823         12.3359
           31497         61.9572         53.2088         66.7440         5.89130
           31498         62.1425         52.6395         66.9094         6.73235
           31499         61.7775         53.1743         66.0559         6.78375
           31500         75.6295         87.1197         38.4918    -764.453E-03
           31501         84.7540         97.0194         37.4153    -442.734E-03
           31502         84.7758         97.0200         37.2471    -374.925E-03
           31503         84.8309         97.1244         37.5718    -460.500E-03
           31504         82.7778         94.9766         38.4151        -1.21583
           31505         82.4098         94.6178         39.0299        -1.67756
           31506         73.3598         84.5820         39.2020        -1.47685
           31507         73.7155         84.9805         38.9741        -1.33531
           31508         73.8477         85.1288         39.3788        -1.64825
           31509         73.5065         84.7420         39.6071        -1.79486
           31510         74.1964         85.5230         39.3720        -1.63075
           31511         74.2087         85.5319         39.8013        -1.94690
           31512         73.8540         85.1295         39.7997        -1.95744
           31513         65.7499         55.5685         72.3843         2.44913
           31514         66.1433         54.8379         73.2429         2.56249
           31515         65.6281         55.0228         72.2695         3.32357
           31516         64.9316         50.6775         72.6784         4.03794
           31517         64.3096         50.9590         71.5600         4.64359
           31518         64.9215         50.9733         72.7057         3.48616
           31519         54.0892         44.7439         47.8480        -16.0738
           31520         54.7033         45.7483         47.9767        -16.2546
           31521         55.0489         49.7364         43.7879         16.5040
           31522         55.2201         49.4102         44.5243         16.5875
           31523         84.0863         96.3901         38.2535        -1.06005
           31524         84.2414         96.5928         38.5787        -1.23299
           31525         83.8932         96.2247         38.7470        -1.40980
           31526         74.6648         86.0496         39.0510        -1.37227
           31527         74.8521         86.2648         39.2152        -1.44698
           31528         74.6558         86.0447         39.5092        -1.67145
           31529         74.4713         85.8337         39.3455        -1.59680
           31530         74.1327         85.4477         38.9685        -1.36302
           31531         78.2617         89.9824         41.9108        -3.77646
           31532         77.3872         89.0135         42.2114        -3.69472
           31533         77.4546         89.1612         41.8028        -3.12041
           31534         69.9423         80.3651         42.4904        -3.77213
           31535         70.6110         81.0504         42.6398        -4.26503
           31536         70.0181         80.3277         42.8840        -4.30977
           31537         69.3416         79.6471         42.7347        -3.74356
           31538         79.9631         91.9453         40.8162         3.00307
           31539         80.4311         92.4698         40.5056         2.78952
           31540         80.1372         92.1622         40.3534         2.50077
           31541         80.6292         92.7011         40.0438         2.32160
           31542         80.3736         92.4293         39.8689         2.02200
           31543         70.4498         80.8517         42.7115         4.28940
           31544         69.4874         79.5338         43.4648         4.85145
           31545         72.0040         82.9566         40.9590         2.76624
           31546         71.8004         82.6600         41.4258         3.20349
           31547         72.1875         83.1282         41.2029         3.06513
           31548         63.5741         66.4517         56.7706         7.64715
           31549         63.2152         65.5423         57.9228         6.87310
           31550         64.0152         67.0637         55.7777         8.75423
           31551         60.5356         61.6596         55.0689         8.67166
           31552         60.7324         62.9936         53.9620         8.31852
           31553         75.6111         86.9690         36.8352     201.206E-03
           31554         66.8157         76.0277         45.0052         5.17356
           31555         66.2869         75.1265         45.6366         5.65025
           31556         66.7974         75.7914         45.3413         5.72141
           31557         67.2760         76.9159         44.2051         4.31999
           31558         66.8455         76.2840         44.6134         4.54636
           31559         67.1242         76.5320         44.6656         4.89386
           31560         84.7040         96.8663         36.7162     246.365E-03
           31561         84.8892         97.1333         37.1743     285.808E-03
           31562         84.9308         97.2363         37.5916     401.070E-03
           31563         85.0811         97.4168         37.7075     292.266E-03
           31564         61.0752         54.3082         63.7158        -7.77567
           31565         61.3074         53.8464         64.5154        -7.54643
           31566         61.0445         54.5051         64.0495        -6.93562
           31567         60.8122         55.0128         63.0034        -7.48954
           31568         62.9355         60.0778         63.4960        -6.69572
           31569         63.0835         59.2525         64.6032        -6.40316
           31570         53.9381         46.2216         45.5986         16.3430
           31571         54.7845         47.4242         45.9772         16.5208
           31572         55.3752         48.9238         45.4434         16.6436
           31573         55.7878         48.8363         46.5083        -16.6890
           31574         54.9922         47.6528         46.1496        -16.5602
           31575         55.3113         47.6273         46.9524        -16.5597
           31576         71.9690         51.2791         82.2531    -871.159E-03
           31577         72.6646         50.9805         83.1683        -1.17427
           31578         57.1299         52.0070         45.6532        -16.8243
           31579         57.8264         53.3184         45.6599        -16.8397
           31580         56.3411         47.0781         50.3168         16.2790
           31581         66.1340         49.1524         74.5372        -4.67746
           31582         65.0441         49.7159         72.7068        -5.39963
           31583         74.4088         85.7581         38.9408        -1.33120
           31584         73.6130         84.2448         44.9148        -5.42200
           31585         65.0863         73.9522         45.7745        -4.36318
           31586         64.4928         72.9185         46.5240        -4.83705
           31587         65.1332         56.6918         70.9496        -2.36563
           31588         64.8131         56.5351         70.3533        -3.28504
           31589         58.9622         43.9656         61.2351         12.7288
           31590         66.0626         70.1416         42.6475        -14.3409
           31591         63.3126         47.9702         69.1230        -9.04072
           31592         62.0200         64.3671         43.2407        -14.3397
           31593         62.3969         64.3711         43.6618        -14.7642
           31594         63.2144         65.7261         44.0004        -14.5153
           31595         63.6577         46.1227         70.0929        -9.03445
           31596         63.4436         45.6838         69.8305        -9.16351
           31597         83.3175         96.0619         52.2113        -1.06541
           31598         83.7051         96.4375         53.3680        -1.27535
           31599         83.3728         96.0906         52.5404        -1.38704
           31600         67.8185         72.9439         46.0053         13.1384
           31601         67.3240         72.3464         45.7809         13.0985
           31602         61.1819         45.2738         65.3479         11.2800
           31603         70.4351         75.8233         44.6278         14.1906
           31604         65.1019         68.4646         44.8908        -14.2490
           31605         60.8842         45.2631         64.6670        -11.5952
           31606         60.9419         48.0661         63.8428        -11.4940
           31607         62.8282         49.0396         67.6084         9.78242
           31608         62.1753         48.8211         66.2568         10.4407
           31609         64.3301         67.2676         44.5787         14.4323
           31610         61.6075         53.3805         65.5208        -7.08415
           31611         61.9887         52.8159         66.5111        -6.88461
           31612         63.4568         51.4949         69.9193        -5.37970
           31613         63.7489         51.5630         70.5845        -4.56628
           31614         64.5963         56.4259         69.8940        -3.97729
           31615         64.2523         57.0931         68.9588        -4.10245
           31616         75.4178         86.1849         44.3740         6.20034
           31617         75.7549         86.4740         44.4136         6.56013
           31618         76.3534         87.2856         44.0053         6.20826
           31619         68.4785         78.2071         44.0505         5.08476
           31620         66.5992         54.9925         73.9685         1.59722
           31621         66.7120         54.2707         74.3193         2.24956
           31622         66.1633         55.4090         73.1442         1.84374
           31623         75.4992         86.8792         37.2129     348.231E-03
           31624         75.1594         86.5109         37.3172     439.990E-03
           31625         75.3314         86.7267         37.6309     522.200E-03
           31626         83.8399         96.0372         37.5097     669.425E-03
           31627         84.1741         96.3970         37.4864     646.018E-03
           31628         66.3943         74.9564         45.9616         6.38708
           31629         72.5322         82.5039         46.0336         6.65565
           31630         72.9724         83.2089         45.6019         6.22371
           31631         66.7043         74.4566         46.6921         8.20689
           31632         67.3626         75.1847         46.5015         8.54000
           31633         67.7171         75.9194         46.1057         8.09183
           31634         67.3117         76.5616         44.9168         5.49474
           31635         67.6210         77.0669         44.5706         5.21792
           31636         74.7896         85.5525         44.4763         5.80706
           31637         65.2156         69.8822         53.4621        -9.08112
           31638         64.8048         68.8468         54.2105        -9.18725
           31639         63.4036         65.9771         57.2867        -7.41365
           31640         63.8323         66.8221         56.1593        -8.33056
           31641         63.5677         65.9295         56.9631        -8.26450
           31642         64.1964         56.7045         68.8850        -4.71606
           31643         77.1501         87.5007         48.1168         7.97475
           31644         75.2738         84.8627         47.0666         9.00742
           31645         74.6529         84.1218         46.5637         9.04451
           31646         74.6639         83.9545         46.9175         9.38113
           31647         76.2597         86.5259         46.8209        -7.91274
           31648         76.0177         86.0612         47.0517        -8.31921
           31649         84.0932         95.8214         45.9401        -7.77761
           31650         55.1509         49.4951         45.3299        -16.1314
           31651         54.5626         49.3480         44.1182        -16.0476
           31652         82.9920         94.2045         46.2390         8.77609
           31653         82.4821         93.6298         45.7104         8.70175
           31654         82.2733         93.2606         45.9644         9.04236
           31655         69.3791         75.2581         46.8782         12.6501
           31656         69.5430         75.3767         46.8625         12.7910
           31657         79.1945         91.0916         46.0853        -4.00924
           31658         79.3211         91.3069         45.8980        -3.60792
           31659         79.7513         91.8125         46.4931        -3.54807
           31660         60.1557         56.9390         46.9294        -16.7969
           31661         59.0970         55.0397         46.6552        -16.8747
           31662         63.3510         50.8925         69.4645        -6.66349
           31663         63.3251         51.2827         69.5405        -6.06891
           31664         62.8970         51.6151         68.6010        -6.49786
           31665         88.0581         101.148         46.7988        -4.72026
           31666         87.6455         100.646         46.0264        -4.69183
           31667         66.3664         52.7356         73.9435        -4.29204
           31668         65.4013         53.6869         72.0174        -4.99793
           31669         63.9352         55.3270         68.3900        -6.66465
           31670         63.8695         56.0826         68.0801        -6.25182
           31671         75.6711         83.4135         46.1925         12.7493
           31672         75.7363         83.4180         46.2003         12.8698
           31673         58.6228         49.0353         54.4709         15.6640
           31674         58.4765         48.2931         54.9930         15.4793
           31675         58.0782         47.9361         54.1983         15.6611
           31676         60.4510         60.4442         56.0957         9.03242
           31677         60.8959         63.8413         53.2767        -8.07159
           31678         74.2845         85.5986         38.3145     952.674E-03
           31679         73.9917         85.2667         38.1792     840.730E-03
           31680         73.7761         85.0410         38.6026         1.09327
           31681         83.1293         95.3570         38.3921         1.22820
           31682         83.4814         95.6979         37.9518     935.178E-03
           31683         72.4441         78.9992         45.2379        -13.3487
           31684         72.6254         78.7149         45.4846        -14.0224
           31685         60.1924         49.4469         60.5596        -12.9762
           31686         90.8654         104.815         48.9073         1.23924
           31687         90.6100         104.487         48.5410         1.66329
           31688         81.9303         94.5483         48.9867         1.30469
           31689         81.7188         94.2812         48.7268         1.70597
           31690         67.1797         71.1423         46.0819        -14.2211
           31691         67.2554         71.1319         46.2549        -14.3088
           31692         67.9010         72.2701         46.3852        -14.0031
           31693         61.9956         68.0897         49.9667         6.13155
           31694         60.9458         54.5835         63.0722         8.15747
           31695         61.3162         53.7997         64.5377         7.57771
           31696         61.2190         53.8858         63.8572         8.31352
           31697         62.8952         59.5296         63.1038         7.88421
           31698         62.8652         60.3584         62.6242         7.46109
           31699         62.9183         51.3043         66.7651         9.90515
           31700         62.9634         52.0360         66.5811         9.80154
           31701         67.8371         71.2102         44.6204         15.4642
           31702         67.2818         70.1548         44.7823         15.7202
           31703         66.5111         69.9777         45.9135        -14.5112
           31704         58.9929         46.3997         60.5974         12.4751
           31705         62.9452         65.7769         41.3952        -14.6604
           31706         65.3105         68.7556         42.5835        -14.7493
           31707         56.5145         57.9078         39.7573        -13.6893
           31708         82.9055         95.5693         51.5303        -1.74929
           31709         82.9829         95.6900         51.4618        -1.37335
           31710         60.6247         61.5738         42.9380        -15.1019
           31711         61.4896         62.9038         43.3268        -14.9698
           31712         61.2261         63.0980         42.8751        -14.5412
           31713         60.3506         61.7787         42.4856        -14.6659
           31714         59.4328         60.9223         41.7944        -14.3778
           31715         58.9487         60.6530         41.3492        -14.0755
           31716         55.5476         40.2754         57.6113         12.4456
           31717         63.6028         57.1343         67.0903         6.13818
           31718         85.4726         97.9745         38.6931    -339.458E-03
           31719         85.4237         97.8867         38.4183    -154.413E-03
           31720         78.9862         90.7351         41.9616        -4.18627
           31721         78.3158         89.9776         42.1964        -4.22612
           31722         71.3053         81.7874         42.7471        -4.62370
           31723         79.9153         91.8506         41.2372         3.51616
           31724         80.3553         92.3562         40.9337         3.27724
           31725         72.4326         83.4445         40.8990         2.80252
           31726         72.4804         83.5307         40.5957         2.51677
           31727         81.3535         93.8318         48.2237        -2.11089
           31728         81.4783         94.0051         48.2714        -1.76901
           31729         61.7427         61.6130         44.8037        -16.0117
           31730         61.0310         60.1415         44.8819        -16.2548
           31731         62.6718         63.4021         44.8505        -15.7053
           31732         68.8666         74.0029         46.5254         13.4732
           31733         69.1595         74.4524         46.6424         13.3791
           31734         68.6418         73.5551         46.5384         13.6464
           31735         68.5845         73.5894         46.4089         13.5382
           31736         74.9598         82.2035         46.0237         13.2499
           31737         74.4729         81.3984         45.9667         13.5302
           31738         58.1667         46.0742         56.8519         14.6946
           31739         66.0853         68.5576         44.1479        -15.7560
           31740         90.2197         103.982         48.1245        -2.27259
           31741         90.4725         104.309         48.4060        -1.91344
           31742         80.8553         92.9414         40.2477         2.60023
           31743         80.6499         92.6983         40.6602         3.01791
           31744         81.0765         93.1744         40.4020         2.83093
           31745         81.0904         93.2038         39.7797         2.15304
           31746         81.3142         93.4442         39.9835         2.43058
           31747         84.8875         97.0716         36.7624     174.285E-03
           31748         75.7383         87.1442         37.2075     254.820E-03
           31749         75.6275         87.0534         37.5840     401.850E-03
           31750         60.2534         57.0672         60.1641        -7.90522
           31751         60.3334         56.4797         61.0737        -7.51858
           31752         60.4292         56.3851         60.7775        -8.27542
           31753         60.5823         55.7440         61.7192        -8.04239
           31754         62.8649         61.1651         62.3166        -6.80856
           31755         62.9031         59.7901         63.0783        -7.62744
           31756         56.4237         50.7353         45.5905        -16.7741
           31757         55.7752         49.5240         45.6044        -16.7033
           31758         54.2674         47.0071         45.3606        -16.4314
           31759         55.0972         47.1868         47.0074         16.5081
           31760         55.4433         47.0469         48.0316         16.4647
           31761         55.8680         46.9766         49.1993         16.3817
           31762         65.2293         54.2839         71.5868        -4.81166
           31763         64.7440         54.5131         70.5194        -5.51815
           31764         64.8465         50.0839         72.4000        -5.19568
           31765         64.3160         50.2255         71.3982        -5.83831
           31766         71.2533         77.1217         44.8276         13.8678
           31767         68.9071         73.3916         44.2635        -14.7328
           31768         91.8398         106.024         51.3891    -595.269E-03
           31769         91.6120         105.750         50.6129    -320.814E-03
           31770         63.3941         48.7200         68.9544        -9.12733
           31771         63.0327         48.3184         68.3979        -9.39958
           31772         63.6794         48.3658         69.6786        -8.77058
           31773         62.9677         48.8894         67.9810        -9.60718
           31774         64.3453         67.1608         44.6547        -14.5459
           31775         63.1328         45.8729         69.1541        -9.51205
           31776         62.8375         45.5325         68.7102        -9.70904
           31777         83.1635         95.9190         51.6916    -797.389E-03
           31778         83.0132         95.7735         51.2291    -443.396E-03
           31779         61.1641         48.0188         64.4314         11.2213
           31780         60.9536         48.6739         63.3751         11.7546
           31781         61.7008         48.5845         65.2869         10.8949
           31782         67.0684         71.6694         45.6935         13.5228
           31783         66.5353         70.9562         45.4385         13.5604
           31784         65.8021         69.6062         45.1841         14.0046
           31785         63.2816         58.1406         65.7522        -6.42261
           31786         63.0721         58.8325         64.5789        -6.96965
           31787         63.1812         57.8900         65.3563        -7.13314
           31788         75.1503         86.3746         43.5028        -4.16463
           31789         74.6593         85.8481         43.6343        -3.91942
           31790         75.5662         86.9382         43.0495        -3.71415
           31791         73.9035         84.3732         45.0793        -6.17086
           31792         74.5295         85.0575         44.8653        -6.40599
           31793         74.1815         84.4581         45.2526        -6.92551
           31794         66.6890         76.4926         43.7859        -3.07682
           31795         67.3741         77.2088         43.7637        -3.73079
           31796         66.5408         73.5682         51.2522         7.28339
           31797         66.4678         73.0018         51.5350         8.06230
           31798         60.8725         65.3086         52.1266         6.51635
           31799         62.9051         58.7166         63.5550         8.20375
           31800         62.9025         57.8567         63.8659         8.67080
           31801         63.6141         51.0268         70.1181         5.89855
           31802         62.8240         51.3831         68.3062         7.08687
           31803         63.0220         51.5568         68.8857         6.32354
           31804         80.7652         91.0118         46.1802        -10.1686
           31805         56.1769         51.0140         45.6077        -16.3298
           31806         73.9055         82.7318         46.8862        -9.96877
           31807         74.2619         83.2142         47.0676        -9.85833
           31808         73.7198         82.3554         46.9888        -10.2312
           31809         58.7296         55.2528         45.6511         16.6796
           31810         57.7892         53.5433         45.8768         16.5772
           31811         57.1392         52.9650         45.0515         16.4936
           31812         70.5466         76.8381         46.9356        -12.5991
           31813         57.8811         46.0985         56.0105        -14.9440
           31814         57.1711         45.3412         54.9614        -15.0993
           31815         56.6953         44.3424         55.0004        -14.8539
           31816         56.7368         45.3889         53.7220        -15.3975
           31817         58.4531         56.2096         43.7237         16.3623
           31818         80.6133         92.7859         48.0339         3.60067
           31819         80.9411         93.1479         48.7247         3.62585
           31820         66.1313         51.5358         73.6266         5.50592
           31821         89.6326         103.203         47.9176         3.27919
           31822         89.4829         102.995         48.1085         3.64024
           31823         62.5127         62.6884         43.8756         16.3648
           31824         61.6543         61.6563         43.2859         16.2781
           31825         58.5205         49.4297         55.3952        -14.7298
           31826         59.0906         50.6543         55.4036        -14.8629
           31827         76.9402         85.1503         46.4215        -12.4775
           31828         73.3196         84.5149         40.0434        -2.14333
           31829         73.0034         84.1365         40.4150        -2.41870
           31830         72.9834         84.1529         39.6780        -1.78275
           31831         82.4636         94.6937         39.4731        -2.08706
           31832         55.3183         46.7993         48.0510        -16.4295
           31833         55.1890         45.8253         49.0586        -16.1993
           31834         55.7888         46.8768         49.1360        -16.3701
           31835         75.2762         86.1606         44.2073         5.70076
           31836         77.2492         88.3286         43.7102         6.21194
           31837         67.0938         76.0361         45.3838         6.08854
           31838         64.2069         50.6678         71.2840         5.34433
           31839         63.6946         51.3192         70.3894         5.19635
           31840         77.4008         88.8161         42.9273         4.91480
           31841         76.9654         88.3873         42.9001         4.57417
           31842         78.8409         90.4953         42.3428         4.66916
           31843         77.8234         89.2269         43.0009         5.25398
           31844         78.3213         89.8538         42.6619         4.96012
           31845         63.9148         50.8034         70.7108        -5.66986
           31846         64.3880         55.4743         69.5564        -5.44407
           31847         64.3532         56.0799         69.3741        -4.96988
           31848         73.6722         84.9056         40.2311        -2.30498
           31849         83.2553         95.5678         39.5214        -2.10297
           31850         82.6869         94.9498         39.8216        -2.37639
           31851         82.7676         93.7332         46.9767        -9.32777
           31852         82.3333         93.0941         47.0506        -9.63724
           31853         85.5288         97.7040         46.6262         7.08662
           31854         85.8885         98.1394         47.1979         7.06686
           31855         86.3128         98.7290         47.1919         6.69865
           31856         86.6563         99.1522         47.7981         6.65271
           31857         74.6911         83.7972         47.3115        -9.71232
           31858         61.1808         63.9475         53.1034         8.74952
           31859         61.7749         64.4988         52.4714         9.78323
           31860         61.6661         64.9514         52.2630         9.07676
           31861         63.9995         70.7723         48.4013        -7.52790
           31862         63.6710         70.0573         48.8588        -7.78263
           31863         63.3476         69.8741         48.8952        -7.21801
           31864         70.6692         79.4950         47.6513        -8.00177
           31865         69.9986         78.4904         48.1854        -8.15094
           31866         69.7640         78.5177         48.1439        -7.40028
           31867         58.9650         56.9509         43.5820        -16.4936
           31868         87.7186         100.689         46.7982        -5.10954
           31869         73.4967         84.7006         40.3248         2.38170
           31870         73.8133         85.0228         40.8544         2.82843
           31871         73.9615         85.2236         40.4469         2.47075
           31872         81.3536         93.4803         39.2696         1.69968
           31873         81.8444         93.9993         38.9763         1.55388
           31874         81.5614         93.7105         39.5012         1.99354
           31875         80.8803         92.9739         39.5489         1.85978
           31876         60.6232         57.3794         58.3532        -10.4236
           31877         60.5350         57.9053         58.1745        -9.92980
           31878         60.4083         58.4520         57.8999        -9.38946
           31879         63.3281         65.0462         57.7733        -8.15714
           31880         63.1555         64.2296         58.5790        -8.04530
           31881         63.2109         65.1392         58.1099        -7.32505
           31882         84.4929         96.7962         37.9034     770.429E-03
           31883         68.0447         78.0586         43.3705        -3.71405
           31884         68.0920         77.9359         43.7871        -4.38927
           31885         71.4330         81.8152         43.1007        -5.08495
           31886         69.3898         79.5532         43.1518        -4.35989
           31887         77.6446         89.1968         42.5059        -4.36879
           31888         77.8427         89.3251         42.7792        -4.88930
           31889         79.6000         91.4386         41.7221        -4.05916
           31890         81.1284         93.2143         40.7216         3.18878
           31891         65.7712         49.7497         73.9981         4.33935
           31892         65.7458         50.0688         74.0069         3.83107
           31893         64.2754         50.3038         71.3246         5.81828
           31894         64.9811         50.3509         72.7036         4.55370
           31895         65.0401         49.9837         72.7487         5.02417
           31896         66.4717         53.9435         73.9704         3.01051
           31897         65.0587         54.8631         71.1538         4.60169
           31898         64.9398         55.4769         70.8164         4.21145
           31899         65.7509         54.4138         72.6061         3.71689
           31900         54.5429         44.7562         48.9200        -16.0012
           31901         54.9894         44.7380         50.0393        -15.8857
           31902         55.4629         50.6686         43.6188         16.4957
           31903         55.8000         51.6097         43.2530         16.4472
           31904         62.6463         51.0824         67.7030         7.95592
           31905         63.1098         50.3597         68.7390         7.81816
           31906         64.9240         53.5074         71.0413         5.95677
           31907         64.3130         53.6840         69.6234         6.93865
           31908         64.5350         54.0953         70.0867         6.26338
           31909         64.3571         67.7222         55.0459        -9.18901
           31910         64.0141         66.7417         55.8484        -9.16024
           31911         61.0125         61.6133         54.6413        -10.1207
           31912         61.0552         62.3364         54.2074        -9.70512
           31913         72.5931         83.5949         41.1584        -3.06969
           31914         83.4709         95.8295         40.4042        -2.79933
           31915         83.1210         95.4334         40.1112        -2.62088
           31916         83.5170         95.8723         39.8414        -2.30547
           31917         64.4071         67.9636         54.9351         9.03587
           31918         64.4428         67.5617         54.9259         9.70098
           31919         62.4164         67.5746         50.4629         8.02044
           31920         68.0483         76.0176         49.6306         7.33724
           31921         67.3066         74.9481         50.3228         7.12230
           31922         73.1773         84.3635         39.8559         1.96735
           31923         55.6009         50.7418         44.5591        -16.2503
           31924         55.2435         50.7731         43.6366        -16.1797
           31925         75.3709         84.8781         47.4008         9.18200
           31926         83.1751         94.3345         46.9019        -9.01441
           31927         83.4679         94.7695         46.8164        -8.76780
           31928         83.8973         95.3357         47.1478        -8.59866
           31929         82.7786         93.8359         46.5379         9.09711
           31930         69.3401         74.7622         46.7432         13.2710
           31931         68.7990         73.8133         46.6623         13.5625
           31932         59.9389         52.2677         55.8953         14.8098
           31933         59.9491         51.8410         56.6411         14.5434
           31934         59.4838         50.9541         56.3172         14.6056
           31935         63.3562         49.1131         69.1380        -8.51329
           31936         63.2895         48.6734         68.9662        -8.88714
           31937         80.5332         92.7950         47.3044        -2.97690
           31938         80.1785         92.3731         46.7880        -3.09008
           31939         80.1197         92.3467         46.4386        -2.77860
           31940         61.0835         59.8918         45.2940        -16.3846
           31941         60.8533         59.2156         45.5991        -16.5079
           31942         64.0586         52.7108         69.1867        -7.85624
           31943         63.9799         53.3380         68.8506        -7.75540
           31944         89.7444         103.382         47.2231        -2.46438
           31945         64.1716         64.5325         45.5976        -16.5018
           31946         64.8086         65.5349         45.7641        -16.4329
           31947         64.8011         65.7227         45.3151        -16.3755
           31948         64.1635         64.7268         45.1482        -16.4452
           31949         58.6257         47.3004         56.7300         14.8851
           31950         58.2167         46.7308         56.1975         14.9823
           31951         58.1175         47.3180         55.1452         15.3517
           31952         58.5244         47.8931         55.6867         15.2463
           31953         75.7120         83.3169         46.1716         12.9829
           31954         75.6132         83.1293         46.1726         13.0800
           31955         63.5001         64.6573         57.3088         9.53646
           31956         63.4864         64.2647         57.2749         10.0151
           31957         68.5118         75.8629         49.5772        -8.97888
           31958         68.0407         74.9876         50.0678        -9.20284
           31959         68.2327         75.7154         49.7406        -8.46329
           31960         62.7059         66.9594         50.8029        -9.47383
           31961         62.8492         67.8638         50.2624        -8.74099
           31962         69.7376         74.4438         44.6623        -14.7373
           31963         70.1194         75.2515         44.5885        -14.3894
           31964         70.8564         76.1683         44.9271        -14.4061
           31965         70.4484         75.4130         44.9615        -14.6629
           31966         71.5075         77.0332         45.2062        -14.3525
           31967         61.4986         48.3356         64.9927        -11.0025
           31968         61.1712         46.0450         64.8249         11.6098
           31969         61.0972         46.7089         64.2784         11.8577
           31970         61.6038         46.9454         65.3885         11.3313
           31971         91.3587         105.440         49.8607    -51.9049E-03
           31972         91.0918         105.109         49.1537    -296.279E-03
           31973         91.0995         105.118         49.1653     269.273E-03
           31974         70.7049         75.9852         44.8463         14.3978
           31975         71.0853         76.3953         45.1013         14.4715
           31976         70.4988         75.3928         45.0680         14.7500
           31977         65.0823         68.3220         44.9458         14.3581
           31978         64.6394         67.4659         44.8492         14.6168
           31979         64.7788         68.1206         44.6895         14.1774
           31980         65.1324         67.9446         45.2622         14.7469
           31981         64.5743         66.8149         45.2188         15.0793
           31982         60.9572         45.8813         64.4341        -11.7651
           31983         61.3820         45.3715         65.7294        -11.1217
           31984         61.0866         46.5834         64.3083        -11.8561
           31985         60.6317         46.5786         63.1709        -12.3624
           31986         62.6755         48.4158         67.5498        -9.85962
           31987         63.6796         46.6072         70.0161        -9.01596
           31988         68.5870         73.6657         46.3653         13.4577
           31989         68.5427         73.7142         46.3370         13.3279
           31990         69.0026         74.5263         46.4802         13.0483
           31991         75.0740         82.3150         46.0693         13.2937
           31992         74.6654         81.6596         46.0565         13.4954
           31993         74.0721         80.7457         45.9658         13.7295
           31994         72.6675         78.7996         45.4772         13.9833
           31995         59.2593         44.7572         61.1811         12.9565
           31996         63.7150         49.7273         69.2349        -8.87281
           31997         63.4636         50.5984         68.3757        -9.16320
           31998         63.2797         50.0292         68.1701        -9.39375
           31999         58.4766         54.6431         45.5516        -16.8105
           32000         56.5232         48.2123         49.2328         16.5348
           32001         56.9824         48.3156         50.3509         16.4328
           32002         64.3803         50.4976         71.5904        -5.31582
           32003         64.7974         55.0517         70.5660        -4.94043
           32004         61.6888         53.0320         65.4956        -7.67689
           32005         76.5571         88.0386         42.6776        -3.91973
           32006         76.8274         88.2237         42.9734        -4.60399
           32007         76.2893         87.5248         43.3891        -4.98248
           32008         77.2681         88.6371         43.0505        -5.04456
           32009         73.2646         83.6616         45.3257        -5.94518
           32010         68.7030         78.8689         43.0264        -3.74044
           32011         68.7568         78.7748         43.4440        -4.35675
           32012         68.1566         77.8126         44.1905        -5.04304
           32013         66.4173         75.2494         45.6229        -5.78593
           32014         62.3626         51.9281         67.1924         7.45915
           32015         80.4368         92.5009         48.1786         4.04363
           32016         80.2377         92.2976         47.7060         3.93840
           32017         79.8180         91.7565         47.3073         4.25920
           32018         80.0168         91.9586         47.7756         4.36558
           32019         79.5444         91.4570         46.8057         4.19733
           32020         79.4425         91.2546         47.0800         4.59894
           32021         77.7607         86.3923         46.3765        -12.0953
           32022         78.4834         87.4654         46.5129        -11.7512
           32023         77.7457         86.3487         46.4963        -12.1282
           32024         77.0422         85.3646         46.2307        -12.3501
           32025         77.7489         86.4203         46.3031        -12.0274
           32026         58.7957         52.3857         51.2709        -16.0190
           32027         58.2323         51.3723         51.1933        -15.9274
           32028         58.3461         51.1090         52.0228        -15.7543
           32029         58.8926         52.1298         52.1229        -15.8239
           32030         57.7943         50.4669         51.3342        -15.7983
           32031         71.3066         78.1118         47.0664        -12.1706
           32032         70.9918         77.6481         46.9040        -12.2832
           32033         71.6277         78.7271         46.9955        -11.8859
           32034         61.0713         60.3706         43.7119         16.4648
           32035         60.1842         59.3358         43.0794         16.3474
           32036         62.5305         61.9577         45.1660         16.6305
           32037         62.3825         61.4405         45.7144         16.6888
           32038         61.6649         60.4037         45.3440         16.7016
           32039         61.8082         60.9337         44.8017         16.6342
           32040         89.1276         102.536         47.7455         3.91860
           32041         88.1833         101.343         46.3462         4.27220
           32042         88.6563         101.948         46.8270         3.98544
           32043         88.2089         101.400         45.9733         3.95984
           32044         56.4634         43.1336         55.9588        -14.2586
           32045         58.3262         47.2522         55.8716        -15.1393
           32046         79.9148         91.9450         47.0520         3.86381
           32047         89.1219         102.547         47.2993         3.65040
           32048         62.9221         62.7978         44.8319         16.5436
           32049         62.1103         61.7628         44.2721         16.5066
           32050         59.6417         51.7796         55.5595        -14.8997
           32051         59.5199         52.1464         54.4654        -15.2432
           32052         75.8968         83.7907         46.3628        -12.5792
           32053         66.7556         74.2792         50.8237         6.60810
           32054         62.0369         66.3023         51.3311         8.58424
           32055         62.5462         67.2945         50.6334         8.70027
           32056         60.8274         65.7966         51.6942         5.76732
           32057         70.3035         80.0966         44.1053         6.17836
           32058         74.5695         85.9460         39.5629         1.72678
           32059         74.1559         85.4755         39.6020         1.79896
           32060         82.7330         94.9363         38.5328         1.31945
           32061         82.8134         95.0466         38.8389         1.55440
           32062         63.8630         50.5350         70.5225        -6.19485
           32063         64.3483         54.9402         69.5187        -6.02199
           32064         75.2916         86.7706         39.4091        -1.43399
           32065         75.0285         86.4712         39.6427        -1.67464
           32066         75.0278         86.4678         39.3680        -1.49596
           32067         84.0802         96.4577         39.0857        -1.61312
           32068         83.6827         96.0314         39.2898        -1.83748
           32069         79.5012         89.1689         46.1407        -10.8733
           32070         80.1711         90.1465         46.1813        -10.5101
           32071         80.5366         90.7784         45.9686        -10.0875
           32072         78.5675         89.9965         46.9406         5.61435
           32073         78.1911         89.4292         46.9522         6.07342
           32074         56.9649         50.5005         48.6844        -16.1567
           32075         87.0837         99.8438         46.5825         5.65164
           32076         86.5010         99.0849         46.2381         6.00402
           32077         85.9377         98.3872         45.6867         6.13614
           32078         59.4203         56.4949         45.5330         16.7155
           32079         73.1243         81.4847         46.8185        -10.4948
           32080         73.4475         82.0350         46.8038        -10.2266
           32081         63.3417         69.3367         49.3104        -8.00221
           32082         63.0043         68.6562         49.7464        -8.09466
           32083         62.8122         68.6447         49.7289        -7.61453
           32084         63.1498         69.3200         49.2938        -7.52348
           32085         62.4421         68.0879         50.0860        -7.40939
           32086         62.7855         68.9867         49.4586        -7.03991
           32087         68.4074         76.3795         49.4003        -7.71397
           32088         68.6810         76.5578         49.2600        -8.17877
           32089         68.7113         77.0696         48.9776        -7.24328
           32090         82.4062         95.1192         49.7700    -221.278E-03
           32091         60.7320         49.3233         62.2370         12.2730
           32092         61.1766         50.0895         62.7982         12.0489
           32093         63.2016         46.7003         69.0409        -9.50638
           32094         63.1726         46.2200         69.1151        -9.52351
           32095         65.6812         68.7240         45.5331         14.6854
           32096         65.5251         68.9099         45.1785         14.3424
           32097         65.3573         69.0176         44.9483         14.0240
           32098         59.4525         45.5418         60.9406         13.1926
           32099         63.5305         49.2084         69.0405        -9.04512
           32100         63.9804         48.9029         70.0623        -8.55412
           32101         64.1649         49.4290         70.2562        -8.37977
           32102         60.7487         55.1423         62.3971        -8.10464
           32103         61.0038         54.4357         63.1020        -8.39352
           32104         78.9673         90.2623         48.3463        -6.19240
           32105         78.9074         90.6681         46.1551        -4.47868
           32106         58.7420         52.9263         50.0478         16.2633
           32107         59.0751         53.1099         50.8892         16.1473
           32108         58.5225         52.0053         51.0265         16.0237
           32109         58.3472         54.9017         45.1713        -16.6307
           32110         58.9227         55.5068         45.7804        -16.6950
           32111         59.4412         56.6727         45.2866        -16.7042
           32112         87.3239         100.205         46.1729        -5.14142
           32113         87.1862         100.083         45.3965        -4.73873
           32114         80.6419         92.5146         42.0440         4.69554
           32115         72.5285         83.3100         42.2867         4.26454
           32116         66.0615         71.4275         52.2878         9.36331
           32117         61.8276         63.9392         52.6990         10.4367
           32118         61.4631         62.4559         53.7106         10.7500
           32119         75.8894         87.2110         43.1936        -4.27098
           32120         84.3974         96.7966         38.9070        -1.37236
           32121         63.8164         66.8174         41.8646        -14.7491
           32122         65.1146         54.1864         71.3679         5.08383
           32123         64.5600         54.6472         70.0709         5.80019
           32124         64.0612         54.6719         68.8263         6.84675
           32125         74.1030         85.2357         43.8401        -3.69305
           32126         66.0040         75.7394         43.8846        -2.44971
           32127         57.6359         50.9522         48.4207        -16.8161
           32128         58.2847         52.1292         48.5767        -16.8544
           32129         56.1503         48.1660         48.3023         16.5962
           32130         56.6519         49.0729         48.3624         16.6898
           32131         90.8325         104.786         48.4588     5.84362E-03
           32132         90.7883         104.728         48.4522     662.028E-03
           32133         61.0936         47.4851         63.8152         12.0483
           32134         60.6328         47.3672         62.6469         12.5892
           32135         65.2401         67.6954         45.6806        -15.0473
           32136         65.8904         68.8696         45.8031        -14.7765
           32137         61.6046         50.8939         63.3771        -11.7444
           32138         70.1532         74.7959         45.0888        -14.9052
           32139         62.3742         50.7927         65.6026         10.6313
           32140         73.0470         84.1960         40.2541         2.29128
           32141         60.3583         56.8547         60.1626        -8.39956
           32142         63.0080         63.4355         59.3849        -7.88418
           32143         79.5511         91.0772         42.9534        -5.78527
           32144         79.0850         90.6017         42.8495        -5.53568
           32145         79.5978         91.2524         42.5445        -5.19802
           32146         85.1604         97.5525         38.0791     407.112E-03
           32147         85.3017         97.7315         38.2562     272.124E-03
           32148         65.5558         70.1395         53.0445        -9.74361
           32149         65.0641         68.4333         53.8316        -10.5871
           32150         64.9861         68.7199         53.9360        -9.96914
           32151         65.3174         69.4675         53.4045        -9.97437
           32152         65.3903         69.1819         53.2971        -10.5887
           32153         60.9971         60.8895         55.1145        -10.5102
           32154         72.7971         83.7614         41.5700        -3.52782
           32155         80.2170         92.1465         41.4487        -3.87949
           32156         80.7983         92.7555         41.6264        -4.20689
           32157         60.6198         57.7845         57.9935         10.3856
           32158         62.8570         60.8948         61.5234         8.24931
           32159         63.2580         63.3519         58.1066         9.88105
           32160         63.3017         63.9450         58.0299         9.33432
           32161         65.9577         70.6118         52.4965        -10.2532
           32162         66.2696         70.7663         52.1095        -10.8932
           32163         62.6019         67.8707         50.2565        -8.11978
           32164         69.9100         74.3234         45.1978        -15.0539
           32165         72.1279         77.8620         45.4561        -14.2944
           32166         60.3903         50.3847         60.1494        -13.1786
           32167         82.2316         94.9273         49.3653     93.0863E-03
           32168         81.8027         94.4404         48.4746     534.420E-03
           32169         81.6927         94.3032         48.3445     905.265E-03
           32170         61.5336         47.5429         64.9619         11.4671
           32171         62.0016         47.0934         66.2906         10.8600
           32172         68.4052         71.8925         45.0365         15.4945
           32173         64.0271         65.3785         45.6131         15.5636
           32174         63.7723         65.2716         45.1846         15.4288
           32175         66.6404         70.0277         46.1670        -14.5905
           32176         60.8011         47.3340         63.1170        -12.3840
           32177         60.2265         46.6818         62.0115        -12.8766
           32178         59.7860         46.8395         60.6739        -13.4292
           32179         63.3098         49.6633         69.0806        -8.17155
           32180         60.5269         58.9744         45.0952        -16.4460
           32181         59.7887         51.0461         57.2396         14.3116
           32182         68.3795         73.0604         46.5712         13.8031
           32183         75.5125         82.9678         46.1369         13.1370
           32184         74.7529         81.8030         46.0975         13.4437
           32185         74.9491         82.1441         46.1736         13.2992
           32186         58.9373         48.0587         56.7963         14.9188
           32187         58.8782         48.4881         56.0809         15.1628
           32188         64.5137         65.4946         44.8200        -16.3209
           32189         70.1313         76.2631         46.8143        -12.6618
           32190         59.6998         56.9486         45.6381         16.7045
           32191         59.3649         55.9885         46.0380         16.8085
           32192         65.1747         53.6979         71.5451         5.39722
           32193         79.6199         91.6229         46.5065         3.77628
           32194         63.5772         63.6039         45.4400         16.5527
           32195         63.1815         62.7653         45.7585         16.6396
           32196         63.3412         49.9256         69.1938         7.88057
           32197         59.5078         52.6385         53.4984        -15.5389
           32198         59.5219         53.2300         52.4121        -15.8356
           32199         74.9942         86.4316         39.6623         1.70284
           32200         74.5021         85.8603         40.1001         2.12637
           32201         82.4311         94.6398         39.0273         1.69342
           32202         82.2854         94.4653         38.7405         1.41562
           32203         81.9928         94.1739         39.2628         1.83190
           32204         83.8992         96.2573         39.0861         1.65252
           32205         83.4243         95.7398         39.2113         1.83069
           32206         62.9472         47.1547         68.3920        -9.76937
           32207         62.7277         47.6913         67.8046        -9.94208
           32208         62.5261         47.0477         67.5046        -10.2484
           32209         62.7570         46.5872         68.1462        -9.98178
           32210         63.7574         65.1491         45.2840        -15.4938
           32211         59.6203         46.3524         60.6379         13.4138
           32212         60.6663         50.0919         61.2964         12.7071
           32213         66.3449         68.6579         44.6568        -15.9117
           32214         67.8534         72.5142         46.1167         13.7009
           32215         68.2158         73.1106         46.2270         13.5521
           32216         68.0790         72.7699         46.2430         13.7353
           32217         67.7193         72.1682         46.1413         13.8873
           32218         63.1039         50.9963         67.3700        -9.63294
           32219         90.6754         104.572         48.6256        -1.55205
           32220         90.8865         104.842         48.9412        -1.20690
           32221         67.5631         76.8001         44.9205        -5.73184
           32222         75.6972         86.8957         43.5229        -4.72252
           32223         75.8569         86.8698         43.9035        -5.60564
           32224         57.6794         53.0237         45.6799         16.8410
           32225         78.5468         89.6989         48.0120        -6.45964
           32226         78.5127         89.7198         47.7288        -6.29243
           32227         82.5371         93.4357         46.7602         9.39333
           32228         82.1316         92.8224         46.9087         9.71848
           32229         81.8604         92.4032         47.0251         9.94461
           32230         59.1153         52.7719         51.7156         15.9621
           32231         55.6092         51.7197         43.1369        -16.2038
           32232         54.9286         50.7387         42.9677        -16.0897
           32233         55.9223         51.7687         43.8009        -16.2922
           32234         55.0164         51.2592         42.4390        -16.0584
           32235         74.8852         84.0774         47.4208         9.61040
           32236         74.5003         83.5857         47.0976         9.69922
           32237         85.8659         98.1572         46.7546        -6.86583
           32238         86.4683         98.9533         47.0984        -6.51397
           32239         86.2033         98.6356         46.6294        -6.50753
           32240         79.2486         90.8945         42.4615         5.00204
           32241         79.6328         91.2659         42.6324         5.33131
           32242         80.1440         91.9002         42.3311         5.02446
           32243         70.8560         80.6504         44.2080         6.50977
           32244         70.8512         80.7927         43.9389         6.10321
           32245         66.5002         72.6854         51.6332         8.68125
           32246         66.6297         72.3969         51.5964         9.51194
           32247         74.9608         84.5196         46.7462        -8.96870
           32248         82.0730         92.9529         46.0264        -9.23030
           32249         85.1524         97.2520         46.1395         7.10152
           32250         72.2897         80.0266         46.8652        -11.1903
           32251         71.8201         79.2019         46.8836        -11.5525
           32252         72.7063         80.7566         46.8514        -10.8486
           32253         87.5994         100.568         46.2538         4.89694
           32254         88.1230         101.236         46.7743         4.63107
           32255         87.4626         100.362         46.5342         5.22628
           32256         59.7728         57.5717         44.7034         16.6688
           32257         58.7637         52.8904         50.1917        -16.2402
           32258         57.5088         50.3540         50.5892        -15.9147
           32259         57.1566         50.3141         49.5785        -16.0400
           32260         78.2786         87.2835         46.2419        -11.6472
           32261         78.4250         87.4272         46.3527        -11.7030
           32262         75.3488         86.8352         40.3593        -2.06733
           32263         75.6589         87.1940         40.5477        -2.07213
           32264         75.4797         86.9703         40.8840        -2.41859
           32265         75.1489         86.6001         39.1077        -1.30462
           32266         85.0039         97.5169         39.4049        -1.41653
           32267         84.7951         97.2927         39.5481        -1.63447
           32268         84.5916         97.0398         39.2363        -1.52814
           32269         81.7440         93.9139         39.7623         2.26945
           32270         85.3178         97.8652         39.3331        -1.12214
           32271         85.2348         97.7971         39.6354        -1.41081
           32272         76.3788         88.0475         40.6106        -1.61241
           32273         76.0817         87.6962         40.3295        -1.64064
           32274         61.8903         52.5069         65.8944        -7.98474
           32275         62.2060         52.2992         66.9314        -7.18857
           32276         62.9631         58.8442         63.9605        -7.62609
           32277         63.0625         57.8968         64.7366        -7.79007
           32278         66.9440         75.9841         45.2587        -5.73007
           32279         85.0728         97.6268         39.8520        -1.71585
           32280         84.8153         97.3447         40.0284        -1.99331
           32281         62.1642         47.1284         66.6591        -10.6678
           32282         62.2397         47.7701         66.6248        -10.5767
           32283         61.6429         47.2321         65.3572        -11.3190
           32284         62.7526         46.2244         68.2614        -9.94847
           32285         62.7148         45.8768         68.3132        -9.92928
           32286         72.3223         78.1743         45.4765         14.2159
           32287         71.8810         77.5667         45.3207         14.2794
           32288         59.7352         47.1905         60.2153         13.6266
           32289         60.1901         47.2920         61.4324         13.1356
           32290         67.5958         72.1636         45.9941         13.7265
           32291         67.8529         72.7026         46.0548         13.4858
           32292         68.1080         73.0438         46.1676         13.4673
           32293         67.5041         72.2715         45.8956         13.4681
           32294         90.7835         104.722         48.4223    -608.232E-03
           32295         62.7977         51.4447         66.3902        -10.0791
           32296         62.4750         50.7185         65.9150        -10.4736
           32297         62.7762         50.2715         66.8963        -10.0248
           32298         63.1024         49.3754         68.0562        -9.53308
           32299         65.4958         73.1300         47.1277        -7.46390
           32300         65.0571         72.3669         47.5567        -7.64516
           32301         57.5955         51.5350         48.8053        -16.2748
           32302         58.2883         52.5608         49.1806        -16.3414
           32303         56.4500         52.0835         44.6347        -16.3950
           32304         57.0101         52.3558         45.6798        -16.4720
           32305         60.0716         55.9346         48.8734         16.5834
           32306         60.0808         55.5811         49.6729         16.4714
           32307         59.3118         54.3221         49.3636         16.4497
           32308         59.2945         54.6797         48.5630         16.5632
           32309         88.6711         101.945         47.2706         4.25209
           32310         60.7816         59.5430         44.2452         16.5921
           32311         66.4310         51.8373         74.1345         4.93236
           32312         68.9755         76.7103         49.1391        -8.71724
           32313         62.9872         66.9113         50.7179        -10.1908
           32314         65.2258         68.6204         53.5388         10.8489
           32315         64.8383         67.9482         54.2029         10.5212
           32316         64.7357         67.3466         54.3269         10.9920
           32317         65.1197         68.0189         53.6634         11.3191
           32318         61.2382         61.1966         54.5735         11.0535
           32319         68.8945         78.0166         45.0309        -6.95798
           32320         69.6766         79.2890         44.3484        -6.26205
           32321         78.0508         89.4382         43.0530        -5.46983
           32322         61.6248         52.4814         64.7383        -9.12566
           32323         61.3602         52.8909         63.6784        -9.67290
           32324         61.4016         52.4350         63.6287        -10.1405
           32325         61.6594         52.0217         64.6907        -9.59280
           32326         71.8342         77.3677         45.4693         14.4313
           32327         71.4228         76.7982         45.2920         14.4940
           32328         90.5248         104.400         47.7307    -307.594E-03
           32329         62.7705         52.4254         65.8589        -10.1159
           32330         69.3518         73.3223         45.3321        -15.3011
           32331         82.0813         94.7545         49.0660    -477.270E-03
           32332         60.6601         50.8667         60.4819         13.0471
           32333         61.0735         51.5053         61.1531         12.7435
           32334         61.0846         50.7313         61.9662         12.4026
           32335         59.6255         58.2743         43.2316         16.4278
           32336         88.2205         101.333         47.3279         4.84490
           32337         80.1849         92.1343         48.1600         4.42312
           32338         79.7299         91.5745         47.5770         4.62737
           32339         80.4457         92.4600         48.4803         4.27470
           32340         80.4763         92.4511         48.7617         4.45682
           32341         61.5363         59.1658         47.4985         16.7363
           32342         60.4709         57.2013         47.6689         16.7246
           32343         58.8373         53.3215         49.6211        -16.3530
           32344         76.9992         85.6039         46.0599        -11.8637
           32345         76.1867         84.4128         46.1535        -12.1750
           32346         76.9208         85.6639         46.0073        -11.5902
           32347         78.0729         87.0768         46.1024        -11.5764
           32348         78.7988         88.1440         46.1343        -11.2247
           32349         78.0162         89.4891         45.7220         5.14320
           32350         78.3270         89.9621         45.5791         4.65047
           32351         77.8360         89.3207         45.3575         4.97754
           32352         79.0137         90.5385         47.4400         5.49366
           32353         78.7215         90.2535         46.8124         5.32141
           32354         60.7570         55.2989         60.8117         9.97002
           32355         60.8359         54.8624         60.6473         10.6502
           32356         62.7787         59.5383         61.5969         9.47908
           32357         62.7840         59.8025         60.6517         10.2305
           32358         62.8634         60.7430         60.0229         10.0884
           32359         62.8404         60.4736         60.9686         9.33961
           32360         67.4267         73.3933         50.7785        -10.1346
           32361         67.8571         74.2509         50.3427        -9.91615
           32362         68.1382         74.3990         50.1037        -10.4067
           32363         67.7095         73.5406         50.5429        -10.6260
           32364         53.1643         42.6621         48.5055        -15.5236
           32365         53.8789         43.7274         48.7240        -15.7839
           32366         69.1685         77.4496         48.7692        -7.84374
           32367         58.3934         51.7101         49.5828        -16.7465
           32368         58.9664         52.7592         49.8274        -16.7291
           32369         58.8716         53.1806         48.8183        -16.8389
           32370         58.3741         51.3693         50.0464         16.6826
           32371         57.9387         51.4955         48.4977         16.8374
           32372         58.5295         52.3595         48.9976         16.8217
           32373         75.8340         87.2856         37.6018     269.889E-03
           32374         60.5743         57.0310         58.9647        -10.0448
           32375         63.0756         63.2444         59.0932        -8.64062
           32376         63.1113         62.9854         58.8731        -9.27321
           32377         62.9774         62.2097         59.7516        -8.99967
           32378         78.4167         89.7631         43.2156        -5.86919
           32379         74.2296         85.5414         40.2604        -2.28976
           32380         74.6077         85.9873         39.8455        -1.91801
           32381         83.5212         95.8782         40.9608        -3.29769
           32382         83.1213         95.4293         40.6972        -3.15370
           32383         75.5166         85.3363         46.8698        -8.62903
           32384         83.9422         95.4387         46.8630        -8.44865
           32385         62.1888         63.0524         52.6036         12.1310
           32386         62.0899         62.2376         52.8944         12.5942
           32387         62.3179         62.9906         52.4045         12.5229
           32388         65.3182         67.9174         53.2063         12.0612
           32389         79.7648         91.8827         46.2004        -3.19029
           32390         60.4729         58.3929         45.7055        -16.6045
           32391         75.7076         83.3034         46.1804         12.9941
           32392         74.9708         82.2461         46.2026         13.1846
           32393         63.4019         63.1041         45.8601        -16.6181
           32394         64.1332         64.2208         46.1617        -16.5569
           32395         63.9484         53.9766         68.6610        -7.47609
           32396         67.9184         72.2382         46.5161        -14.0362
           32397         59.5536         47.1245         59.7336        -13.8170
           32398         59.5454         48.0708         58.7681        -14.2149
           32399         63.3114         53.8185         66.9181         8.85623
           32400         81.1096         93.5615         47.7001         2.05057
           32401         80.7396         93.1433         46.9841         1.99586
           32402         80.4966         92.8289         46.7718         2.35656
           32403         66.2819         67.9427         46.0153         16.1872
           32404         62.3277         48.7800         66.6541         10.2285
           32405         60.3083         51.3155         58.7372        -13.7583
           32406         60.6406         51.3560         59.8345        -13.3234
           32407         60.3779         52.3621         57.5061        -14.2348
           32408         60.6166         52.2943         58.5318        -13.8394
           32409         73.9487         80.5394         46.0012        -13.7914
           32410         84.2560         96.6570         39.1272         1.58022
           32411         59.2512         54.5979         47.7785         16.8878
           32412         58.8285         53.3892         48.3380         16.8775
           32413         58.3324         52.8915         47.5924         16.9051
           32414         57.4743         52.3163         46.0923         16.8639
           32415         58.0157         52.8638         46.7435         16.9048
           32416         56.8200         48.0287         50.2987        -16.4071
           32417         57.8143         49.3299         51.3522        -16.3830
           32418         57.4550         49.3347         50.2621        -16.5384
           32419         73.4616         82.6911         45.9845        -9.06869
           32420         73.1264         82.1205         46.0833        -9.38826
           32421         72.8365         81.8754         45.8706        -9.18576
           32422         81.3960         92.0918         45.7575        -9.39055
           32423         61.2058         47.2507         64.2540        -11.8462
           32424         60.9108         48.0572         63.0080        -12.3641
           32425         66.5852         69.7452         46.5900        -14.6969
           32426         66.6508         69.9331         46.4019        -14.6468
           32427         66.0337         68.7201         46.5152        -14.9539
           32428         61.4996         48.9229         64.3382         11.5029
           32429         61.1595         49.7390         62.9534         12.0365
           32430         89.8749         103.580         46.3623     701.097E-03
           32431         89.7719         103.446         46.2552         1.05615
           32432         68.9807         72.6706         45.4314         15.4362
           32433         68.4301         71.6735         45.6232         15.6427
           32434         67.8560         70.8921         45.2287         15.7000
           32435         64.2360         65.4891         46.0667         15.6223
           32436         63.5978         64.1875         46.1607         15.8826
           32437         61.6249         51.7652         62.7561        -11.9477
           32438         61.7141         52.6761         62.2408        -12.0906
           32439         63.0130         52.6111         66.4665         9.69165
           32440         62.7372         52.8186         65.5657         10.1714
           32441         80.8294         93.3251         46.6049     634.566E-03
           32442         81.0974         93.6379         47.0731     478.752E-03
           32443         80.8909         93.4041         46.6566     176.383E-03
           32444         81.3784         93.9587         47.6288     529.794E-03
           32445         81.2717         93.8248         47.4968     899.612E-03
           32446         70.9578         75.7921         45.7788        -14.8833
           32447         71.4649         76.6397         45.7057        -14.6906
           32448         85.6740         98.2608         39.2460    -557.562E-03
           32449         85.4816         98.0091         38.9188    -588.542E-03
           32450         85.3888         97.9236         39.0945    -839.352E-03
           32451         85.6578         98.2619         39.4569    -840.502E-03
           32452         76.6154         88.3228         39.9875    -777.689E-03
           32453         81.4935         93.6361         40.2460         2.72063
           32454         73.6273         84.8683         39.9273         2.05832
           32455         74.0544         85.3510         39.9966         2.10352
           32456         65.7533         73.2251         47.1955        -7.95948
           32457         65.9988         73.2741         47.2577        -8.48959
           32458         65.5320         72.4261         47.6942        -8.72679
           32459         65.2826         72.3821         47.6316        -8.19652
           32460         64.6458         71.6176         47.9719        -7.83846
           32461         72.8986         82.5584         46.1868        -7.70748
           32462         72.4310         81.7529         46.6030        -8.18155
           32463         71.5063         80.3535         47.2570        -8.57331
           32464         72.1344         81.1148         46.9213        -8.72094
           32465         71.9626         80.5847         47.1703        -9.32551
           32466         71.3424         79.8276         47.5046        -9.17950
           32467         69.5478         75.2262         46.8268        -13.0097
           32468         58.7375         48.4539         55.6486        -15.2964
           32469         58.2393         48.8495         53.4194        -15.9312
           32470         58.0027         48.9702         52.4992        -16.1345
           32471         60.1776         57.5107         46.1285         16.7223
           32472         59.8835         56.5884         46.6493         16.8072
           32473         59.5737         55.6231         47.1681         16.8711
           32474         58.2677         55.5623         44.0153         16.4945
           32475         88.7713         102.146         45.8801         3.05807
           32476         88.3112         101.549         45.6954         3.60567
           32477         79.6727         91.7531         46.1975         3.34966
           32478         79.3299         91.3066         45.9634         3.67235
           32479         66.4125         53.4156         73.9440         3.62577
           32480         65.7048         53.8889         72.5831         4.32943
           32481         60.0550         53.2069         54.6771        -15.2233
           32482         76.3782         84.3603         46.2130        -12.6474
           32483         58.4790         53.8970         47.3099         16.5987
           32484         57.5197         52.7629         46.4202        -16.5229
           32485         58.2745         54.1797         46.1770        -16.6335
           32486         57.7753         53.7750         45.4464        -16.5805
           32487         68.0069         73.6814         50.2478        -11.1576
           32488         68.3714         74.5087         49.9296        -10.8063
           32489         68.9039         75.1439         49.4748        -11.1222
           32490         63.2798         66.9068         50.5970        -10.8480
           32491         63.0143         65.6945         51.1430        -11.5361
           32492         63.2238         68.0423         50.1020         9.42241
           32493         66.9478         73.3930         51.1203         8.83290
           32494         67.6397         74.4237         50.4253         9.06215
           32495         68.4989         75.7260         49.6277         9.18094
           32496         89.7887         103.466         46.3926        -1.24292
           32497         67.9365         72.2942         46.4631         14.0132
           32498         67.2352         71.0100         46.4303         14.3689
           32499         66.6169         68.8440         45.1732        -15.9959
           32500         67.4773         70.1028         45.5977        -15.8762
           32501         72.6961         78.5758         45.8854         14.2662
           32502         60.8974         54.5622         61.6115        -9.95224
           32503         60.7543         55.3588         60.6581        -10.0837
           32504         73.8800         82.7097         46.8572         9.95490
           32505         73.3871         82.0028         46.7057         10.1618
           32506         78.3190         89.5770         47.1242        -6.06586
           32507         77.7579         88.8412         46.7304        -6.36105
           32508         78.3702         89.7267         46.8338        -5.76913
           32509         86.0335         98.4861         45.9337        -6.22291
           32510         85.8139         98.1526         46.1958        -6.58987
           32511         85.5727         97.8675         45.8627        -6.57567
           32512         80.8401         91.0635         46.3516         10.2476
           32513         81.5758         92.0673         46.5999         9.94995
           32514         81.7924         92.4390         46.4069         9.68214
           32515         72.9009         83.7950         42.0297         4.01311
           32516         73.7224         84.7951         41.8024         3.74078
           32517         78.5905         87.9520         45.9786        -11.1175
           32518         80.7168         91.2141         45.6006        -9.57748
           32519         80.2704         90.7160         45.3884        -9.50953
           32520         80.7743         91.4020         45.3923        -9.28532
           32521         76.9786         88.0425         45.5744         6.04631
           32522         58.4342         53.9547         47.0722        -16.6075
           32523         58.9938         55.2375         46.4944        -16.6892
           32524         84.6853         96.8666         44.6501         6.32272
           32525         85.2894         97.6510         44.7259         5.93545
           32526         84.9272         97.2223         44.4368         5.94581
           32527         74.3919         85.6699         41.1256        -2.98493
           32528         74.2760         85.5682         40.7022        -2.65487
           32529         74.9811         86.4148         39.9753        -1.92195
           32530         71.4873         81.5478         43.8689         6.14601
           32531         71.2833         81.1315         44.2125         6.61478
           32532         71.8062         81.7305         44.2311         6.70548
           32533         71.5755         81.8108         43.5153         5.67119
           32534         79.4409         90.9100         43.0935         5.96703
           32535         78.9168         90.2637         43.2815         6.15850
           32536         79.0636         90.3173         43.5312         6.59513
           32537         62.7904         50.5913         67.9628        -8.21657
           32538         81.2471         91.9547         45.5983        -9.29497
           32539         80.8801         91.3669         45.7578        -9.67204
           32540         84.3767         96.4417         44.7700         6.62725
           32541         84.0018         95.9157         44.8963         7.00155
           32542         85.6301         98.0519         45.0679         5.95010
           32543         69.4580         77.6007         48.6525        -8.38530
           32544         63.6000         69.4300         49.2892        -8.50799
           32545         85.3821         97.8541         38.5319     395.062E-03
           32546         85.5593         98.0845         38.8066     257.665E-03
           32547         85.4751         97.9580         38.5334     132.286E-03
           32548         76.1484         87.7162         38.6044     351.241E-03
           32549         76.2627         87.8593         38.7928     234.876E-03
           32550         76.1738         87.7329         38.4250     112.966E-03
           32551         62.7502         59.2534         61.2926        -10.0270
           32552         62.7339         58.3212         62.2606        -9.81333
           32553         61.0949         53.7503         62.6105        -9.81073
           32554         61.0202         54.1877         62.5026        -9.44208
           32555         60.9740         54.1232         61.7215        -10.3204
           32556         63.7373         55.0559         67.8720         7.33572
           32557         63.4324         55.4580         66.8290         7.91994
           32558         75.6699         87.1741         38.6560     841.694E-03
           32559         75.9031         87.4574         38.9754     833.871E-03
           32560         75.9563         87.4974         38.6103     609.108E-03
           32561         75.7237         87.2138         38.2912     616.666E-03
           32562         84.8108         97.1974         38.3411     846.122E-03
           32563         84.7615         97.0953         37.9375     661.485E-03
           32564         55.2478         48.5587         45.6102        -16.6219
           32565         71.0337         80.6620         44.5240         7.03391
           32566         70.7337         80.0961         44.8452         7.49923
           32567         71.5687         81.2638         44.5439         7.16281
           32568         77.7209         88.9600         43.4015         5.88690
           32569         78.1118         89.3314         43.4646         6.18971
           32570         70.3598         80.1895         44.0437        -6.11386
           32571         82.0297         92.8414         46.1861         9.38398
           32572         78.1495         89.2614         47.3493        -6.43561
           32573         85.4806         97.6778         46.3203        -6.94933
           32574         74.0355         83.0771         46.6800         9.63448
           32575         57.5138         51.8615         46.8013         16.8824
           32576         57.1900         50.3139         48.0850         16.7967
           32577         57.3237         49.8690         49.0873        -16.7078
           32578         57.8725         50.8881         49.2019        -16.7591
           32579         64.2917         70.6825         48.5567         8.40160
           32580         84.9738         97.3364         37.9976     550.189E-03
           32581         85.2436         97.6926         38.4695     550.728E-03
           32582         85.5006         98.0274         38.8872     510.367E-03
           32583         75.8049         87.2787         37.9244     428.806E-03
           32584         75.5448         86.9885         37.9507     589.274E-03
           32585         75.9452         87.4622         38.2610     416.960E-03
           32586         76.5839         88.2764         39.6782     468.801E-03
           32587         76.6475         88.3590         39.9307     659.954E-03
           32588         76.8695         88.6306         40.2351     493.195E-03
           32589         76.7981         88.5386         39.9858     303.490E-03
           32590         77.4001         88.3097         46.7044        -6.71638
           32591         85.6398         98.0010         45.5464        -6.30082
           32592         62.0410         50.6836         65.7524         9.82267
           32593         61.7953         51.3613         65.0230         9.87173
           32594         62.9067         55.3810         64.9580         9.45321
           32595         63.0296         55.7311         65.2895         8.99469
           32596         63.2330         54.9387         66.3117         8.67932
           32597         63.1084         54.6008         65.9894         9.12677
           32598         62.9416         56.5610         64.6257         8.96872
           32599         63.2216         55.7279         66.0332         8.38422
           32600         73.4823         82.2862         46.5496         9.86853
           32601         72.9168         81.4714         46.4506         10.0997
           32602         72.3321         80.6437         46.3874         10.2890
           32603         76.8510         87.9496         45.2676        -5.86100
           32604         76.9867         88.2239         44.9763        -5.43512
           32605         85.0077         97.3234         44.4454        -5.90638
           32606         78.4185         87.8496         45.8573         10.9172
           32607         79.5295         89.5536         45.6449         10.1538
           32608         68.4434         73.3247         46.9107         13.5041
           32609         69.1099         74.4077         46.7739         13.3193
           32610         69.0291         74.3599         46.8634         13.2186
           32611         63.9499         54.6716         68.5301        -7.09181
           32612         60.5187         53.8685         55.4949         14.9492
           32613         59.9798         52.8527         55.0212         15.1091
           32614         61.0149         53.5385         58.3624         13.8432
           32615         64.8857         65.4350         46.4099        -16.4455
           32616         65.5883         66.6329         46.4313        -16.3287
           32617         63.2913         50.1177         69.1193        -7.75951
           32618         63.3580         50.5112         69.3706        -7.17788
           32619         62.0487         60.8394         46.7149        -16.4158
           32620         61.7439         60.0544         47.0625        -16.5046
           32621         62.0914         60.5892         47.4132        -16.4216
           32622         59.9003         49.4513         58.5769         14.2368
           32623         66.5803         69.7621         46.5109         14.6926
           32624         89.5095         103.119         45.5740    -564.640E-03
           32625         89.4120         102.997         45.3274    -241.919E-03
           32626         89.7125         103.377         45.9261    -177.187E-03
           32627         90.0043         103.745         46.5294    -79.9475E-03
           32628         62.5314         53.1265         64.7606        -10.5564
           32629         62.5471         53.9449         64.3123        -10.5727
           32630         62.2887         53.8884         63.4122        -11.1354
           32631         61.4166         52.8318         60.9786         12.7020
           32632         68.3401         71.4435         45.9166        -15.6877
           32633         69.0019         72.5704         45.7931        -15.5027
           32634         69.6088         73.5988         45.7316        -15.3081
           32635         80.8506         93.3517         46.6232    -551.524E-03
           32636         63.4116         63.4986         46.8287        -16.0165
           32637         63.7368         64.2854         46.5242        -15.8755
           32638         64.0703         65.0531         46.2561        -15.7329
           32639         64.4800         65.9554         46.0768        -15.5295
           32640         64.1333         65.5240         45.6989        -15.5529
           32641         71.4698         76.5909         45.9607         14.7146
           32642         60.4998         49.4784         60.7567         13.2524
           32643         60.1302         49.7690         59.1373         13.9604
           32644         66.8452         74.9412         46.3670        -7.68097
           32645         74.4233         84.4809         45.4281        -7.65713
           32646         73.8221         83.8272         45.6176        -7.43247
           32647         75.5199         86.3304         44.2911        -6.11811
           32648         76.1744         87.0247         44.1668        -6.38082
           32649         60.7634         55.1133         61.9197         8.81798
           32650         60.7333         55.3666         61.1879         9.43191
           32651         62.8290         60.0274         62.0239         8.57075
           32652         59.5241         54.3415         49.1395        -16.7903
           32653         58.8854         52.3481         50.2391         16.6646
           32654         58.9048         51.8678         51.1083         16.5159
           32655         65.7104         69.9361         52.8653        -10.4763
           32656         65.8446         69.9793         52.6544        -10.8111
           32657         64.9770         67.6330         53.8912        -11.3776
           32658         62.0508         63.7785         52.5663        -11.1354
           32659         62.6218         64.5795         51.7578        -11.7559
           32660         62.3213         63.6799         52.3087        -11.8832
           32661         60.9640         60.0065         55.5901        -10.9748
           32662         62.5330         64.1290         51.9417         11.9844
           32663         62.4750         63.6279         52.1159         12.3096
           32664         66.9103         71.5760         51.3281         11.4477
           32665         66.6528         70.7626         51.5706         11.9023
           32666         81.0007         92.8663         42.2679         5.02176
           32667         66.3745         74.4615         46.4764        -7.34197
           32668         65.8674         73.7690         46.7822        -7.28358
           32669         66.1162         73.8630         46.8482        -7.77167
           32670         73.4608         83.1716         45.9805        -7.93799
           32671         58.3651         53.2856         48.0746         16.5090
           32672         59.4218         55.2858         47.7983         16.6565
           32673         58.5427         53.0204         49.1481         16.3951
           32674         59.7737         56.7443         46.1630        -16.7475
           32675         59.8368         56.4761         46.8734        -16.7432
           32676         68.8133         75.3652         49.5353        -10.5649
           32677         63.8770         68.1298         49.8722        -10.7880
           32678         78.9550         88.7403         45.6846        -10.4250
           32679         78.4200         87.8370         45.8702        -10.9450
           32680         79.4867         89.6288         45.4641        -9.87792
           32681         77.5234         88.8132         45.5844         5.55714
           32682         78.3739         89.8598         46.3097         5.30673
           32683         76.6172         87.6744         45.0836         5.87499
           32684         72.2954         80.6772         46.3089        -10.1548
           32685         71.8228         79.8584         46.3961        -10.5462
           32686         72.3987         81.1206         46.0292        -9.59613
           32687         72.7332         81.4345         46.1936        -9.77158
           32688         63.2492         68.6495         49.7537        -8.71482
           32689         56.0582         52.8319         42.5418         16.2179
           32690         54.2959         43.6473         49.8334        -15.6491
           32691         62.8953         61.2146         60.2934        -9.38329
           32692         62.9929         61.9932         59.4774        -9.56696
           32693         62.9456         61.4026         59.5513        -10.0352
           32694         62.8591         60.5561         60.1131        -10.1794
           32695         72.3193         82.3153         44.2775         6.79445
           32696         75.4057         86.8587         38.3551     804.536E-03
           32697         74.4121         85.7367         40.5499         2.49593
           32698         83.1728         95.4920         40.1487         2.64215
           32699         82.9705         95.2640         39.8560         2.39510
           32700         82.7497         95.0204         40.3723         2.88142
           32701         57.8448         51.8835         47.6571         16.8873
           32702         57.8367         50.2147         50.1160        -16.6184
           32703         60.8125         58.0614         57.1088         11.2758
           32704         60.7186         57.3329         58.0009         10.9687
           32705         60.8759         57.5661         57.1136         11.8020
           32706         61.0070         58.3078         56.2651         12.0691
           32707         63.9546         64.7836         55.6913         11.5417
           32708         63.7238         63.8417         56.1362         11.7972
           32709         58.3944         50.4748         51.5336        -16.4077
           32710         76.5409         88.2153         39.4223    -188.666E-03
           32711         76.7038         88.4258         39.9252    -496.074E-03
           32712         67.9265         72.2295         46.6947        -14.0150
           32713         67.2628         71.0384         46.4868        -14.3661
           32714         67.2695         71.0284         46.6675        -14.3413
           32715         80.2515         92.5079         46.6057         2.70180
           32716         79.9609         92.1297         46.3828         3.04118
           32717         64.0492         54.1936         68.8792         7.16048
           32718         89.4002         102.967         45.9676         1.85269
           32719         89.6168         103.247         46.1400         1.43764
           32720         89.1689         102.670         45.8101         2.20993
           32721         89.0593         102.517         46.0966         2.74279
           32722         65.7246         66.9171         46.2666         16.3019
           32723         66.6566         68.4502         46.5391         16.0976
           32724         66.1013         67.4265         46.7955         16.2119
           32725         62.2451         49.4632         66.3394         10.1371
           32726         62.1201         50.1210         65.9878         9.99627
           32727         60.7142         53.2919         57.4150        -14.2532
           32728         60.2242         52.5371         56.5879        -14.5783
           32729         60.0880         52.8051         55.5743        -14.9253
           32730         73.1865         79.3408         46.0155        -14.0806
           32731         74.0832         80.7722         46.1408        -13.6881
           32732         73.0078         83.9198         42.0442        -4.00966
           32733         81.5734         93.6358         41.4736        -4.07827
           32734         81.1047         93.0748         41.7719        -4.39973
           32735         66.5828         74.3345         46.7347        -8.11410
           32736         64.8771         71.6312         48.0466        -8.38986
           32737         72.8199         81.8796         46.6247        -8.98564
           32738         73.4522         82.6134         46.3527        -9.14743
           32739         73.2186         82.0207         46.6105        -9.73053
           32740         72.5847         81.2807         46.8817        -9.56874
           32741         73.1195         82.5178         46.3108        -8.44673
           32742         63.0966         53.4737         66.3698         9.41323
           32743         62.9011         54.2497         65.4378         9.68492
           32744         62.6925         62.1097         46.7229         16.2445
           32745         63.1141         63.1408         46.3720         16.0647
           32746         59.8659         47.9153         59.9440        -13.7477
           32747         59.7094         48.7883         58.5893        -14.2674
           32748         59.9870         49.7445         58.5932        -14.2063
           32749         59.8414         50.1891         57.5195        -14.6106
           32750         66.3025         70.4755         52.0400        -11.3814
           32751         65.3964         68.1907         53.1036        -11.9428
           32752         66.1829         69.7326         52.0566        -12.0788
           32753         65.9002         68.8688         52.3235        -12.4584
           32754         72.0407         77.5836         45.6669        -14.4704
           32755         71.7285         77.0139         45.8981        -14.6287
           32756         72.3048         77.9539         45.8612        -14.4104
           32757         60.8781         53.2427         58.2388        -13.9091
           32758         61.1541         54.1414         58.0482        -13.9254
           32759         60.9995         54.1891         57.2239        -14.2691
           32760         61.9269         62.8620         53.0283        -11.6157
           32761         62.3057         63.0943         52.4376        -12.3817
           32762         61.9173         62.2734         53.1588        -12.1147
           32763         67.7201         70.2703         46.5386         15.8381
           32764         67.0892         69.1239         46.9306         15.9624
           32765         89.1604         102.669         45.4651         1.77265
           32766         88.9409         102.387         45.3092         2.12793
           32767         77.0059         88.7977         40.9389        -1.17989
           32768         76.8555         88.6166         40.4310    -828.781E-03
           32769         79.5624         91.7613         45.1529         2.20159
           32770         79.3723         91.5133         45.0531         2.47981
           32771         62.7263         61.8598         47.4933         16.2303
           32772         62.3926         61.3266         47.1516         16.3325
           32773         63.0269         62.6405         47.0661         16.1409
           32774         62.0992         60.4811         47.7003         16.4113
           32775         61.6800         59.7801         47.3546         16.5244
           32776         67.3203         71.3804         47.2318        -13.8737
           32777         67.9364         72.5608         47.1336        -13.5248
           32778         60.0829         51.0144         57.5746        -14.4888
           32779         60.0315         51.5446         56.6374        -14.8155
           32780         61.2326         54.8573         57.1463        -14.2513
           32781         61.6860         50.9187         64.5727         10.5004
           32782         87.7860         100.942         43.8774         2.64584
           32783         87.9104         101.088         44.3066         2.90544
           32784         64.3477         64.2017         47.3776         16.4909
           32785         64.2017         64.0458         46.9903         16.5473
           32786         82.3877         94.5577         41.4169        -3.97951
           32787         81.9811         94.0672         41.7174        -4.32664
           32788         73.5343         84.5728         41.8135        -3.77096
           32789         81.4787         93.4729         41.8868        -4.55941
           32790         85.6589         98.2376         39.1873     530.667E-03
           32791         85.7116         98.2888         39.1081     274.879E-03
           32792         76.3957         88.0337         39.1570     276.620E-03
           32793         76.5893         88.2772         39.5479     254.734E-03
           32794         76.4550         88.1044         39.1979     73.1809E-03
           32795         76.6127         88.3046         39.5448     33.6066E-03
           32796         75.0481         84.1851         47.8771         9.71974
           32797         61.0190         52.9023         61.4574         11.5309
           32798         61.0987         53.1986         62.0717         10.8350
           32799         61.2900         53.3301         63.6057         9.28759
           32800         62.8620         57.3626         63.8056         9.12993
           32801         62.8144         58.5297         62.8911         9.04844
           32802         77.3213         86.1377         46.0210         11.6203
           32803         77.4981         86.5853         45.8717         11.2033
           32804         68.8644         77.6769         45.3968        -7.61620
           32805         79.0809         90.4413         43.2782        -6.19925
           32806         78.5824         89.7495         43.6430        -6.64459
           32807         61.9221         60.8409         53.2060         13.4034
           32808         61.9940         61.6084         53.0577         12.9272
           32809         61.6270         60.2654         53.9563         12.9921
           32810         65.7043         68.5172         52.5621         12.3973
           32811         74.8401         85.9137         42.9610         4.66062
           32812         75.4169         86.6563         42.8718         4.30202
           32813         81.3606         93.2226         42.5251         5.32335
           32814         73.5896         84.1569         43.6405         5.80800
           32815         73.2073         83.7815         43.4008         5.55326
           32816         59.0834         49.7864         55.0679        -15.5061
           32817         58.6945         49.0776         54.6611        -15.6122
           32818         85.0567         97.4753         38.3879     694.029E-03
           32819         62.7124         57.5445         62.7852        -9.87309
           32820         61.6753         51.5650         64.6010        -10.0457
           32821         63.9901         68.0668         49.8551         11.0994
           32822         64.4666         68.9852         49.3563         11.0422
           32823         67.2068         73.5660         50.9187         9.27322
           32824         69.3201         76.1700         49.1196         10.5216
           32825         69.8981         76.9902         48.6965         10.5841
           32826         69.9055         77.2888         48.6367         10.1122
           32827         82.7949         94.2046         45.2449         8.07596
           32828         83.0867         94.6656         45.0151         7.67769
           32829         82.6338         94.1173         44.8374         7.74287
           32830         81.1851         91.9851         45.3448        -9.03081
           32831         68.3353         73.2560         47.0281         13.3756
           32832         67.7694         72.2370         47.1399         13.6330
           32833         67.8758         72.3038         47.0234         13.7605
           32834         67.4046         71.2959         46.8499         14.2076
           32835         88.4656         101.793         44.5121        -2.16111
           32836         88.5210         101.857         44.8236        -2.42427
           32837         88.1929         101.446         44.4133        -2.56069
           32838         88.1384         101.384         44.1015        -2.29683
           32839         88.6963         102.084         44.7969        -2.01482
           32840         88.3773         101.686         44.2321        -1.98989
           32841         88.6079         101.976         44.5157        -1.84495
           32842         62.8149         54.7274         64.8770        -9.86827
           32843         61.4571         55.5472         57.0327         14.2216
           32844         61.2040         54.5088         57.6840         14.0424
           32845         61.1156         54.9730         56.3026         14.5857
           32846         65.7451         66.7652         46.9871        -16.2700
           32847         66.4884         68.0991         46.7979        -16.1252
           32848         66.6294         68.2788         47.2921        -16.0206
           32849         67.3082         69.4948         47.0949        -15.8723
           32850         80.0819         92.4020         45.7125        -1.75946
           32851         79.7471         91.9785         45.4196        -2.17920
           32852         79.7292         91.9862         45.1857        -1.82578
           32853         80.4575         92.8410         46.3281        -1.71404
           32854         80.0749         92.4178         45.5237        -1.38190
           32855         73.3049         79.7114         46.4470         13.7202
           32856         72.5171         78.4189         46.4947         14.0654
           32857         60.0851         51.0868         57.4945         14.5139
           32858         59.8831         51.4279         56.0849         15.0552
           32859         60.1340         51.7813         56.8351         14.6919
           32860         60.1016         50.4483         58.3179         14.2388
           32861         62.8277         59.2232         62.4710         8.88904
           32862         61.0610         53.8913         62.4379         9.84104
           32863         60.9310         54.3561         61.5683         10.2301
           32864         60.8799         54.6833         61.5522         9.88765
           32865         66.7365         70.6389         51.3871        -12.2908
           32866         64.9696         71.4035         48.2081        -8.95924
           32867         65.1848         71.3634         48.2676        -9.50613
           32868         70.6347         78.6359         48.0424        -9.58196
           32869         70.2682         77.9636         48.3519        -9.85033
           32870         75.3906         85.8661         44.7813         7.08490
           32871         79.2609         90.3740         43.8659         7.18681
           32872         78.7502         89.8565         43.7934         6.94387
           32873         75.9423         87.4808         41.5538        -2.75546
           32874         85.1387         97.7277         40.3346        -2.06665
           32875         64.6784         66.6273         45.6582        -15.2918
           32876         62.3232         46.5307         67.2338        -10.4422
           32877         71.0049         76.0675         45.3281         14.7058
           32878         66.5186         70.1093         45.8030         14.4074
           32879         66.9811         70.8827         45.9536         14.2325
           32880         67.0167         71.1468         45.8304         14.0194
           32881         61.9624         51.1457         64.2598        -11.2656
           32882         64.6472         70.3995         48.7453         9.63869
           32883         64.1942         69.7827         49.0868         9.43690
           32884         63.9754         69.0242         49.4874         9.92192
           32885         63.6642         68.9369         49.5701         9.32483
           32886         69.9265         78.0439         48.3970         8.82580
           32887         70.5088         78.7047         48.0418         9.13167
           32888         70.3923         78.7279         48.0481         8.77684
           32889         68.9173         76.4790         49.2380         8.97879
           32890         83.6688         95.3926         45.2350        -7.51887
           32891         83.9827         95.8434         45.1212        -7.20595
           32892         84.4229         96.3744         45.4278        -7.15550
           32893         84.1095         95.9255         45.5426        -7.46690
           32894         73.5438         83.1143         45.5527         8.40113
           32895         73.5726         82.9514         45.8558         8.81366
           32896         63.0701         61.9602         58.7849        -10.4154
           32897         63.1637         61.8721         57.8384        -11.4717
           32898         62.9523         61.0925         58.9775        -10.8849
           32899         60.8979         54.1213         60.3981        -11.5518
           32900         60.8439         54.2142         59.6195        -12.1181
           32901         60.8946         53.4116         60.2936        -12.1163
           32902         70.5305         75.2264         45.4114         14.9385
           32903         70.0979         74.4557         45.5746         15.1251
           32904         89.8177         103.509         46.1520     261.453E-03
           32905         60.9024         49.8967         61.9468         12.5560
           32906         60.9334         50.6193         61.7278         12.4481
           32907         60.9979         48.8082         62.8397        -12.3391
           32908         60.6768         48.9580         61.7414        -12.8521
           32909         64.9120         66.8392         45.9837        -15.3308
           32910         61.7958         53.6076         61.6910        -12.1966
           32911         64.9182         66.6157         46.4411         15.4234
           32912         65.4724         67.6897         46.4185         15.1890
           32913         70.4359         74.9175         45.8849        -15.0636
           32914         62.0515         52.5617         63.5193         11.4256
           32915         61.9508         53.1727         62.6904         11.7458
           32916         62.1600         53.7512         63.0018         11.4290
           32917         62.2631         53.1419         63.8348         11.1064
           32918         81.2377         93.8037         47.3132     120.761E-03
           32919         80.8829         93.3951         46.6398    -147.402E-03
           32920         70.2642         78.8290         48.0076         8.22005
           32921         70.0149         78.3605         48.2421         8.45961
           32922         70.6446         79.2018         47.8074         8.53638
           32923         70.1394         78.9309         47.9347         7.64286
           32924         69.8818         78.4594         48.1960         7.87743
           32925         70.5181         79.2979         47.7552         7.97846
           32926         63.1180         62.5595         58.7051        -9.94098
           32927         63.6975         65.7830         56.6496        -9.08062
           32928         60.7094         56.8888         58.4937        -10.8845
           32929         60.8157         56.5619         58.0953        -11.6935
           32930         60.7532         56.2411         58.8079        -11.2092
           32931         76.1301         87.7449         39.6178         1.05129
           32932         79.3143         89.5273         45.2869        -9.64587
           32933         78.4136         88.4001         45.2998        -9.77336
           32934         79.0750         89.3297         45.1691        -9.44727
           32935         80.0988         90.6091         45.2087        -9.27891
           32936         75.7967         86.6818         44.6254         6.00542
           32937         84.4015         96.6258         43.9116         5.82611
           32938         84.3323         96.4789         44.2585         6.19044
           32939         72.1275         80.8772         45.8853        -9.43173
           32940         71.4538         80.0778         45.8063        -9.36366
           32941         71.9948         80.8943         45.6933        -9.08857
           32942         64.2197         65.2348         55.0232         11.9788
           32943         64.1566         65.5621         55.3868         11.2733
           32944         87.4717         100.492         44.8988         4.02775
           32945         87.8781         101.003         45.2677         3.82501
           32946         87.5729         100.639         44.6507         3.68604
           32947         63.3862         62.5957         47.0802         16.6339
           32948         63.2253         62.5654         46.4087         16.6616
           32949         60.5082         54.1884         54.7929        -15.1848
           32950         60.3199         55.0115         52.0574        -15.9792
           32951         68.4957         73.6236         47.0115        -13.1947
           32952         69.0640         74.6696         46.9444        -12.8559
           32953         69.3112         74.9420         46.8543        -12.9585
           32954         69.8926         75.9784         46.8419        -12.6105
           32955         76.3664         84.4037         46.1840        -12.5564
           32956         78.7808         90.7128         44.9705         3.39885
           32957         78.4569         90.3267         44.6191         3.46417
           32958         78.7459         90.6067         45.3036         3.81824
           32959         78.0386         89.6452         45.1596         4.57171
           32960         70.9065         78.2179         46.5925        -11.3019
           32961         71.3787         79.0591         46.5138        -10.9298
           32962         77.6689         86.7450         45.9145        -11.2912
           32963         60.5329         55.7464         51.3381        -16.1542
           32964         86.8347         99.6794         44.6557         4.52398
           32965         86.2980         99.0285         44.1402         4.60015
           32966         85.8879         98.5553         39.7983    -816.436E-03
           32967         77.1021         88.9047         41.4119        -1.57610
           32968         76.8367         88.5915         40.9841        -1.48013
           32969         60.9720         53.7359         61.2674         11.0846
           32970         60.9792         53.9863         61.5901         10.5770
           32971         61.1136         53.4535         62.3917         10.3268
           32972         60.7956         56.8983         57.9632         11.5032
           32973         70.4927         78.0180         48.2472        -10.3079
           32974         72.3171         80.6714         47.1290        -10.0449
           32975         71.6964         79.9760         47.4172        -9.79897
           32976         59.4363         51.1909         54.3974        -15.6817
           32977         62.7218         57.0289         63.2077         9.85188
           32978         62.6137         56.8281         62.6548         10.4239
           32979         86.1157         98.8593         40.3478        -1.08789
           32980         79.0083         91.0152         45.0419         3.12327
           32981         79.1295         91.0987         45.5498         3.52375
           32982         79.3560         91.4021         45.6242         3.24558
           32983         76.0724         84.0888         46.1707        -12.4738
           32984         75.1755         82.7632         46.2703        -12.7821
           32985         75.2844         83.0920         46.2547        -12.4813
           32986         60.9420         55.1051         55.0201        -15.0779
           32987         87.2440         100.228         44.3981         3.85807
           32988         87.5954         100.681         44.3805         3.41253
           32989         72.0677         82.3082         43.6931        -5.95369
           32990         71.6452         81.9266         43.4215        -5.56824
           32991         80.7239         92.6032         42.0435        -4.71522
           32992         76.0137         86.4240         44.7859        -7.61094
           32993         75.6302         85.7814         45.1210        -8.08548
           32994         75.0264         85.1377         45.2489        -7.86268
           32995         74.0619         83.8379         45.7588        -8.14092
           32996         85.9542         98.6108         39.5743     341.253E-03
           32997         72.4739         81.0422         46.2043         9.90438
           32998         73.0683         81.8729         46.2695         9.71513
           32999         70.0515         76.8793         46.6954         11.6366
           33000         77.6633         89.2724         44.4757        -4.25800
           33001         77.9872         89.6595         44.7582        -4.19831
           33002         77.9599         89.5652         45.0270        -4.51807
           33003         77.6331         89.1747         44.7405        -4.57443
           33004         76.9668         87.6334         46.7720        -7.19800
           33005         76.5336         87.1443         46.2840        -7.17486
           33006         76.1036         86.9355         45.1391        -6.34077
           33007         86.7302         99.5600         44.4610        -4.46096
           33008         85.1672         97.3556         45.6039        -6.71853
           33009         84.2585         96.3513         44.4321        -6.39766
           33010         76.4874         85.0011         46.0595         11.8149
           33011         79.8592         90.1435         45.4283         9.71230
           33012         80.7955         91.3438         45.5587         9.48936
           33013         62.8457         64.5638         51.5231        -12.2881
           33014         73.6562         84.4537         42.9868         5.01127
           33015         74.2469         85.1347         43.1402         5.04462
           33016         74.3636         85.3525         42.8494         4.69467
           33017         82.2101         94.2925         41.9798         4.60106
           33018         82.6206         94.7936         41.7175         4.26367
           33019         81.8160         93.7952         42.2489         4.96950
           33020         85.3794         97.9605         43.0482         4.36883
           33021         85.6443         98.2719         43.2702         4.37878
           33022         60.6886         56.9272         49.1878         16.5639
           33023         60.2136         56.4738         48.2477         16.6661
           33024         76.0325         84.9736         45.9212        -10.8592
           33025         69.6518         76.7456         46.6132        -11.0462
           33026         70.1034         77.5397         46.4645        -10.7389
           33027         67.0716         74.1026         47.0944        -9.64955
           33028         66.5909         73.2681         47.4417        -9.85534
           33029         62.6600         58.3976         61.4841        -10.4281
           33030         62.6276         57.6198         62.0080        -10.4893
           33031         62.7513         59.6494         60.4441        -10.5141
           33032         60.9324         52.6197         60.8839        -12.1212
           33033         60.9960         51.8304         61.4550        -12.1469
           33034         61.3746         52.0009         63.3950        -10.6523
           33035         65.7348         68.1796         47.6268         14.7362
           33036         65.2229         67.1240         47.7636         14.9791
           33037         65.3239         67.2546         47.4403         15.0999
           33038         65.8387         68.3104         47.3037         14.8562
           33039         66.4226         69.4249         46.9604         14.6866
           33040         66.3441         69.3143         47.2206         14.6099
           33041         88.6081         101.981         44.0154    -936.651E-03
           33042         88.6050         101.978         43.9262    -659.307E-03
           33043         88.9346         102.392         44.5747    -886.768E-03
           33044         62.8300         53.8685         65.3695        -9.89921
           33045         62.5482         54.8055         63.8197        -10.5412
           33046         62.4584         56.8286         61.6058        -11.2139
           33047         61.4990         55.0218         58.3221         13.6900
           33048         61.3162         54.0534         59.0001         13.4915
           33049         68.0887         70.8825         47.3389        -15.5592
           33050         68.0509         70.8816         47.7748        -15.3909
           33051         68.8308         72.1951         47.1154        -15.3535
           33052         79.5287         91.8047         44.4073    -706.499E-03
           33053         79.6240         91.9048         44.6832        -1.07964
           33054         62.9977         62.2578         48.1722        -16.0335
           33055         63.4553         63.2894         47.9111        -15.8936
           33056         63.3462         63.1335         47.5474        -15.9998
           33057         62.8843         62.0990         47.8069        -16.1391
           33058         61.0396         50.3058         62.2561        -12.2635
           33059         61.2838         50.1296         63.2524        -11.7286
           33060         61.0157         51.0667         61.8731        -12.1995
           33061         62.1602         49.7886         66.0923        -10.1232
           33062         62.0886         50.2112         65.8975        -10.0025
           33063         60.6454         52.0488         59.4055         13.3136
           33064         62.8376         61.4815         47.4599         16.6739
           33065         69.6166         75.6803         46.8460        -12.5132
           33066         70.1719         76.6708         46.8002        -12.1605
           33067         70.4132         77.3354         46.7009        -11.6607
           33068         78.4344         89.6344         43.5535         6.44501
           33069         75.4501         85.5855         45.1476         8.03148
           33070         74.8948         85.0796         45.2098         7.59838
           33071         74.1871         84.0400         45.6585         8.03001
           33072         74.7440         84.5442         45.5951         8.46252
           33073         75.9650         86.0047         45.1940         8.52972
           33074         76.7290         87.0542         44.8243         8.20229
           33075         68.9645         77.2723         45.8829         8.66660
           33076         69.6359         77.9809         45.8519         8.96883
           33077         70.0554         78.7642         45.5193         8.50971
           33078         63.3903         66.3164         50.6925         11.7257
           33079         63.7350         67.3112         50.1920         11.4106
           33080         64.3851         68.5096         49.5213         11.4338
           33081         69.0391         75.5362         49.3660         10.8411
           33082         68.7593         74.8614         49.5921         11.2066
           33083         69.6664         76.3602         48.8861         11.0398
           33084         80.9639         93.4715         46.9139     900.693E-03
           33085         80.8525         93.3255         46.8357         1.27337
           33086         62.5904         53.2862         64.8570         10.4514
           33087         62.7390         53.7599         65.1031         10.1255
           33088         62.8887         53.2952         65.8127         9.84542
           33089         64.3220         65.4422         46.4758         15.6644
           33090         71.1851         76.1250         45.9534        -14.8187
           33091         71.2089         76.1493         46.1518        -14.7922
           33092         71.7445         77.0340         46.1197        -14.5922
           33093         60.8514         52.2944         59.4626        -13.4406
           33094         61.0990         53.2424         59.1682        -13.5119
           33095         61.5179         48.2613         64.6054         11.5381
           33096         61.9109         48.8699         65.5023         10.8817
           33097         81.8310         92.7940         45.5223         8.89764
           33098         81.1020         91.8661         45.3488         9.08574
           33099         81.5184         92.2726         45.7328         9.29905
           33100         76.1003         86.4594         46.3747        -7.63621
           33101         75.6740         85.9704         46.0065        -7.62136
           33102         76.1056         86.6530         45.9146        -7.16026
           33103         76.5624         87.0152         46.7617        -7.58236
           33104         84.6279         96.6902         45.2194        -6.83994
           33105         84.9612         97.0404         45.8104        -7.03412
           33106         84.5378         96.4404         45.9060        -7.43238
           33107         73.8923         83.1687         46.2119         9.14474
           33108         73.4054         82.5277         46.0876         9.25488
           33109         73.5570         82.5227         46.3897         9.60617
           33110         68.3619         71.4017         46.2580         15.6871
           33111         89.6130         103.250         45.7954     612.183E-03
           33112         60.7622         49.7230         61.5335        -12.8182
           33113         65.5364         67.7571         46.5846        -15.1691
           33114         65.6085         67.8378         46.8306        -15.1249
           33115         66.0982         68.7968         46.7559        -14.9055
           33116         61.3058         54.1544         58.7930        -13.5768
           33117         63.8335         64.4445         46.5815         15.8504
           33118         63.3502         63.3968         46.7907         16.0323
           33119         70.6678         75.2717         46.0701        -14.9825
           33120         62.1015         54.4302         62.1825         11.7173
           33121         76.5691         88.2699         40.9628        -1.74005
           33122         76.0529         87.5678         42.0668        -3.16201
           33123         76.4397         88.0734         41.7512        -2.58938
           33124         85.3512         97.9641         40.1489        -1.73860
           33125         85.0961         97.6326         39.5472         1.45478
           33126         85.4311         98.0203         39.6378         1.24524
           33127         76.1171         87.7358         39.9378         1.31449
           33128         76.4002         88.0735         40.2143         1.24789
           33129         76.4134         88.0826         39.8942     984.890E-03
           33130         76.6707         88.3936         40.2097     898.006E-03
           33131         63.8382         63.6906         55.3840         12.6343
           33132         64.0143         64.4467         55.2380         12.2898
           33133         63.5546         63.0840         56.2834         12.1430
           33134         64.3076         64.9785         54.4908         12.7114
           33135         64.0782         64.1807         54.6415         13.0140
           33136         64.3630         64.6951         53.9064         13.4005
           33137         64.5986         65.4932         53.7548         13.0972
           33138         81.8427         92.8914         45.3049        -8.66648
           33139         80.8520         91.6642         45.0650        -8.84513
           33140         81.5090         92.5645         45.0265        -8.48508
           33141         82.2079         93.7006         44.4086         7.46829
           33142         82.3190         93.9281         44.1465         7.10903
           33143         81.7988         93.3011         44.0659         7.20033
           33144         81.6884         93.0721         44.3244         7.55630
           33145         74.0382         83.5601         45.9596        -8.70762
           33146         62.7284         55.0008         64.4142         10.0565
           33147         62.6275         55.8441         63.4994         10.2880
           33148         62.7939         56.2228         64.0393         9.68688
           33149         63.0595         65.3552         51.1530         11.9955
           33150         67.5305         72.3855         50.6651         11.8488
           33151         67.8719         73.2706         50.3553         11.4300
           33152         60.9389         59.3490         56.0171        -11.2233
           33153         61.0084         58.9282         56.0574        -11.6965
           33154         61.0177         58.0386         56.2464        -12.3219
           33155         64.7766         66.4923         53.9338        -12.2761
           33156         64.4047         66.1071         54.8254        -11.4940
           33157         64.7675         66.9281         54.1354        -11.6619
           33158         83.9572         96.3701         41.2006        -3.39797
           33159         84.3512         96.8213         41.4585        -3.46523
           33160         78.2224         88.2542         45.2285        -9.59056
           33161         77.8245         87.5796         45.4299        -10.0222
           33162         70.7181         78.8319         46.0976        -9.92574
           33163         70.0387         78.0228         46.1278        -9.81663
           33164         70.2362         78.5088         45.9299        -9.41344
           33165         70.9160         79.3144         45.9012        -9.52205
           33166         85.6484         98.2481         43.6145         4.68235
           33167         85.1413         97.6501         43.2260         4.69132
           33168         84.8186         97.2175         43.4548         5.13848
           33169         75.2691         85.9633         44.6486         6.33497
           33170         74.6919         85.1963         44.5958         6.61012
           33171         80.4156         91.2208         44.8585        -8.66352
           33172         79.6652         90.1721         45.0046        -9.09742
           33173         72.6765         81.9550         45.5126        -8.63769
           33174         72.5611         81.6231         45.7254        -9.02261
           33175         72.1058         81.2254         45.4827        -8.70532
           33176         83.6992         95.7584         43.7921         6.09934
           33177         82.9730         94.8983         43.5730         6.19760
           33178         82.8771         94.7050         43.8816         6.57732
           33179         64.7706         70.5361         48.6757        -9.72905
           33180         84.3368         96.7759         39.5346         1.83718
           33181         84.7471         97.2359         39.5197         1.65023
           33182         84.8375         97.3627         39.9002         1.88538
           33183         85.1843         97.7594         39.9280         1.69027
           33184         77.4520         89.3376         41.1410    -387.649E-03
           33185         77.6961         89.6320         41.5277    -385.760E-03
           33186         86.6174         99.4736         40.8058    -719.053E-03
           33187         86.6301         99.4833         40.7092    -409.701E-03
           33188         86.8901         99.8119         41.0947    -383.043E-03
           33189         79.2241         91.3616         44.6864         2.25590
           33190         79.5785         91.8016         45.0153         1.94138
           33191         62.2828         60.6037         48.5229         16.2536
           33192         62.4901         60.9410         49.2760         15.9794
           33193         66.7580         70.0568         46.7476        -14.5868
           33194         66.8452         70.2333         46.9368        -14.4803
           33195         67.6929         72.3222         47.2774        -13.3652
           33196         67.1554         71.2768         47.4604        -13.6602
           33197         89.1838         102.703         45.2729         1.39506
           33198         88.8549         102.288         44.7136         1.49970
           33199         88.8277         102.249         44.9093         1.87362
           33200         60.8359         56.3064         57.9585         12.0394
           33201         62.7876         59.9554         59.0403         11.5710
           33202         62.7934         59.9409         58.3909         12.1190
           33203         62.9671         60.7825         57.8722         12.0938
           33204         73.9886         85.1435         41.5837        -3.47706
           33205         74.1425         85.2771         41.8972        -3.76030
           33206         74.2210         85.1776         42.8558        -4.73526
           33207         74.5007         85.5935         42.5216        -4.30435
           33208         74.5943         85.6401         42.8318        -4.60596
           33209         71.0759         81.1672         43.6932        -5.80288
           33210         83.1918         95.4160         42.0907        -4.51539
           33211         74.1206         83.3213         46.5188         9.37069
           33212         77.1197         88.4804         44.6936        -5.02167
           33213         86.2990         99.0655         43.6830        -4.19541
           33214         63.5738         65.6028         50.5469        -12.8961
           33215         63.8379         66.2319         50.2463        -12.8040
           33216         63.7285         65.6036         50.3408        -13.2391
           33217         68.8224         73.9278         49.3693        -12.6969
           33218         60.7628         56.8082         49.8331         16.4573
           33219         60.6207         57.7476         47.0687        -16.7603
           33220         67.5163         74.7312         46.8757        -9.65133
           33221         66.9713         73.6391         47.3139        -10.1322
           33222         75.8260         85.7516         45.3076        -8.73065
           33223         74.7372         83.7610         46.0878        -10.0998
           33224         73.9297         82.4095         46.5074        -10.7082
           33225         73.9090         82.6423         46.4146        -10.2354
           33226         67.6334         72.1395         47.2834         13.4840
           33227         67.1109         71.1637         47.4378         13.7247
           33228         67.2475         71.2625         47.2940         13.8739
           33229         66.7887         70.2727         47.2912         14.2514
           33230         67.3247         71.2897         47.1338         14.0114
           33231         66.7122         70.2465         47.4519         14.1137
           33232         66.0682         68.7970         46.4894         14.9337
           33233         66.4868         69.5374         46.7595         14.7211
           33234         89.5188         103.129         45.6798    -866.372E-03
           33235         89.2125         102.743         45.0917    -887.723E-03
           33236         87.8429         101.017         43.6858        -2.34052
           33237         88.1765         101.436         43.9115        -1.98859
           33238         88.9495         102.404         45.0522        -1.75222
           33239         88.9049         102.341         45.2946        -2.18488
           33240         61.7067         54.0488         60.8068         12.5898
           33241         61.6719         53.2789         61.5181         12.3548
           33242         61.4582         53.6002         60.2713         12.9364
           33243         61.7164         56.5949         56.3279         14.3871
           33244         61.4532         56.0594         55.8092         14.6947
           33245         61.7796         57.2100         54.9826         14.9020
           33246         61.7001         56.0144         57.6455         13.8475
           33247         61.9543         57.0638         56.9400         14.0131
           33248         66.0190         67.1587         47.5556        -16.1291
           33249         65.1999         65.7327         47.3118        -16.3480
           33250         65.4742         66.1266         47.8838        -16.2037
           33251         66.7445         68.4604         47.8076        -15.8678
           33252         79.3644         91.5525         44.6790        -1.92505
           33253         79.6770         91.9477         44.9190        -1.47507
           33254         61.8791         59.9878         47.8147        -16.4574
           33255         62.1746         60.5076         48.0683        -16.3549
           33256         62.3887         61.1073         47.6650        -16.3195
           33257         62.5678         61.3642         48.0378        -16.2207
           33258         61.7098         51.0095         64.6726        -10.3683
           33259         61.7771         50.4703         64.8799        -10.5557
           33260         61.3383         49.4097         63.6496        -11.7573
           33261         61.0186         49.5464         62.5564        -12.3095
           33262         61.8818         49.8060         65.2833        -10.6194
           33263         61.5891         49.9802         64.3054        -11.1656
           33264         73.1847         79.6643         46.5708         13.5497
           33265         72.3658         78.3062         46.7365         13.9093
           33266         71.5626         76.9497         46.8214         14.2664
           33267         60.2329         52.4624         56.3753         14.7773
           33268         60.3654         52.6506         56.9100         14.4855
           33269         63.5289         65.0449         50.5421         13.3926
           33270         63.3508         64.9875         50.8350         13.0307
           33271         63.0656         64.1983         51.1884         13.1883
           33272         63.2422         64.2537         50.8956         13.5512
           33273         63.3779         65.6100         50.8053         12.4397
           33274         63.7143         66.5736         50.3476         12.1712
           33275         68.4674         74.0818         49.8190         11.6679
           33276         68.1526         74.0445         50.1320         10.9693
           33277         67.3150         71.3014         50.6341         12.8309
           33278         67.9041         72.2026         50.0445         12.9954
           33279         68.1237         72.8264         49.9588         12.6437
           33280         67.5267         71.9284         50.5485         12.4751
           33281         60.8835         56.8448         57.3158        -12.2266
           33282         60.8144         55.7791         58.5101        -11.9344
           33283         63.9686         64.9340         55.7561        -11.3619
           33284         76.6545         88.3543         41.4670        -2.13725
           33285         76.8027         88.5127         41.8581        -2.38330
           33286         75.0107         86.3021         42.0037        -3.61727
           33287         75.4586         86.8204         42.1924        -3.61376
           33288         74.9376         86.1581         42.3516        -3.98734
           33289         74.5023         85.7547         41.5286        -3.33544
           33290         74.5343         85.7406         41.9207        -3.69056
           33291         85.4706         98.1266         40.6747        -2.09963
           33292         85.8099         98.5326         41.0202        -2.14853
           33293         85.5414         98.2216         41.1653        -2.48922
           33294         85.8410         98.5782         41.5046        -2.57127
           33295         85.5605         98.2454         41.6333        -2.90951
           33296         83.4013         95.6892         41.7959        -4.15815
           33297         83.6520         96.0040         41.5036        -3.77915
           33298         84.1270         96.5438         41.7307        -3.83135
           33299         82.7622         95.0114         41.0453        -3.53371
           33300         83.2157         95.5133         41.2639        -3.67881
           33301         82.8445         95.0610         41.6336        -4.12321
           33302         75.0203         85.7815         44.2129         5.98446
           33303         77.3566         86.7775         45.6485        -10.5071
           33304         77.1943         86.7069         45.5618        -10.2554
           33305         70.3406         78.0731         46.3047        -10.3830
           33306         84.3603         96.6429         43.4972         5.43151
           33307         83.6609         95.7862         43.3781         5.70119
           33308         60.8014         55.5956         59.2179        -11.4226
           33309         60.8351         55.0271         59.0188        -12.0739
           33310         60.8320         54.8452         59.7278        -11.5601
           33311         63.3194         62.2889         56.8786        -12.0715
           33312         63.0543         61.0463         57.3469        -12.4009
           33313         61.9125         53.8197         61.9434         12.0191
           33314         65.1269         67.0997         46.2610        -15.3097
           33315         62.8002         53.0516         65.6370        -10.0552
           33316         70.9484         79.8050         47.5072         8.14887
           33317         71.1928         79.7784         47.5406         8.87760
           33318         72.5561         82.1751         46.3437         7.57615
           33319         72.6933         82.0109         46.5134         8.35943
           33320         73.0811         82.6724         46.1796         7.98619
           33321         66.0416         73.6804         46.9707         7.90063
           33322         66.4326         73.7763         47.0851         8.70048
           33323         64.8117         71.0047         48.4343         9.16639
           33324         65.1922         71.1437         48.3778         9.83134
           33325         80.6004         93.0434         46.3158         1.09098
           33326         65.1563         66.9234         47.0221        -15.3014
           33327         64.7216         66.0125         47.3178        -15.4469
           33328         65.3588         67.3170         47.2833        -15.1377
           33329         65.8146         68.2309         47.0913        -14.9621
           33330         60.3390         51.3392         58.4332        -14.0304
           33331         60.5521         51.6919         59.1775        -13.5588
           33332         60.4593         52.0585         58.2951        -13.9246
           33333         69.9605         74.0984         46.6844         15.0964
           33334         68.7919         72.0986         46.6247         15.5116
           33335         89.3395         102.902         45.3903         1.02059
           33336         60.8129         51.4969         60.7048         12.7452
           33337         60.9552         51.3465         61.4543         12.3546
           33338         70.3663         79.4290         45.1786         7.95479
           33339         60.8493         55.9392         52.4672        -15.8704
           33340         61.0686         56.6708         51.7484        -16.0470
           33341         61.8705         61.5033         53.3853        -12.6318
           33342         62.2364         62.2338         52.5624        -13.0214
           33343         62.1321         61.3749         52.7288        -13.5330
           33344         61.7768         60.6468         53.5513        -13.1443
           33345         76.4227         87.0786         44.4417        -7.13202
           33346         77.8996         88.4391         44.6005        -8.20760
           33347         78.3486         89.1287         44.2938        -7.75670
           33348         69.5081         78.2748         45.4408        -8.09210
           33349         70.0864         79.1255         45.1790        -7.85137
           33350         70.2429         79.0970         45.3879        -8.32115
           33351         69.6738         78.2466         45.6457        -8.56364
           33352         74.0376         84.0221         45.1967        -7.67310
           33353         74.1910         84.3645         44.9462        -7.27172
           33354         74.6798         84.9658         45.0888        -7.20840
           33355         83.5129         95.2537         44.9610         7.35636
           33356         83.4296         95.0282         45.4066         7.81616
           33357         82.2035         93.5256         44.8964        -8.03452
           33358         82.5169         93.9701         44.8205        -7.77941
           33359         82.9326         94.4560         45.0295        -7.77880
           33360         62.1869         60.9009         52.2910        -14.2420
           33361         68.7875         74.4019         47.0052        -12.7000
           33362         63.9304         63.3756         47.6825         16.5219
           33363         63.3807         62.2681         48.0629         16.5585
           33364         61.3475         57.3245         51.5255         16.0853
           33365         87.0284         99.9454         44.4850         4.16345
           33366         86.7321         99.5851         44.1267         4.18154
           33367         61.3163         56.8219         52.7987        -15.7414
           33368         61.7320         57.6337         53.1637        -15.5653
           33369         61.5713         57.6003         52.1059        -15.9114
           33370         62.6192         60.4289         49.6048        -16.3956
           33371         77.9969         89.7645         44.2503         3.64554
           33372         78.3782         90.2800         44.2376         3.13434
           33373         76.6579         88.1188         43.5112         4.18045
           33374         76.6614         88.0687         43.7925         4.46587
           33375         70.5721         77.8719         48.2428         10.7359
           33376         82.6886         94.9508         40.4606        -2.97004
           33377         66.3721         69.9367         51.7793         12.3057
           33378         66.8260         70.5760         51.2125         12.6016
           33379         67.1122         71.4003         51.0044         12.1974
           33380         66.1265         69.1479         51.9523         12.7101
           33381         66.5657         69.8087         51.3333         12.9890
           33382         62.1821         60.4901         51.8155         14.7992
           33383         62.5047         63.2231         52.0994         12.7700
           33384         72.6131         80.9171         47.0144        -10.3120
           33385         73.1810         81.6992         46.7357        -10.2428
           33386         73.2161         81.4433         46.8035        -10.7836
           33387         72.6470         80.6558         47.0758        -10.8480
           33388         79.8350         92.1458         45.0673         1.22201
           33389         79.9972         92.3167         45.4763         1.56028
           33390         80.3168         92.6998         45.9284         1.37423
           33391         61.4300         55.1809         57.6764        -13.9615
           33392         61.5968         55.8756         57.2348        -14.0746
           33393         62.5231         61.2968         47.9565         16.2439
           33394         68.1450         70.9700         46.9046         15.6607
           33395         66.1062         67.3475         47.2730         16.1589
           33396         66.6902         68.3846         47.3664         15.9863
           33397         66.4418         69.4845         47.1024        -14.6135
           33398         66.2691         69.1149         46.9123        -14.7908
           33399         66.7017         70.0604         47.2360        -14.3618
           33400         60.1663         50.5592         58.4854        -14.1443
           33401         60.2658         51.7938         57.5220        -14.3744
           33402         74.5587         85.7149         42.2514        -4.01482
           33403         65.1808         67.4855         53.3602        -12.2197
           33404         62.6059         62.9858         51.9005        -13.2616
           33405         62.6852         63.8467         51.7794        -12.6209
           33406         64.3527         64.0606         48.0015         16.4152
           33407         74.3795         81.5620         46.3731        -13.0609
           33408         74.4722         81.8955         46.4272        -12.7270
           33409         74.5068         82.1579         46.4309        -12.3852
           33410         62.6230         59.0026         59.2392         11.9208
           33411         62.5503         58.7061         58.8106         12.3825
           33412         60.8831         54.4869         60.6769         10.9900
           33413         74.0437         83.5115         45.9873         8.83048
           33414         74.5037         83.8931         45.9425         9.24291
           33415         75.1998         84.9249         45.5496         8.87534
           33416         75.6323         85.2663         45.5697         9.28909
           33417         67.0317         74.4767         46.8411         8.96194
           33418         67.6332         75.1474         46.6691         9.24068
           33419         67.9668         75.8562         46.3294         8.81837
           33420         69.0824         77.0534         46.1444         9.33507
           33421         69.4760         77.4272         46.1551         9.57969
           33422         70.0247         78.3487         45.8684         9.21525
           33423         70.8130         75.6479         46.9401         14.5993
           33424         70.5852         75.4605         47.2872         14.3785
           33425         60.3680         53.1158         56.1290         14.7634
           33426         60.1285         52.4586         55.7098         15.0821
           33427         60.2732         53.1199         55.4859         15.0539
           33428         60.5003         53.4491         56.6236         14.4191
           33429         79.4038         91.5725         44.9445        -2.24465
           33430         62.1831         60.3821         48.5822        -16.2685
           33431         61.6481         59.2887         48.3140        -16.4881
           33432         62.5705         61.2419         48.5493        -16.1320
           33433         63.2674         62.8225         48.5057        -15.8171
           33434         67.3850         69.6301         47.5504        -15.7298
           33435         67.4047         69.7051         48.0405        -15.5497
           33436         87.8113         100.972         43.9637        -2.69728
           33437         88.2356         101.512         43.8395        -1.75374
           33438         88.4344         101.760         44.1618        -1.75489
           33439         68.1782         73.1391         47.1175         13.2290
           33440         66.7031         70.3621         47.5819         13.9332
           33441         85.4908         98.1158         40.0206         1.52375
           33442         83.6666         95.3080         45.5773        -7.81200
           33443         82.7053         94.0124         45.4847         8.34883
           33444         78.5176         90.2251         45.6113        -4.44734
           33445         58.9010         49.7770         54.4093         15.7007
           33446         58.8297         48.8818         55.3922         15.3935
           33447         61.0199         58.5988         47.0550        -16.6614
           33448         61.4372         59.2253         47.4584        -16.5865
           33449         85.2030         97.7460         43.0172        -4.45533
           33450         85.7770         98.4333         43.3289        -4.32775
           33451         85.0231         97.4918         43.3130        -4.86242
           33452         77.3081         86.9224         45.5036         10.0951
           33453         76.5955         85.7307         45.8028         10.7383
           33454         76.5830         85.5132         45.8902         11.1170
           33455         76.5531         85.2718         46.0008         11.4834
           33456         70.3831         78.1847         46.2620         10.2914
           33457         69.7473         77.4591         46.3043         10.1222
           33458         69.1528         75.5721         46.8653         11.7802
           33459         70.5008         77.3348         48.3233        -11.4254
           33460         70.8537         77.7052         48.0915        -11.6378
           33461         70.4543         76.9117         48.3308        -11.9686
           33462         70.0959         76.5290         48.5701        -11.7575
           33463         72.1312         80.0494         47.3262        -10.7031
           33464         71.8220         79.7870         47.4474        -10.4381
           33465         77.5622         89.4720         41.2811    -106.540E-03
           33466         86.5982         99.4374         40.5885    -108.839E-03
           33467         72.3207         82.4473         44.0169        -6.43707
           33468         71.3395         81.3156         43.9823        -6.30083
           33469         81.6447         93.3941         43.1552        -6.09575
           33470         60.8077         56.5662         50.6289         16.3140
           33471         68.9239         74.3031         46.9115         13.0963
           33472         69.6465         75.4335         46.8149         12.9125
           33473         68.7679         74.1864         47.0020         12.9502
           33474         66.2666         69.2538         47.4295         14.4947
           33475         66.8665         70.3316         47.0854         14.3661
           33476         64.8277         66.2344         47.5316         15.3254
           33477         62.3682         55.7810         62.2161        -11.2236
           33478         62.3328         54.8470         62.8200        -11.2000
           33479         88.7312         102.132         44.6076        -1.66886
           33480         88.8685         102.307         44.7004        -1.41297
           33481         89.0868         102.580         45.1459        -1.49692
           33482         89.0500         102.540         44.6328    -95.6119E-03
           33483         88.2863         101.523         45.5733        -3.53046
           33484         87.8165         100.953         44.6703        -3.38885
           33485         88.2593         101.506         45.1471        -3.19452
           33486         88.2112         101.460         44.7535        -2.88573
           33487         87.8305         100.985         44.3047        -3.02215
           33488         60.8740         54.6134         55.7276         14.8428
           33489         61.2194         55.6989         55.2407         14.9529
           33490         62.0720         54.9326         61.5338         11.9602
           33491         61.9382         55.0279         60.7274         12.4118
           33492         62.0272         55.6165         60.4706         12.3915
           33493         62.1538         55.5191         61.2811         11.9390
           33494         69.7121         73.7000         46.9165        -15.1071
           33495         79.4006         91.4537         45.6940        -3.24644
           33496         79.4153         91.5163         45.4365        -2.90153
           33497         79.7802         91.9462         45.9445        -2.84638
           33498         79.7626         91.9640         45.6710        -2.51318
           33499         79.4199         91.5585         45.1960        -2.57945
           33500         60.5108         57.9054         46.5148        -16.7168
           33501         60.6607         57.6331         47.4728        -16.7380
           33502         61.2106         58.5279         47.9552        -16.6157
           33503         60.7967         50.4830         61.2340        -12.7720
           33504         79.7896         92.1203         44.7521    -138.675E-03
           33505         64.3893         65.3152         47.5534        -15.5407
           33506         63.8268         64.0991         47.8625        -15.7299
           33507         64.1754         64.8439         47.9251        -15.5412
           33508         74.8877         82.2162         46.2728         13.0622
           33509         74.1071         80.9986         46.3344         13.3820
           33510         73.9888         80.9514         46.4578         13.2124
           33511         60.7753         52.2545         59.9896         12.8981
           33512         69.9911         74.2436         47.0687         14.8965
           33513         62.7060         63.5181         51.7512         12.9928
           33514         62.8667         63.5989         51.4786         13.3084
           33515         63.7334         65.1566         50.2287         13.7401
           33516         67.9932         71.9728         49.7457         13.5240
           33517         67.8434         71.4775         49.6740         13.8656
           33518         68.4833         72.5435         49.1482         13.8713
           33519         74.8798         86.0381         42.6220        -4.27853
           33520         84.7724         97.3071         41.7037        -3.49114
           33521         72.9541         82.1588         46.4855         8.76609
           33522         72.2555         81.1267         46.9422         9.01884
           33523         59.7755         53.5242         51.8080        -16.3011
           33524         72.8060         82.3336         45.2364        -8.16572
           33525         72.2283         81.6206         45.1912        -8.19128
           33526         72.9906         82.8105         44.8759        -7.58043
           33527         75.3948         85.6930         45.7107        -7.49873
           33528         80.8531         91.7097         44.9934         8.72699
           33529         80.4715         91.0931         45.2054         9.16651
           33530         81.3728         92.8609         43.8241         7.00874
           33531         81.6303         93.2363         43.6268         6.70334
           33532         74.4500         85.0139         44.2764         6.30227
           33533         74.0009         84.4103         44.3102         6.52909
           33534         74.2422         84.5882         44.6303         6.83319
           33535         72.9176         82.4788         45.2364         8.14330
           33536         72.8892         82.2505         45.5033         8.55959
           33537         80.3455         91.3378         44.4686        -8.10371
           33538         80.9956         92.0586         44.6394        -8.21107
           33539         83.1548         94.9120         44.4368        -7.05647
           33540         83.6438         95.5329         44.5137        -6.85115
           33541         83.7588         95.6270         44.7512        -7.01796
           33542         83.2761         95.0122         44.6747        -7.22032
           33543         83.6023         95.3806         44.9200        -7.27043
           33544         83.2832         94.9437         44.9686        -7.50743
           33545         82.9586         94.5784         44.7229        -7.45532
           33546         60.8374         52.7326         60.1118        -12.6080
           33547         62.8002         59.9843         57.7014        -12.6158
           33548         62.5651         58.9072         58.0473        -12.8355
           33549         64.1744         67.1681         49.8764        -12.5066
           33550         69.5500         75.0416         48.8197        -12.7294
           33551         68.7182         73.3685         49.2717        -13.2481
           33552         68.2505         73.3843         47.1554        -13.0348
           33553         86.4750         99.2863         43.7289         4.06719
           33554         86.6268         99.4991         43.3398         3.56219
           33555         63.9446         63.2065         48.4811         16.4089
           33556         64.4648         64.1374         48.7435         16.2529
           33557         63.5023         62.2475         49.0633         16.3773
           33558         64.0967         63.3563         49.3208         16.1927
           33559         86.9980         99.9610         43.4059         3.22894
           33560         87.5221         100.602         44.0013         3.15206
           33561         87.3794         100.435         43.6000         2.94195
           33562         86.3911         99.2243         42.8620         3.35504
           33563         76.6657         85.8193         45.7800        -10.7344
           33564         73.7193         81.0112         46.6708        -12.5751
           33565         68.2103         75.7072         46.5725        -9.62535
           33566         75.9433         85.6137         45.5011        -9.36027
           33567         75.3999         85.0434         45.5827        -9.15566
           33568         76.3693         86.3218         45.2263        -8.93320
           33569         75.3437         84.6429         45.8164        -9.85124
           33570         75.0864         84.4961         45.8025        -9.49814
           33571         59.9608         54.4547         50.8117        -16.4833
           33572         59.5767         53.4213         51.0807        -16.4835
           33573         60.1467         54.5560         51.5199        -16.3064
           33574         59.6546         52.9368         52.3516         16.1967
           33575         59.4665         52.9010         51.5653         16.3974
           33576         86.3525         99.1497         40.5903        -1.00489
           33577         86.3940         99.2161         40.8968        -1.31078
           33578         76.8656         88.6137         41.4294        -1.89331
           33579         64.7889         68.3442         49.2764         12.4669
           33580         65.1604         68.7701         48.9754         12.7280
           33581         65.5329         69.7039         48.6594         12.3820
           33582         69.0565         74.7138         49.2952         12.1061
           33583         68.4536         73.7763         49.8033         12.0677
           33584         69.9018         75.9557         48.6697         12.1792
           33585         71.0190         77.5843         47.9493         12.1841
           33586         64.9354         66.0539         53.0498         13.4580
           33587         61.6154         59.5372         53.8502         13.6385
           33588         61.5657         59.6794         54.1121         13.2911
           33589         61.3932         58.6079         54.5008         13.6391
           33590         61.0574         56.9721         55.8618         13.4686
           33591         61.2016         57.7471         55.1581         13.5857
           33592         63.3727         62.5668         56.9542         11.8484
           33593         63.2491         61.8979         56.8783         12.3100
           33594         63.4403         62.4253         56.2130         12.6090
           33595         63.6504         62.9621         55.4741         12.9426
           33596         83.1340         95.4286         39.3742         1.97857
           33597         83.3704         95.7158         40.4667         2.87804
           33598         70.7259         75.4068         45.7977         14.9666
           33599         88.8240         102.254         44.2150     4.70810E-03
           33600         60.9526         52.1088         61.1881         12.1702
           33601         60.6658         51.4410         60.0094        -13.1654
           33602         60.8381         51.2299         60.9521        -12.7041
           33603         62.0519         53.7867         62.5264        -11.7043
           33604         62.3248         57.9308         58.2589        -13.0293
           33605         62.0927         57.0154         58.3227        -13.2728
           33606         79.7617         92.0838         44.7331     460.733E-03
           33607         61.8784         54.3210         61.2897         12.2618
           33608         62.2390         56.3915         60.7162         11.9877
           33609         62.3651         56.4787         61.4059         11.5037
           33610         78.1763         88.3607         45.0591        -9.22050
           33611         78.6390         88.8748         45.0684        -9.30321
           33612         70.6904         79.8034         45.1585        -8.02196
           33613         70.5953         79.3775         45.5155        -8.64411
           33614         63.6257         63.4112         56.2926        -11.9439
           33615         63.7759         63.5157         55.4689        -12.6420
           33616         71.9350         80.2621         47.3005         9.86143
           33617         71.5228         79.4711         47.5959         10.2791
           33618         72.1389         80.1634         47.2972         10.5249
           33619         72.5526         80.9482         47.0086         10.1112
           33620         70.8113         78.8445         47.9455         9.64795
           33621         71.4945         79.9210         47.4516         9.39536
           33622         78.5316         89.1354         44.5777        -8.33409
           33623         78.0594         88.4132         44.8484        -8.75954
           33624         77.4308         87.7188         44.8703        -8.63278
           33625         82.7474         94.7227         43.1173         5.76835
           33626         83.1669         95.2501         43.0083         5.50695
           33627         82.9642         95.0601         42.7105         5.24467
           33628         76.9673         86.9774         45.1574        -9.08084
           33629         86.5890         99.4472         40.9216    -979.013E-03
           33630         78.3395         90.3944         42.6404    -852.098E-03
           33631         78.3258         90.3656         42.8563        -1.29799
           33632         76.7063         88.2286         43.2550        -3.86885
           33633         77.1238         88.7671         43.2527        -3.51679
           33634         62.4774         56.6460         61.9965         10.9992
           33635         60.8307         54.9991         58.0387         12.8978
           33636         60.8005         54.8736         57.2935         13.5024
           33637         63.1403         61.6136         57.5976         11.8572
           33638         63.0637         61.0615         57.1466         12.5464
           33639         61.8584         60.3002         53.1984         13.7618
           33640         61.6056         59.1212         53.6325         14.0748
           33641         75.7504         87.2918         40.8650         2.27270
           33642         75.4000         86.8524         41.2397         2.76150
           33643         84.5004         96.9825         39.9612         2.10937
           33644         67.1644         73.5940         47.3668         10.6030
           33645         67.4870         74.2934         47.0934         10.2620
           33646         66.6907         73.0703         47.5366         10.3629
           33647         73.6185         83.1627         46.0679         8.41689
           33648         78.8223         89.8291         43.9928        -7.30646
           33649         70.6302         80.3327         44.3315        -6.61471
           33650         70.5468         79.9593         44.7567        -7.27804
           33651         82.0075         93.9169         42.7660        -5.54901
           33652         74.5441         85.2586         43.9359        -5.86910
           33653         74.4484         84.9773         44.3520        -6.40923
           33654         85.8281         98.4597         39.4959     571.674E-03
           33655         86.1628         98.8873         39.9924     473.362E-03
           33656         76.9459         88.7248         40.5399     814.713E-03
           33657         77.2092         89.0445         40.9060     706.728E-03
           33658         77.5820         87.6876         45.0733        -9.13997
           33659         69.9399         78.3094         45.8197        -9.09030
           33660         70.8799         79.5701         45.6304        -8.96743
           33661         69.2362         77.1893         46.1682        -9.44539
           33662         79.2399         89.9034         44.6421         8.50311
           33663         72.1631         81.3082         45.4718         8.68021
           33664         72.3176         81.7302         45.1953         8.18961
           33665         70.0372         74.4252         47.3356         14.7015
           33666         88.3978         101.716         43.7143        -1.08156
           33667         88.1675         101.427         43.5107        -1.41488
           33668         87.9629         101.171         43.1315        -1.31387
           33669         66.1667         69.2166         47.7168         14.2945
           33670         59.3456         51.8864         52.8346         16.1204
           33671         58.9748         50.8182         53.1095         16.0608
           33672         59.0980         51.8820         51.8351         16.3632
           33673         84.6677         97.1097         42.7642        -4.55949
           33674         85.3943         98.0026         42.7291        -4.06024
           33675         76.5474         87.9844         43.4572        -4.21423
           33676         75.9434         87.2155         43.3919        -4.56233
           33677         64.6690         67.9845         49.4036        -12.6248
           33678         69.6462         75.5277         48.8481        -12.2393
           33679         63.3833         62.3582         47.7826        -16.5867
           33680         62.7538         61.4544         47.1368        -16.6961
           33681         61.1598         59.0914         46.2152        -16.7710
           33682         60.4194         57.8463         46.1658        -16.7685
           33683         64.2127         67.2623         49.8278         12.4870
           33684         60.2672         52.8715         55.8980        -14.9171
           33685         60.4964         53.7809         55.8659        -14.7303
           33686         61.7484         58.9340         51.1921         15.6628
           33687         62.2521         60.3632         50.7017         15.5077
           33688         61.9943         59.6685         51.3346         15.3924
           33689         73.7231         83.7886         44.8430        -7.32586
           33690         74.3127         84.6649         44.6621        -6.85181
           33691         80.9708         92.1180         44.4496         7.94536
           33692         81.1882         92.4831         44.2245         7.58518
           33693         73.0383         82.8169         44.9667         7.70169
           33694         73.6721         83.7616         44.7699         7.23941
           33695         81.4995         92.8060         44.4001        -7.71250
           33696         80.8922         92.1242         44.2053        -7.63639
           33697         82.1800         93.7493         44.1416        -7.17363
           33698         82.8143         94.5706         44.0990        -6.83981
           33699         82.5226         94.0876         44.4746        -7.39421
           33700         61.2964         55.9029         55.2071        -14.9503
           33701         61.7888         57.2900         54.8091        -14.9632
           33702         79.1002         91.1799         44.7786         2.63629
           33703         78.7625         90.7538         44.5436         2.92376
           33704         78.2002         90.1131         43.7300         2.78258
           33705         73.6531         80.6681         46.6124        -12.9724
           33706         59.4924         53.8308         49.9707        -16.6782
           33707         59.0715         52.3491         50.9351        -16.5432
           33708         58.3520         51.0382         50.4902        -16.6105
           33709         59.2851         52.8787         50.8409         16.5547
           33710         59.1315         53.1870         49.7196         16.7339
           33711         67.9556         72.9161         50.2109         12.1278
           33712         64.6173         65.1282         53.2000         13.7634
           33713         64.9365         65.6571         52.4845         14.1097
           33714         61.6041         58.8551         53.3062         14.4561
           33715         61.3976         58.3388         54.2138         14.0224
           33716         61.3927         58.0712         53.8876         14.4019
           33717         61.6019         58.7027         53.0513         14.7037
           33718         62.8981         63.3788         51.3536         13.6239
           33719         62.5900         62.9644         51.9315         13.2407
           33720         62.6198         62.7380         51.8075         13.5582
           33721         62.2811         61.6068         52.3301         13.7719
           33722         78.4176         90.4578         43.1466        -1.63658
           33723         78.3387         90.3282         43.4580        -2.21022
           33724         77.1665         88.9615         41.9048        -2.03502
           33725         76.7238         88.4519         41.1157         1.73834
           33726         76.3788         88.0364         41.0716         2.01934
           33727         76.6907         88.4195         40.7809         1.43707
           33728         76.6890         88.4172         40.4786         1.16718
           33729         79.0254         89.8678         44.3176        -7.90512
           33730         70.6184         79.8831         44.9563        -7.65576
           33731         70.3996         75.0357         47.2200        -14.5968
           33732         62.3823         58.3639         57.2621        -13.5191
           33733         61.5668         55.1892         58.4189        -13.6131
           33734         67.5790         69.9770         47.1734         15.7677
           33735         67.1718         69.2350         47.6023         15.7937
           33736         64.3391         65.1947         47.6576         15.5450
           33737         64.7092         66.0148         47.9388         15.2301
           33738         64.2271         64.9757         48.0640         15.4502
           33739         64.9248         66.4344         47.5154        -15.2823
           33740         66.7440         70.2731         47.4219        -14.1433
           33741         66.1174         69.0847         47.6772        -14.3698
           33742         60.7388         52.8697         59.3440        -13.0356
           33743         60.7229         52.1317         59.7678        -13.0788
           33744         60.8317         51.9937         60.5346        -12.6509
           33745         61.0053         57.2446         56.5105        -12.7304
           33746         74.8083         82.2233         46.3048         12.8947
           33747         79.0236         91.0127         45.1873        -3.27352
           33748         60.8747         55.5733         56.4743        -13.7411
           33749         60.7694         54.8977         56.3162        -14.1335
           33750         60.7075         54.3420         56.9253        -13.9677
           33751         84.1395         96.0894         44.9537        -6.95263
           33752         84.2402         96.2713         44.7087        -6.67198
           33753         59.8635         52.9641         53.3467         15.8959
           33754         60.3513         55.3115         50.9788        -16.3686
           33755         60.4210         55.7344         50.3798        -16.4736
           33756         60.0148         54.8572         50.2149        -16.5889
           33757         72.6194         81.4626         45.9928         9.46531
           33758         72.7786         81.8891         45.7603         9.02133
           33759         74.8703         85.3352         44.8509        -6.81236
           33760         75.3744         85.9393         45.0696        -6.77547
           33761         75.1837         85.5718         45.3074        -7.17213
           33762         83.6600         95.6134         44.2365        -6.57768
           33763         79.8491         90.3677         45.0747         9.14916
           33764         80.2960         91.0581         44.8661         8.72402
           33765         80.6531         91.6259         44.6500         8.30832
           33766         73.5071         83.3748         45.0703        -7.70999
           33767         80.4714         91.5579         44.3350         7.88279
           33768         80.7913         92.0205         44.1671         7.59388
           33769         61.0459         55.6748         54.2482         15.3222
           33770         61.2902         56.4286         53.7445         15.4548
           33771         59.6395         53.6803         51.9676         15.9615
           33772         64.7919         65.0986         46.9511        -16.4541
           33773         70.3576         76.5519         48.3531        -12.2950
           33774         70.2576         76.0702         48.3285        -12.7823
           33775         71.4343         77.9531         47.6870        -12.5096
           33776         72.0520         78.9945         47.3988        -12.2332
           33777         71.5378         77.9195         47.5857        -12.7759
           33778         77.0644         88.6339         43.6086        -3.93485
           33779         60.7585         54.8641         56.2170         14.2064
           33780         60.8874         55.6670         56.2576         13.8472
           33781         67.8378         75.0296         46.8233         9.88670
           33782         68.3347         75.5621         46.6956         10.1315
           33783         74.8929         84.1889         45.8975         9.63774
           33784         76.9666         88.7514         40.8097         1.08550
           33785         69.0803         75.8947         46.7839        -11.1653
           33786         69.0882         76.1489         46.6701        -10.8059
           33787         69.6711         77.0097         46.5017        -10.6808
           33788         77.0368         86.7725         45.3811         9.72264
           33789         70.5810         78.7748         46.0167         9.72335
           33790         71.8731         78.0926         47.2923         13.2150
           33791         72.6330         79.4151         47.0528         12.8001
           33792         71.2552         77.1047         47.5616         13.3828
           33793         70.5321         75.9373         47.8932         13.5575
           33794         60.8801         55.7764         54.4825         14.8983
           33795         61.0524         56.5524         54.2832         14.7468
           33796         60.8417         55.5311         55.2894         14.5072
           33797         64.5914         65.7398         47.7499        -15.3768
           33798         65.6076         66.3560         49.4321        -15.6826
           33799         65.0767         65.2833         49.2130        -15.9576
           33800         63.2309         61.2396         53.9912         14.5969
           33801         62.8686         60.1986         55.1310         14.2357
           33802         62.8537         60.1611         54.4204         14.6474
           33803         88.6974         102.094         44.0068    -267.966E-03
           33804         88.5560         101.913         44.2522        -1.57786
           33805         87.5298         100.632         42.6392        -1.56930
           33806         87.5208         100.617         42.4032        -1.23022
           33807         66.4683         70.5447         47.9868         13.2156
           33808         66.0215         69.5883         48.1911         13.5088
           33809         85.9006         98.6109         43.0034        -3.92023
           33810         75.6429         83.9920         46.1480         11.7420
           33811         75.6815         84.2664         46.0948         11.3486
           33812         74.7370         82.9385         46.3413         11.5870
           33813         75.6846         84.4819         46.0089         10.9705
           33814         68.8131         75.2603         46.9346         11.5556
           33815         68.2536         74.2485         47.1427         11.8821
           33816         68.5943         74.5616         47.0728         12.1067
           33817         75.6178         86.0825         45.5617        -7.16600
           33818         77.4040         89.0331         43.8958        -3.90830
           33819         77.4538         89.1557         43.5399        -3.48592
           33820         79.0763         91.1162         44.9906        -2.95081
           33821         88.6054         101.954         45.2101        -2.68934
           33822         60.2562         52.3341         56.7077        -14.6507
           33823         79.6815         90.5942         44.3567        -8.01628
           33824         61.0046         56.5054         56.0058        -13.6220
           33825         64.2338         64.5484         54.3227        -13.1018
           33826         87.7062         100.845         42.4160    -590.805E-03
           33827         87.6219         100.742         42.4195    -935.407E-03
           33828         87.4199         100.485         41.9924    -629.604E-03
           33829         78.2550         90.3007         42.4240    -497.564E-03
           33830         78.5748         90.6826         42.8632    -347.069E-03
           33831         68.5699         76.5104         46.2243         9.09108
           33832         68.1731         75.7407         46.5224         9.49085
           33833         68.6866         76.2849         46.4426         9.73693
           33834         68.3588         76.6177         45.9881         8.39158
           33835         87.2443         100.276         43.1822         2.69414
           33836         86.7650         99.6855         42.9290         3.02555
           33837         87.1292         100.138         42.7750         2.41996
           33838         61.8330         57.6004         54.0826        -15.2289
           33839         62.0336         58.2548         53.4496        -15.3989
           33840         78.0559         89.9751         43.2864         2.46249
           33841         77.6651         89.4966         43.0341         2.68892
           33842         60.4338         52.5371         57.5189        -14.2073
           33843         60.5729         52.7153         58.2423        -13.7631
           33844         60.5552         53.1924         57.4647        -14.0474
           33845         78.7637         90.9028         43.2115     637.098E-03
           33846         78.7094         90.8440         43.0490     141.668E-03
           33847         78.5102         90.6051         42.7962     452.809E-03
           33848         79.4734         91.7398         44.3331     710.611E-03
           33849         79.6888         91.9848         44.7454     972.899E-03
           33850         64.5693         65.8200         48.3173         15.0843
           33851         64.4055         65.5975         48.7564         14.9013
           33852         63.9029         64.4319         48.9853         15.1522
           33853         64.0602         64.6558         48.5462         15.3339
           33854         63.7453         63.8951         48.1961         15.6792
           33855         63.5883         63.5761         48.6795         15.5639
           33856         68.9690         72.7936         48.1406        -14.6586
           33857         69.4545         73.7254         48.0472        -14.4020
           33858         69.7823         74.1573         47.6872        -14.5207
           33859         65.5942         68.0438         47.9408        -14.5648
           33860         65.0976         67.0368         48.2149        -14.7339
           33861         60.6199         52.3847         58.9364        -13.4720
           33862         60.6819         52.9125         58.8178        -13.3569
           33863         62.1253         57.4752         57.3972        -13.6703
           33864         61.8266         56.4996         57.3912        -13.8942
           33865         61.8045         56.0485         58.3131        -13.4945
           33866         67.8104         70.4037         47.5783         15.5731
           33867         67.6387         70.1361         47.9590         15.4867
           33868         88.0614         101.292         43.0014     646.435E-03
           33869         87.7681         100.921         42.4351     142.314E-03
           33870         87.6693         100.799         42.3520     532.233E-03
           33871         74.1305         85.3251         41.4731         3.34855
           33872         74.3520         85.6273         41.0696         2.95237
           33873         74.8424         86.1925         41.2003         2.94014
           33874         82.9614         95.2498         40.6718         3.15447
           33875         64.5310         64.5979         52.6549         14.3784
           33876         64.8097         65.0668         51.9441         14.6999
           33877         65.2254         66.1253         51.7731         14.4322
           33878         61.4830         58.2316         53.0703         14.8678
           33879         60.9268         52.9273         60.6719         12.1230
           33880         60.8555         53.8080         59.9025         12.1519
           33881         60.9290         53.7825         60.6823         11.5627
           33882         82.5866         94.6835         42.2666         4.86735
           33883         82.8755         94.9934         42.4657         5.00789
           33884         83.1779         95.3862         42.1907         4.63255
           33885         82.8880         95.0732         41.9915         4.48993
           33886         73.7227         83.9374         44.5550         6.93403
           33887         74.2080         84.8386         43.9017         5.95668
           33888         83.2022         95.2345         43.3233         5.83001
           33889         60.8861         55.6587         55.7752        -14.1743
           33890         61.0385         56.6014         55.3053        -14.0672
           33891         63.4227         61.9029         54.7918        -13.9056
           33892         63.9158         63.1835         53.7711        -14.1326
           33893         63.5998         62.2727         54.0184        -14.2937
           33894         73.3698         83.0414         45.3084        -8.10108
           33895         71.4266         80.3333         45.5306        -8.81110
           33896         82.1190         93.8574         43.5544         6.46110
           33897         82.5209         94.3895         43.3671         6.13760
           33898         68.6519         76.2036         46.4604        -9.79750
           33899         76.4990         86.1996         45.4216        -9.55551
           33900         77.7641         89.7148         41.5871    -4.11226E-03
           33901         77.6632         89.5932         41.4473     231.866E-03
           33902         77.9026         89.8809         41.8358    -286.162E-03
           33903         86.8684         99.7826         41.0207    -57.1351E-03
           33904         86.5329         99.3554         40.5020     202.577E-03
           33905         87.1715         100.169         41.5288    -333.018E-03
           33906         87.4571         100.529         41.9583    -284.414E-03
           33907         76.1017         87.7066         40.9933         2.15749
           33908         86.4246         99.2433         43.3591        -3.78872
           33909         74.7181         82.2554         46.3753         12.6596
           33910         75.5841         83.7219         46.2067         12.0701
           33911         78.2298         90.0427         44.4687        -3.59742
           33912         78.1180         89.8608         44.6412        -3.92019
           33913         77.7604         89.4494         44.2300        -3.89630
           33914         77.8735         89.6321         44.0541        -3.57149
           33915         78.6844         90.6144         44.7602        -3.30211
           33916         62.9635         60.4901         55.8621         13.7098
           33917         61.0685         56.8882         51.8417         15.8611
           33918         60.7272         55.9244         51.9552         15.9841
           33919         86.4186         99.2168         40.4259     540.975E-03
           33920         65.6314         67.7041         52.2783        -13.2925
           33921         65.8994         67.9421         51.6069        -13.7793
           33922         65.4187         66.7760         52.0092        -14.0069
           33923         86.1903         98.9951         41.4871        -2.20345
           33924         77.6237         89.4016         43.3795        -3.12025
           33925         78.0337         89.8696         43.8954        -3.20237
           33926         64.1353         65.5521         49.5323        -14.2566
           33927         64.6186         66.5416         49.0736        -14.2009
           33928         64.2722         65.6629         49.2771        -14.4539
           33929         63.8546         65.5540         50.1138        -13.5873
           33930         63.4940         64.6984         50.5365        -13.6785
           33931         86.3369         99.1385         40.6923         1.14380
           33932         86.3358         99.1214         40.4499     831.934E-03
           33933         77.4877         89.3794         41.2706     616.006E-03
           33934         77.2859         89.1332         41.2322         1.07261
           33935         86.3523         99.1660         40.8883         1.37740
           33936         86.1575         98.9412         40.9877         1.74539
           33937         86.4045         99.2406         41.1723         1.61778
           33938         76.9531         88.7319         41.0166         1.36008
           33939         87.0874         100.072         41.6464     998.753E-03
           33940         87.2301         100.247         41.7349     728.940E-03
           33941         61.2425         57.3194         53.5314         14.9209
           33942         61.1916         57.1479         54.1024         14.6435
           33943         61.0965         56.7240         53.7058         15.0251
           33944         61.3812         57.9030         53.5596         14.6916
           33945         61.3403         57.6444         53.0418         15.0984
           33946         64.3101         63.8637         52.1299         14.9320
           33947         64.5157         64.2229         51.4559         15.2166
           33948         61.1558         56.9969         53.0621         15.2772
           33949         61.2494         57.3368         52.4613         15.4892
           33950         61.3290         57.6696         51.7960         15.7024
           33951         74.0751         85.1801         42.0014         3.87441
           33952         74.4398         85.5353         42.4477         4.24112
           33953         83.5813         95.9496         40.7779         3.12438
           33954         60.2978         54.2235         53.2540         15.7826
           33955         60.8188         56.5640         50.6874        -16.3025
           33956         60.9861         57.1887         50.0660        -16.3845
           33957         66.9285         72.8440         47.6348        -11.1656
           33958         63.9679         62.9806         51.5455         15.4355
           33959         85.9671         98.7277         41.4054         2.35473
           33960         85.9324         98.6884         41.6782         2.64962
           33961         63.4177         61.7245         51.6912        -15.6048
           33962         63.0043         60.8316         51.4000        -15.8518
           33963         77.5284         89.3624         42.6204         2.39352
           33964         77.1119         88.8536         42.4261         2.64656
           33965         77.2505         88.9864         42.8398         2.94287
           33966         73.1511         81.0552         46.8928        -11.3006
           33967         72.1931         79.4401         47.3478        -11.8407
           33968         72.3685         80.0188         47.2481        -11.2922
           33969         60.8732         55.0459         54.7869         15.1622
           33970         61.3915         56.3249         54.7037         15.1119
           33971         64.3938         64.2655         47.4604        -16.4731
           33972         64.7969         64.9005         47.8262        -16.3621
           33973         65.7276         68.9552         48.3699        -13.6750
           33974         65.3992         68.6385         48.6789        -13.3845
           33975         65.8342         69.5618         48.4214        -13.1523
           33976         65.7461         66.6095         49.1012         15.7628
           33977         65.7798         66.6539         48.6109         15.9303
           33978         66.1764         67.4594         49.0176         15.6260
           33979         64.9721         65.0941         48.9180         16.0773
           33980         64.5930         64.3109         49.4956         16.0172
           33981         87.0024         99.9839         42.3814         2.15340
           33982         86.9190         99.8787         42.0288         1.87313
           33983         62.1807         58.4688         54.0683        -15.1192
           33984         62.5481         59.4542         53.6292        -15.1641
           33985         79.5826         91.8279         44.8600         1.63430
           33986         79.5869         91.8475         44.7345         1.37662
           33987         78.2758         90.2781         43.1126         1.86137
           33988         77.8687         89.7811         42.8074         2.13732
           33989         71.3669         77.2042         47.4628        -13.4704
           33990         70.4914         75.6882         47.7760        -13.8308
           33991         70.6847         76.2161         47.8449        -13.4765
           33992         85.3058         97.9398         41.7260        -3.18589
           33993         85.8423         98.5764         42.0295        -3.06816
           33994         86.0673         98.8501         41.8482        -2.68747
           33995         84.3963         96.7476         43.0428        -4.97449
           33996         75.6642         86.7923         43.6668        -5.01081
           33997         75.9887         85.5355         45.5713         9.64674
           33998         69.2098         76.8481         46.3589         9.96363
           33999         70.0150         78.0390         46.1014         9.73633
           34000         69.9733         75.2682         48.3387         13.3254
           34001         68.5599         72.1508         48.4755         14.6333
           34002         68.8416         72.8259         48.5757         14.3006
           34003         60.5835         54.8694         53.9172         15.3953
           34004         60.5257         54.4758         54.4214         15.2612
           34005         60.4035         54.3570         53.7198         15.5792
           34006         78.3390         90.3078         43.6347        -2.45417
           34007         61.3737         58.0318         50.3762        -16.1730
           34008         62.8771         62.2178         50.5270        -14.9797
           34009         62.8079         61.8484         50.1756        -15.3330
           34010         64.6372         66.0736         48.5309        -14.8730
           34011         66.3514         68.2972         50.4099        -14.6025
           34012         67.1311         69.6249         49.4904        -14.7808
           34013         66.5210         68.4084         49.8700        -14.9426
           34014         63.4388         62.3215         48.2813        -16.5166
           34015         63.1252         61.5232         49.1110        -16.4242
           34016         63.5968         62.4803         48.8439        -16.3993
           34017         63.0689         60.9021         56.1797         13.3407
           34018         63.2663         61.7005         56.2431         12.9436
           34019         61.8122         57.7775         53.2939         15.5076
           34020         62.3213         58.8160         54.0156         15.0988
           34021         61.9409         57.8121         54.3187         15.1018
           34022         62.8012         60.1190         53.5499         15.0718
           34023         87.7748         100.931         42.4625    -219.388E-03
           34024         66.9490         71.5245         47.7323         12.9366
           34025         65.3295         68.3509         48.6892         13.5819
           34026         65.0752         68.1261         48.9879         13.3061
           34027         64.9262         67.3811         48.9621         13.8689
           34028         64.7133         66.5477         48.8752         14.4102
           34029         64.2264         65.4129         49.1418         14.6717
           34030         61.9340         59.8780         52.4492        -14.6068
           34031         61.7185         59.0051         52.5810        -14.8925
           34032         61.5719         58.6207         53.1480        -14.6695
           34033         61.3902         57.8317         53.0699        -15.0217
           34034         61.2313         57.3023         53.7143        -14.8149
           34035         68.4031         74.8542         46.9990         11.3284
           34036         67.5139         73.5342         47.3706         11.4051
           34037         67.9105         73.9291         47.2582         11.6439
           34038         74.8148         83.3419         46.2619         11.0571
           34039         75.4367         86.4164         43.9421        -5.45637
           34040         84.1656         96.4224         43.3231        -5.38486
           34041         67.9653         71.1613         48.9549         14.6341
           34042         67.7480         70.6028         48.7842         14.9381
           34043         76.6602         88.1831         43.1620         3.81771
           34044         85.0880         97.6635         42.1837         3.74897
           34045         84.7881         97.3178         41.9125         3.67193
           34046         85.2108         97.8228         41.8725         3.38395
           34047         74.9213         86.0988         42.5643         4.21203
           34048         73.7738         84.4978         43.3123         5.37092
           34049         74.0332         84.7364         43.5790         5.60530
           34050         83.3906         95.6028         42.4748         4.85475
           34051         83.7374         96.0290         42.3621         4.61232
           34052         83.5267         95.8112         42.0773         4.39316
           34053         60.5887         53.7590         56.7918        -14.2446
           34054         63.1221         60.9525         55.0635        -14.0648
           34055         78.3145         90.0310         45.1604        -4.24087
           34056         72.8871         81.1727         46.9169         10.4991
           34057         77.0558         88.8115         42.0798         2.34973
           34058         77.3472         89.1699         42.1604         2.10150
           34059         84.6276         97.1427         40.3382         2.34680
           34060         84.8310         97.3844         40.6979         2.55572
           34061         83.7993         96.1925         41.1086         3.35348
           34062         85.9219         98.6682         41.1326         2.14096
           34063         63.2950         61.3656         53.2885         14.9548
           34064         63.7127         62.4647         53.0178         14.8136
           34065         64.1608         63.6016         52.8295         14.6119
           34066         63.8540         62.7279         52.3193         15.1341
           34067         60.9673         56.4270         52.6265        -15.6313
           34068         61.1769         57.1914         51.9490        -15.7491
           34069         60.9146         56.5171         51.6369        -16.0042
           34070         60.9185         56.0693         53.7958         15.1613
           34071         60.9721         56.3403         53.1544         15.4133
           34072         63.1034         63.7508         51.0170        -13.7540
           34073         63.2089         63.6445         50.7219        -14.1445
           34074         62.8967         62.5189         50.8633        -14.6085
           34075         67.9097         71.7478         49.7426        -13.6451
           34076         87.7802         100.943         42.8037        -1.22646
           34077         71.9576         78.6975         47.4120         12.4888
           34078         60.4820         54.0946         55.0663         15.0371
           34079         60.7137         55.1296         54.5418         15.0438
           34080         60.6667         54.7398         55.1940         14.8204
           34081         60.7461         55.4237         53.8512         15.3077
           34082         66.0798         67.3745         49.6581        -15.3512
           34083         61.9433         59.6665         52.0089        -15.0017
           34084         61.5913         58.5092         52.4010        -15.1685
           34085         62.4186         60.8550         50.7200        -15.3492
           34086         63.3195         61.4616         52.4485         15.3248
           34087         66.3624         70.9936         48.0954         12.4522
           34088         64.9972         68.0307         49.0606        -13.2558
           34089         65.1715         68.7364         48.9486        -12.7961
           34090         70.3466         76.0168         48.2002        -13.0493
           34091         70.9008         77.1379         47.9803        -12.5918
           34092         70.9863         77.0816         47.8578        -12.8590
           34093         69.0457         73.2770         48.5665        -14.1173
           34094         68.4465         72.5935         49.2698        -13.7145
           34095         71.8581         79.4151         47.5042        -11.1465
           34096         63.8947         64.2543         47.7477         15.7276
           34097         62.6478         61.3597         50.0282         15.5631
           34098         62.4268         60.9560         50.9690         15.1712
           34099         60.4349         53.0783         56.7052        -14.4846
           34100         60.6606         54.4558         55.9455        -14.5020
           34101         63.6002         64.5910         50.2410        -14.0706
           34102         63.9959         65.5613         49.8716        -13.9004
           34103         78.3096         90.3614         42.5572     733.209E-03
           34104         87.1504         100.140         41.4549    -7.20924E-03
           34105         62.7514         59.6803         60.0919         10.8208
           34106         60.4901         54.9432         52.8781         15.8060
           34107         60.5868         55.0628         53.3386         15.6079
           34108         66.2739         71.8751         48.0020         11.1378
           34109         66.7511         72.7753         47.6518         10.9032
           34110         66.4497         72.4969         47.7715         10.6605
           34111         72.0958         79.8561         47.3654         10.9506
           34112         72.8488         80.8823         46.9838         10.9190
           34113         76.6821         85.9944         45.6940        -10.4337
           34114         69.9094         77.5520         46.3463        -10.3164
           34115         69.4055         76.8866         46.4435        -10.3192
           34116         69.5512         77.3810         46.2264        -9.82699
           34117         62.4890         59.0225         55.4526        -14.3664
           34118         62.5144         59.2395         54.6024        -14.7414
           34119         62.1342         58.1783         54.7915        -14.8494
           34120         62.1236         57.9627         55.6402        -14.4785
           34121         62.4290         58.7247         56.3406        -13.9417
           34122         62.1610         57.8416         56.4720        -14.0912
           34123         67.1445         73.1765         47.5120         11.1498
           34124         66.6886         72.3011         47.7965         11.4187
           34125         78.0427         89.9401         43.4394        -2.67145
           34126         78.1690         90.0596         43.8194        -2.93649
           34127         73.8624         82.0303         46.5894         11.2229
           34128         64.3310         64.2651         53.3390         14.0387
           34129         60.9956         56.5550         52.5066         15.6478
           34130         60.7542         55.6197         53.2664         15.5228
           34131         60.7709         55.8321         52.6183         15.7584
           34132         67.1409         69.5134         49.2319         14.9920
           34133         67.0267         69.1806         48.9818         15.2316
           34134         67.6284         70.2571         48.5354         15.1856
           34135         63.3635         63.1141         49.3220         15.4034
           34136         63.7747         64.3076         49.4745         14.8952
           34137         62.1319         60.1692         51.4983         15.1281
           34138         75.5555         86.9890         41.7816         3.18213
           34139         85.1012         97.7038         41.0346         2.68213
           34140         85.3124         97.9478         40.9119         2.44172
           34141         62.8931         60.8234         50.1938        -16.2234
           34142         63.3957         61.9194         49.6973        -16.2523
           34143         65.1246         65.4004         48.6880        -16.1007
           34144         64.7215         64.6145         48.8917        -16.1509
           34145         64.6822         64.4988         49.4130        -16.0117
           34146         61.9210         57.0813         56.6348        -14.1565
           34147         62.9169         62.0170         49.4034         15.6586
           34148         60.6162         55.8404         51.3208        -16.2083
           34149         61.1212         57.2406         51.0056        -16.0969
           34150         61.4115         57.9543         51.3039        -15.8520
           34151         65.9549         67.2716         50.2057        -15.0707
           34152         70.9346         76.7895         47.8052        -13.1744
           34153         71.0009         77.7052         47.9976        -11.9573
           34154         70.8929         77.3403         48.0186        -12.2784
           34155         65.1475         67.9353         48.8249        -13.6876
           34156         66.3078         72.1060         47.9044        -10.9059
           34157         66.6785         72.9763         47.5871        -10.4671
           34158         65.2982         68.0463         48.6198        -13.8814
           34159         64.9486         67.2588         48.8440        -14.0716
           34160         65.0982         67.1884         48.4273        -14.5149
           34161         65.0261         67.2318         48.6432        -14.2885
           34162         65.4715         68.1588         48.3754        -14.1176
           34163         65.5424         68.1145         48.1591        -14.3440
           34164         69.6195         74.1713         48.1464        -14.1244
           34165         70.2520         75.0908         47.7099        -14.1781
           34166         78.7800         90.9078         43.4157         1.14968
           34167         78.5719         90.6446         43.3210         1.54875
           34168         87.3784         100.430         41.8583     403.658E-03
           34169         87.5223         100.616         42.2279     859.027E-03
           34170         87.5178         100.615         42.4714         1.34235
           34171         87.2010         100.225         42.2232         1.63654
           34172         87.3844         100.453         42.6399         1.86177
           34173         64.4898         66.3395         49.2223         14.1486
           34174         63.4732         62.2447         55.5015         13.2753
           34175         62.6896         59.2630         59.7264         11.4048
           34176         60.8459         54.6203         59.4182         12.0246
           34177         60.8195         55.2522         58.9619         11.9370
           34178         60.8547         54.5450         60.0995         11.4648
           34179         85.6270         98.3237         41.3025         2.55295
           34180         85.5728         98.2560         41.0298         2.34153
           34181         61.5437         56.9242         54.0375         15.3108
           34182         64.5866         64.3953         48.5703        -16.2614
           34183         64.9995         65.2166         48.2065        -16.2453
           34184         65.9094         71.1325         48.2759         11.3672
           34185         71.2912         78.8008         47.8053         10.8724
           34186         62.7949         59.9776         55.2640        -14.2172
           34187         77.6882         89.5861         42.3465         1.84474
           34188         64.6968         66.5156         48.8704        -14.4185
           34189         64.6362         66.2248         48.7447        -14.6535
           34190         67.3420         70.1008         49.5008         14.6121
           34191         68.8846         72.8313         48.4625        -14.3951
           34192         83.6542         96.0007         41.5996         3.87121
           34193         64.1724         63.9208         53.6587        -13.9388
           34194         64.5030         64.5999         52.8850        -14.2247
           34195         64.3561         64.6227         53.8225        -13.5020
           34196         61.0078         56.3872         53.6622        -15.1511
           34197         60.9117         55.9604         54.2839        -14.9406
           34198         61.1220         56.8517         54.3385        -14.6099
           34199         77.9892         89.9557         42.5415         1.56650
           34200         78.5353         90.6247         42.9905     963.820E-03
           34201         78.2851         90.3182         42.7495         1.25453
           34202         86.7752         99.6983         41.6709         1.65728
           34203         87.2752         100.311         42.0171         1.16519
           34204         87.0585         100.044         41.8650         1.42030
           34205         85.0533         97.6446         41.5741         3.19760
           34206         85.3996         98.0540         41.4496         2.87142
           34207         64.1986         63.6099         48.9010        -16.2739
           34208         63.7767         62.7442         49.2453        -16.2828
           34209         76.9287         88.5882         42.7243         3.14441
           34210         76.6058         88.2178         42.4221         3.09914
           34211         76.6720         88.2408         42.8882         3.52372
           34212         66.1483         68.1245         51.0066        -14.2336
           34213         62.5287         61.5707         51.3896        -14.6298
           34214         62.1795         60.6193         52.0209        -14.5933
           34215         66.6700         71.2722         47.9251         12.7026
           34216         65.0013         65.5569         51.9066        -14.5602
           34217         65.2411         65.9178         51.1735        -14.8971
           34218         64.7258         64.7397         51.5065        -15.0533
           34219         61.4004         57.8415         52.2094        -15.4749
           34220         71.8305         78.2712         47.4177         12.8614
           34221         80.5693         92.9812         46.4448         1.55815
           34222         83.2737         95.5430         41.7665         4.16680
           34223         62.6698         61.6336         46.3467        -16.7063
           34224         61.2032         57.1666         52.8764        -15.3260
           34225         60.9653         56.1018         54.9360        -14.5305
           34226         60.7777         55.2028         55.3960        -14.5588
           34227         66.6125         68.3585         49.0591         15.3964
           34228         65.9710         67.1121         49.4509         15.5080
           34229         87.7658         100.923         42.6814         1.03582
           34230         71.4820         77.6291         47.5333        -13.0888
           34231         63.3354         61.6439         50.6898        -15.9861
           34232         64.3354         63.8295         49.2207        -16.1647
           34233         63.2370         61.2648         54.1942        -14.4768
           34234         62.8995         60.2909         54.3953        -14.6292
           34235         77.0925         88.7461         43.1246         3.40585
           34236         65.5784         66.8865         51.4177        -14.4001
           34237         64.8490         65.4436         52.5030        -14.1652
           34238         64.4975         64.7942         53.3133        -13.8290
           34239         62.1944         60.4128         51.5773        -14.9905
           34240         62.5113         61.2720         51.0543        -15.0007
           34241         76.2548         87.8146         42.0814         3.04965
           34242         76.8197         88.4966         42.3065         2.81482
           34243         76.7695         88.4634         41.9627         2.52164
           34244         76.4726         88.0970         41.9665         2.76391
           34245         65.5445         66.2364         49.5512         15.6587
           34246         68.2123         71.8150         49.0799         14.2754
           34247         67.5798         70.7553         49.6294         14.2500
           34248         63.6319         64.2231         49.8752         14.6060
           34249         63.5143         64.2402         50.2764         14.2515
           34250         63.1097         63.2209         50.7089         14.3808
           34251         63.0117         63.3181         51.0697         13.9858
           34252         62.6066         62.3035         51.6853         13.9841
           34253         67.2426         69.4749         48.4404         15.4243
           34254         65.7725         67.0593         50.8197        -14.7689
           34255         64.4574         64.0495         51.0693        -15.4414
           34256         64.2668         63.6890         51.7179        -15.1992
           34257         63.8920         65.2021         49.8910         14.0802
           34258         64.0795         65.3261         49.5422         14.3835
           34259         64.4030         63.9175         49.8136        -15.9673
           34260         64.0567         63.2402         49.6233        -16.1209
           34261         63.3566         64.1929         50.6140         13.9118
           34262         66.3649         70.6268         48.0755        -12.9141
           34263         65.6018         69.4012         48.6082        -12.8813
           34264         66.1292         70.4600         48.2588        -12.6474
           34265         63.8143         62.6169         51.8136        -15.3963
           34266         79.0055         91.1848         43.6367     824.072E-03
           34267         65.1090         65.3577         49.5450         15.8218
           34268         65.2999         65.7266         49.0939         15.9233
           34269         75.8983         86.5589         45.3806        -6.75285
           34270         69.6684         75.3979         46.8028         13.0024
           34271         88.7341         102.089         46.0710        -3.28304
           34272         73.3201         83.6436         33.1754        -4.23813
           34273         80.7035         92.8304         48.5362         3.89254
           34274         52.0233         49.7455         38.3443        -14.9330
           34275         87.3170         99.9422         50.3689        -6.65248
           34276         79.4307         90.5113         50.8756        -6.66909
           34277         61.5935         54.5238         66.7543         1.22161
           34278         68.7905         78.7574         36.8950         4.96417
           34279         69.1355         79.2327         36.7868         4.59520
           34280         57.2810         39.4011         64.2728         6.58495
           34281         87.3129         46.0575         100.672        -1.16745
           34282         87.3028         46.1696         100.684    -685.955E-03
           34283         65.9040         45.3815         74.9922        -4.59260
           34284         64.2663         45.3716         72.9741        -4.37075
           34285         76.1820         49.1836         87.7481    -485.995E-03
           34286         76.2480         49.8874         87.7685    -282.543E-03
           34287         83.0765         94.2742         61.2288        -3.53129
           34288         20.2721         21.3719         14.9586        -4.08801
           34289         91.4574         46.5490         101.921        -13.5908
           34290         86.3658         53.8156         89.7186         21.1485
           34291         44.2824         31.2236         45.7117         10.3881
           34292         31.3122         32.3460         21.9976        -7.34467
           34293         44.4881         45.3081         31.3940        -11.0028
           34294         45.1595         46.4518         31.6358        -10.8063
           34295         46.1814         46.7243         32.7719        -11.6449
           34296         68.3854         77.1443         44.7619         7.63387
           34297         67.9781         76.4562         44.2481         8.17763
           34298         68.8216         77.4577         44.8370         8.15129
           34299         95.1144         109.205         64.7187     115.503E-03
           34300         95.2449         109.275         65.3922     187.877E-03
           34301         71.0051         47.5678         81.3628         3.12898
           34302         71.3423         47.5568         81.7945         3.03373
           34303         74.8221         84.2741         53.2231         7.04382
           34304         85.1362         47.0656         98.1017         2.95988
           34305         85.4385         47.0618         98.4767         2.69320
           34306         84.2568         47.4698         97.0964        -3.01464
           34307         28.1816         22.0938         27.3273         7.37229
           34308         28.2888         27.4143         22.1700        -7.41564
           34309         29.9059         23.1745         29.0068         7.91894
           34310         30.0564         29.0885         23.3193        -7.99549
           34311         30.0991         29.5397         22.9062        -7.85943
           34312         63.2885         43.5190         71.2856        -6.63766
           34313         63.3776         44.8922         71.2447        -6.42761
           34314         65.6526         72.9057         46.2988         8.69652
           34315         65.0336         72.0613         45.6983         8.96808
           34316         31.6329         32.0190         22.8893        -7.83991
           34317         33.3098         24.4256         33.3174         8.49862
           34318         31.5450         23.3014         31.5018         8.03743
           34319         34.9285         26.6175         33.6334         9.58358
           34320         47.5264         32.7456         50.7849         9.49316
           34321         31.1108         24.1415         29.9804         8.36694
           34322         31.1442         23.6969         30.4466         8.22423
           34323         32.6974         25.9320         30.7003         9.13344
           34324         62.3373         42.9649         69.9003        -7.23788
           34325         62.0726         42.9156         69.2377        -7.93243
           34326         61.1825         42.2269         68.3597         7.61032
           34327         61.3889         42.4709         68.3200         8.14081
           34328         64.1053         70.7026         44.8408         9.49211
           34329         62.4380         44.4380         69.8582        -7.02302
           34330         62.1873         44.5704         69.1869        -7.69409
           34331         88.0454         45.2712         101.468    -303.832E-03
           34332         73.6015         49.1970         84.5554        -1.53649
           34333         72.8273         49.0073         83.5927        -1.91553
           34334         83.2677         47.3092         95.9824        -2.80283
           34335         83.0476         46.7910         95.6728        -3.20650
           34336         83.1483         47.0760         95.8214        -2.97945
           34337         83.5923         46.8315         96.3103        -3.11801
           34338         73.5243         48.1293         84.5521        -1.80390
           34339         73.0328         47.7360         83.9772        -1.96847
           34340         73.3479         47.9430         84.3497        -1.86955
           34341         72.7397         47.7585         83.5925        -2.21676
           34342         83.1442         47.5551         95.7624        -3.41689
           34343         59.2887         63.2254         41.0704         11.9389
           34344         33.9719         26.5211         32.1374         9.49086
           34345         46.1620         47.6743         32.2339        -10.8903
           34346         86.1446         45.7812         98.9169        -4.79444
           34347         81.5967         92.7808         52.7994         7.31977
           34348         91.4676         105.044         59.9191        -3.46261
           34349         91.4303         105.084         58.7761        -3.58833
           34350         83.7381         47.2987         96.4290        -3.52616
           34351         83.7812         95.6409         58.9183        -3.45209
           34352         72.4321         47.6096         83.2161        -2.35930
           34353         72.3524         48.9314         82.9846        -2.21323
           34354         83.6291         46.5848         96.3205        -3.32217
           34355         84.0126         46.6525         96.7786        -3.19004
           34356         32.0151         24.6935         30.8822        -8.64241
           34357         49.7055         38.5460         48.8098         12.7000
           34358         65.9122         72.5777         42.1232        -10.9506
           34359         48.9316         38.2349         47.5010         12.8094
           34360         30.9029         23.3726         30.3913        -8.07051
           34361         85.2003         46.2536         97.8003        -5.11232
           34362         85.0059         45.1847         97.6075        -4.74294
           34363         71.6510         53.8345         80.8293        -4.23237
           34364         81.6637         92.8012         52.4376         7.60401
           34365         91.2424         104.905         57.8505        -3.74901
           34366         89.1587         44.0215         102.320        -3.92697
           34367         49.7393         38.9868         48.2151         13.0267
           34368         27.8489         27.7008         21.2966         6.94304
           34369         72.5627         53.2618         82.1016        -4.49939
           34370         97.3255         39.7546         110.721         3.38279
           34371         96.3774         40.3428         109.677         4.34731
           34372         71.4300         81.7459         41.9163        -5.45779
           34373         74.1498         82.0820         46.1905        -11.8122
           34374         93.4053         107.794         56.9889     345.633E-03
           34375         81.0083         46.6400         92.5878        -6.65455
           34376         55.6643         54.6487         40.4387         15.1291
           34377         89.1421         44.0936         102.137         4.95490
           34378         94.9345         40.5699         108.428        -1.72241
           34379         67.9664         47.6531         77.2404         4.59289
           34380         67.2325         71.6314         45.8414         13.8010
           34381         35.1105         32.4906         28.3211        -9.91950
           34382         90.5757         43.0973         103.900         3.12314
           34383         85.6193         97.3042         33.5324     569.210E-03
           34384         76.4858         86.2023         49.5214        -8.86444
           34385         76.2324         85.8068         49.6718        -9.00861
           34386         66.3586         75.4423         48.4809         2.51869
           34387         65.9692         74.7860         48.9703         2.78043
           34388         65.5874         74.1332         49.5815         2.78603
           34389         56.5804         55.7851         40.0692         15.4821
           34390         60.0471         66.8257         48.1213        -3.65455
           34391         65.4401         73.9440         49.9252         2.14756
           34392         67.3849         71.6822         45.9870         13.9527
           34393         72.3566         47.8607         83.2237     772.689E-03
           34394         71.6844         48.0820         82.3750     792.783E-03
           34395         79.3648         90.4891         50.3464        -6.62132
           34396         66.4571         76.5188         40.3940        -2.62308
           34397         56.4388         43.6233         55.2489        -14.6064
           34398         63.5812         69.9576         54.2639     189.909E-03
           34399         63.4801         69.5635         54.7432     807.850E-03
           34400         66.1978         75.2379         48.8544         1.85816
           34401         65.8132         74.5910         49.3391         2.11873
           34402         77.6779         89.5180         39.9476     446.509E-03
           34403         79.2547         49.1125         90.8183         5.21599
           34404         70.7751         48.2575         81.2059         1.25441
           34405         65.8185         74.6317         49.5068         1.41964
           34406         81.0462         93.4890         47.5890        -2.05215
           34407         59.5284         63.5803         53.4658        -3.73937
           34408         63.8568         70.6121         53.6632     618.887E-03
           34409         63.7175         70.1208         54.2089         1.36158
           34410         64.0046         70.7180         53.6776         1.84781
           34411         86.2256         98.5542         47.7952         7.02289
           34412         70.2159         48.4555         80.4735         1.38154
           34413         59.6820         57.9249         43.8998         16.5564
           34414         65.5598         75.4103         41.2617        -2.60761
           34415         80.7661         93.1707         47.0489        -2.03022
           34416         84.9426         96.8769         35.1594    -149.478E-03
           34417         85.0096         96.9209         34.9961    -179.354E-03
           34418         75.7069         85.2882         47.7841         9.12078
           34419         75.8922         85.5011         48.0804         9.09935
           34420         66.8975         70.3376         46.9328         14.4493
           34421         71.0761         81.5701         45.7669         3.49906
           34422         75.6872         85.1591         48.1236         9.28731
           34423         75.2180         84.4858         47.8018         9.54724
           34424         88.6521         102.001         45.6041        -2.99838
           34425         67.3723         71.2887         47.0019         14.1242
           34426         72.4998         78.2427         46.0397        -14.3401
           34427         57.6687         54.3202         44.2844        -16.5270
           34428         61.9511         60.4162         46.2955        -16.7487
           34429         63.2197         51.6984         69.4482         5.51700
           34430         60.8485         59.1835         45.0389         16.7024
           34431         62.1386         56.2405         60.2214         12.3622
           34432         89.4639         103.057         45.7199        -1.22187
           34433         82.9530         95.2159         39.1237         1.79572
           34434         84.5735         96.8074         37.3016    -469.907E-03
           34435         84.6394         96.8583         37.1508    -396.987E-03
           34436         89.1913         102.714         45.1695        -1.17456
           34437         62.5553         52.0591         67.8760         6.56842
           34438         79.1198         90.8128         46.9216         4.91349
           34439         57.0876         53.1903         44.5541        -16.4779
           34440         88.9127         102.364         44.6562        -1.17528
           34441         84.6373         96.8948         37.4355    -504.593E-03
           34442         60.9247         54.0801         60.9256        -11.1070
           34443         84.4419         96.0770         47.4203        -8.30577
           34444         84.7054         96.9837         37.5462    -522.967E-03
           34445         84.6921         96.9368         37.3046    -431.271E-03
           34446         78.3341         90.2087         44.3218        -3.28706
           34447         88.6743         102.062         44.3424        -1.39402
           34448         88.7104         102.110         44.2975        -1.15518
           34449         84.7875         97.1022         37.7643    -561.938E-03
           34450         63.7973         63.1337         47.6924        -16.5395
           34451         60.8217         54.8036         58.6478         12.5218
           34452         60.8475         55.6807         58.1715         12.3448
           34453         87.7613         100.729         47.0481         5.20713
           34454         80.0422         91.7947         42.3101        -4.97270
           34455         87.4487         100.518         41.9310     75.1902E-03
           34456         63.3040         61.6457         55.5267         13.5028
           34457         88.4982         101.843         43.9960        -1.29684
           34458         87.3847         100.213         47.0950         5.63041
           34459         83.2677         94.9994         44.6737         7.23088
           34460         73.7180         83.1839         46.0879        -8.64993
           34461         83.3168         94.9026         45.2972        -7.79258
           34462         77.8424         86.8601         46.0229        -11.4632
           34463         60.4648         53.7451         55.6432         14.8530
           34464         60.5922         54.0739         56.1317         14.5135
           34465         70.6215         79.6175         47.5663         7.59423
           34466         69.5924         77.8438         48.5298         8.28733
           34467         79.7783         90.4887         44.7446         8.62505
           34468         73.5527         82.5784         46.3056        -9.49456
           34469         73.8064         83.1041         46.1235        -9.06958
           34470         68.1004         76.6547         45.7334         7.65643
           34471         80.1571         91.0692         44.5343         8.24546
           34472         63.6744         62.4181         50.0734        -16.0888
           34473         68.9848         76.4137         46.5178        -10.1740
           34474         88.3766         101.690         43.8983        -1.47610
           34475         82.0756         93.4734         44.5739        -7.71959
           34476         61.6808         67.7465         50.1429         5.70490
           34477         82.8129         94.4349         44.5688         7.35991
           34478         86.0354         98.7270         43.7499         4.48416
           34479         81.3211         92.7260         44.0273         7.28204
           34480         69.5037         77.5247         48.6844         8.65556
           34481         64.3418         66.2476         55.0355         11.0783
           34482         65.3428         67.4777         52.8862        -12.7558
           34483         65.6872         69.9463         48.5580        -12.3948
           34484         63.1525         64.9491         51.0970        -12.6181
           34485         64.0134         63.0887         50.3676        -15.8982
           34486         64.2615         63.6028         50.5787        -15.7370
           34487         71.1198         79.2427         47.7561        -9.70060
           34488         81.5643         92.7204         44.8141        -8.21655
           34489         82.8577         94.5850         44.2346         6.98337
           34490         82.3317         94.0445         43.7978         6.70380
           34491         71.4302         78.1592         47.7271        -12.1908
           34492         71.5671         78.6109         47.6755        -11.7902
           34493         64.1907         70.1484         48.8770         8.93167
           34494         63.6710         62.3156         50.9838        -15.7955
           34495         64.0764         63.2085         51.1069        -15.5878
           34496         71.5122         79.5095         47.5948        -10.1850
           34497         70.9445         78.7807         47.9321        -10.0889
           34498         70.8046         78.5515         48.0286         10.1476
           34499         81.8406         93.4203         43.8678         6.93499
           34500         62.3924         62.6681         52.2880         13.0164
           34501         62.2919         62.0392         52.4515         13.3455
           34502         68.5182         74.8834         49.7828         10.5957
           34503         71.4158         78.6070         47.7670        -11.4643
           34504         70.9924         78.2359         47.9926        -11.1133
           34505         71.4325         79.0432         47.7213        -10.7934
           34506         71.1230         78.7702         47.8659        -10.5357
           34507         70.6814         78.0126         48.1823        -10.7577


  Minimum                1.53904    -289.479E-03    -303.251E-03        -44.6224
         At Node              97             144             192             196

  Maximum                148.926         110.013         165.984         44.6779
         At Node             229             169             228             254

           Total     2.36998E+06     2.23831E+06     1.90412E+06        -916.010


