********************************************************************************
Field Output Report, written Tue Aug  8 22:13:24 2023

Source 1
---------

   ODB: D:/temp/1hole_all_pressure.odb
   Step: Step-1
   Frame: Increment      1: Step Time =    1.000

Loc 1 : Nodal values from source 1

Output sorted by column "Node Label".

Field Output reported at nodes for part: HOLE1-1
   Computation algorithm: EXTRAPOLATE_COMPUTE_AVERAGE
   Averaged at nodes
   Averaging regions: ODB_REGIONS

      Node Label         S.Mises           S.S11           S.S22           S.S12
                          @Loc 1          @Loc 1          @Loc 1          @Loc 1
---------------------------------------------------------------------------------
               1         6.38410    -220.971E-03         6.27033     39.2283E-03
               2         12.3093     419.354E-03         12.5137     6.90066E-03
               3         17.6180         2.46739         18.7216    -10.0991E-03
               4         22.5844         5.58963         24.8542    -25.9424E-03
               5         27.4208         9.43577         30.8927    -19.4180E-03
               6         34.5922         16.0588         39.7028    -32.5527E-03
               7         39.3677         20.7012         45.3993    -21.8057E-03
               8         44.0870         25.3606         50.9071    -18.5236E-03
               9         48.7168         29.9060         56.2149    -20.5372E-03
              10         53.2100         34.2346         61.3021    -33.3821E-03
              11         57.5153         38.2698         66.1410    -21.0304E-03
              12         61.5978         41.9309         70.7212    -14.8767E-03
              13         65.4241         45.1703         75.0260    -19.4096E-03
              14         68.9601         47.9704         79.0272    -11.7911E-03
              15         72.1922         50.3043         82.7180    -6.35654E-03
              16         75.1080         52.1746         86.0838    -3.21382E-03
              17         77.7012         53.6106         89.1103    -4.51758E-03
              18         79.9789         54.6342         91.7993    -2.20712E-03
              19         82.7642         55.6206         95.1131    -1.26968E-03
              20         84.2242         55.9629         96.8641     1.07159E-03
              21         85.3633         56.1497         98.2340     1.78988E-03
              22         86.1806         56.2517         99.2167     2.03915E-03
              23         86.6734         56.3225         99.8070     777.381E-06
              24         86.8418         56.4046         100.003    -446.895E-06
              25         86.6858         56.4987         99.8060    -3.35799E-03
              26         86.2111         56.5844         99.2218    -212.424E-06
              27         85.4049         56.6401         98.2337    -2.42103E-03
              28         84.2824         56.5912         96.8638    -1.17910E-03
              29         82.8409         56.3617         95.1146    -1.68848E-03
              30         81.0808         55.8589         92.9981     5.68339E-03
              31         77.8170         54.5421         89.1125    -3.89189E-03
              32         75.2325         53.1523         86.0830     3.95896E-03
              33         72.3211         51.2904         82.7181     8.25224E-03
              34         69.0877         48.9541         79.0273     13.2130E-03
              35         65.5440         46.1393         75.0253     19.0909E-03
              36         61.7049         42.8676         70.7214     17.1994E-03
              37         57.6013         39.1604         66.1394     22.1660E-03
              38         53.2750         35.0873         61.3030     22.8257E-03
              39         48.7523         30.6943         56.2150     20.5750E-03
              40         44.0926         26.0739         50.9087     21.3464E-03
              41         39.3392         21.3217         45.3972     28.4022E-03
              42         34.5504         16.5828         39.7157     33.3766E-03
              43         27.3414         9.81440         30.8939     24.0995E-03
              44         22.5096         5.84956         24.8569     17.6063E-03
              45         17.5530         2.63205         18.7204     8.23091E-03
              46         12.2656     501.269E-03         12.5085    -9.70772E-03
              47         6.36381    -191.661E-03         6.26522    -47.6750E-03
              48         1.53738     857.434E-03     859.544E-03     736.330E-03
              49         1.61989     969.344E-03     833.959E-03    -774.017E-03
              50         7.02731         6.90411    -239.516E-03    -39.3505E-03
              51         13.5432         13.7691     463.896E-03    -8.13241E-03
              52         19.4217         20.5973         2.61663     9.54038E-03
              53         24.9364         27.3422         5.85299     25.8577E-03
              54         30.2898         33.9836         9.82908     26.7069E-03
              55         38.1953         43.6820         16.5696     25.7176E-03
              56         43.4063         49.9407         21.2891     24.2458E-03
              57         48.5390         55.9996         25.9821     24.2544E-03
              58         53.5549         61.8382         30.5191     31.0057E-03
              59         58.4061         67.4300         34.7927     23.3529E-03
              60         63.0543         72.7589         38.7134     28.5761E-03
              61         67.4534         77.7939         42.2216     16.9715E-03
              62         71.5795         82.5240         45.2567     10.8720E-03
              63         75.4070         86.9291         47.7904     7.02965E-03
              64         78.9193         90.9912         49.8204     3.82670E-03
              65         82.1052         94.6938         51.3561     188.641E-06
              66         84.9612         98.0256         52.4257    -3.55597E-03
              67         87.4786         100.967         53.0916    -588.995E-06
              68         90.6154         104.625         53.5062    -2.22045E-03
              69         92.2760         106.551         53.5034    -2.63555E-03
              70         93.5824         108.057         53.3834    -2.76205E-03
              71         94.5251         109.137         53.2286    -2.52472E-03
              72         95.0945         109.786         53.1059    -740.906E-06
              73         95.2843         110.002         53.0608     131.274E-06
              74         95.0943         109.786         53.1059     1.03432E-03
              75         94.5248         109.137         53.2279     3.29619E-03
              76         93.5819         108.057         53.3834     2.70625E-03
              77         92.2757         106.550         53.5041     1.30145E-03
              78         90.6154         104.625         53.5032    -41.3759E-06
              79         88.6102         102.288         53.3017     1.05586E-03
              80         84.9592         98.0230         52.4300    -2.81090E-03
              81         82.1056         94.6943         51.3559    -5.43509E-03
              82         78.9199         90.9919         49.8212    -8.41790E-03
              83         75.4082         86.9306         47.7903    -12.6270E-03
              84         71.5824         82.5278         45.2523    -17.7278E-03
              85         67.4532         77.7934         42.2229    -16.2738E-03
              86         63.0501         72.7538         38.7184    -21.2809E-03
              87         58.4087         67.4328         34.8061    -22.0343E-03
              88         53.5535         61.8366         30.5348    -20.4330E-03
              89         48.5387         56.0000         25.9988    -21.5141E-03
              90         43.4028         49.9376         21.2976    -29.0260E-03
              91         38.1987         43.6883         16.5867    -33.8475E-03
              92         30.2915         33.9844         9.82528    -24.6511E-03
              93         24.9382         27.3441         5.85279    -18.1814E-03
              94         19.4163         20.5947         2.62369    -8.77637E-03
              95         13.5303         13.7636     479.227E-03     7.83764E-03
              96         7.02488         6.90083    -241.214E-03     36.3825E-03
              97         1.62008     969.955E-03     832.622E-03     774.208E-03
              98         6.36543    -195.219E-03         6.26504     45.3188E-03
              99         12.2710     495.463E-03         12.5112     9.58887E-03
             100         17.5562         2.62849         18.7222    -8.17536E-03
             101         22.5060         5.85354         24.8544    -25.7679E-03
             102         27.3400         9.81708         30.8930    -26.2708E-03
             103         34.5505         16.5801         39.7155    -30.7622E-03
             104         39.3398         21.3203         45.3978    -29.3880E-03
             105         44.0929         26.0712         50.9091    -24.5381E-03
             106         48.7558         30.6942         56.2192    -25.0396E-03
             107         53.2691         35.0776         61.2968    -23.5424E-03
             108         57.6036         39.1667         66.1414    -19.1913E-03
             109         61.7047         42.8692         70.7209    -15.3760E-03
             110         65.5418         46.1409         75.0223    -12.0527E-03
             111         69.0879         48.9449         79.0292    -11.1140E-03
             112         72.3250         51.2731         82.7260    -16.6945E-03
             113         75.2343         53.1384         86.0875    -9.95452E-03
             114         77.8170         54.5433         89.1122    -5.49757E-03
             115         80.0713         55.5276         91.7867    -2.72215E-03
             116         82.8408         56.3573         95.1152    -1.96538E-03
             117         84.2836         56.5879         96.8657     84.5566E-06
             118         85.4062         56.6394         98.2353     2.04984E-03
             119         86.2070         56.5890         99.2164     581.441E-06
             120         86.6865         56.4996         99.8068     70.3670E-06
             121         86.8422         56.4064         100.004    -197.013E-06
             122         86.6734         56.3273         99.8066    -510.967E-06
             123         86.1805         56.2509         99.2167    -464.953E-06
             124         85.3641         56.1416         98.2358    -1.96403E-03
             125         84.2253         55.9581         96.8660    -2.72751E-03
             126         82.7645         55.6187         95.1138    -1.20818E-03
             127         80.9827         55.0466         92.9878     767.348E-06
             128         77.7043         53.6050         89.1149    -343.926E-06
             129         75.1094         52.1718         86.0858     3.20553E-03
             130         72.1927         50.2921         82.7205     9.16208E-03
             131         68.9622         47.9598         79.0315     9.39804E-03
             132         65.4211         45.1725         75.0220     9.85810E-03
             133         61.5998         41.9301         70.7239     15.4374E-03
             134         57.5133         38.2556         66.1401     23.4678E-03
             135         53.2129         34.2356         61.3056     20.6179E-03
             136         48.7168         29.9061         56.2149     19.0183E-03
             137         44.0877         25.3587         50.9079     19.8041E-03
             138         39.3689         20.6946         45.4003     22.1984E-03
             139         34.6032         16.0426         39.7129     24.0786E-03
             140         27.4215         9.43828         30.8940     22.0779E-03
             141         22.5880         5.58296         24.8559     17.5692E-03
             142         17.6115         2.47242         18.7171     8.18643E-03
             143         12.3123     423.278E-03         12.5185    -4.68243E-03
             144         6.38886    -226.487E-03         6.27217    -39.2935E-03
             145         1.53777     860.275E-03     857.684E-03    -736.404E-03
             146         6.38292         6.26928    -220.638E-03    -41.4092E-03
             147         12.3072         12.5129     422.274E-03    -7.52736E-03
             148         17.6165         18.7211         2.47003     10.1244E-03
             149         22.5826         24.8532         5.59197     27.8348E-03
             150         27.4184         30.8927         9.44618     26.0391E-03
             151         34.6041         39.7152         16.0543     30.0089E-03
             152         39.3663         45.3976         20.7002     28.5020E-03
             153         44.0885         50.9088         25.3631     23.6141E-03
             154         48.7204         56.2193         29.9050     23.8432E-03
             155         53.2033         61.2962         34.2078     21.8991E-03
             156         57.5104         66.1404         38.2207     16.3159E-03
             157         61.5881         70.7203         41.8464     12.8104E-03
             158         65.4062         75.0223         45.0414     10.3850E-03
             159         68.9377         79.0295         47.7706     9.61905E-03
             160         72.1650         82.7263         50.0269     14.9706E-03
             161         75.0696         86.0876         51.8269     8.41426E-03
             162         77.6533         89.1125         53.1730     3.81361E-03
             163         79.9154         91.7894         54.1104     1.18417E-03
             164         82.6988         95.1145         54.9064     1.73047E-03
             165         84.1545         96.8648         55.1314    -572.348E-06
             166         85.2905         98.2342         55.1995    -1.66136E-03
             167         86.1046         99.2160         55.1881    -1.23578E-03
             168         86.5945         99.8065         55.1565    -592.233E-06
             169         86.7579         100.003         55.1419     104.981E-06
             170         86.5944         99.8064         55.1570     477.126E-06
             171         86.1050         99.2165         55.1870     610.802E-06
             172         85.2913         98.2357         55.1925     2.17060E-03
             173         84.1553         96.8662         55.1280     3.02773E-03
             174         82.6985         95.1140         54.9079     1.68599E-03
             175         80.9220         92.9877         54.4520    -129.872E-06
             176         77.6547         89.1149         53.1691     576.377E-06
             177         75.0687         86.0861         51.8296    -3.05500E-03
             178         72.1614         82.7210         50.0320    -9.11991E-03
             179         68.9396         79.0324         47.7669    -10.3291E-03
             180         65.4050         75.0224         45.0301    -10.1787E-03
             181         61.5929         70.7269         41.8415    -13.5940E-03
             182         57.5082         66.1397         38.2024    -21.7440E-03
             183         53.2110         61.3056         34.2067    -20.5627E-03
             184         48.7165         56.2151         29.8933    -19.1759E-03
             185         44.0878         50.9080         25.3558    -19.9577E-03
             186         39.3689         45.4003         20.6966    -22.3716E-03
             187         34.6029         39.7129         16.0462    -24.2776E-03
             188         27.4209         30.8941         9.44109    -22.2100E-03
             189         22.5878         24.8562         5.58427    -17.6013E-03
             190         17.6123         18.7175         2.47147    -8.44192E-03
             191         12.3130         12.5191     422.971E-03     4.43015E-03
             192         6.38905         6.27193    -227.341E-03     38.2909E-03
             193         98.0387         109.986         32.4542         3.20912
             194         94.6768         105.223         30.3083         7.35530
             195         89.0206         96.9381         28.7730         12.7669
             196         81.6253         85.1795         30.0414         18.8288
             197         74.1568         70.7913         35.7536         24.0869
             198         69.6366         55.6887         46.1320         27.0117
             199         70.3619         42.2704         59.9506         26.4831
             200         76.0140         32.6654         74.9823         22.6427
             201         83.7986         27.9111         88.8348         16.6435
             202         90.9967         27.4879         99.7945         10.1490
             203         96.1387         29.6367         107.141         4.49072
             204         98.8635         32.1967         110.948     121.207E-03
             205         99.3694         33.2961         111.660        -2.27447
             206         98.2580         33.4228         110.080        -5.74866
             207         94.9678         32.4119         105.310        -9.85642
             208         89.5791         31.8585         97.0470        -15.0898
             209         82.7792         33.9368         85.3368        -20.9314
             210         76.4772         40.2759         71.0817        -26.0570
             211         73.4475         51.3253         56.0892        -28.8273
             212         75.7372         65.9847         42.7401        -28.1403
             213         82.7312         81.9008         33.3723        -24.1952
             214         91.4307         96.6713         29.0952        -18.0772
             215         99.2525         108.500         29.3877        -11.6005
             216         104.884         116.663         32.3270        -6.23658
             217         108.082         121.263         35.4529        -2.54027
             218         109.098         122.727         36.7506     122.562E-06
             219         108.093         121.269         35.4346         2.54529
             220         104.889         116.669         32.3228         6.22884
             221         99.2561         108.505         29.3852         11.5960
             222         91.4285         96.6777         29.1028         18.0667
             223         82.6021         81.8018         33.4477         24.1446
             224         75.7775         65.9267         42.7710         28.2034
             225         73.4435         51.3122         56.0806         28.8305
             226         76.4826         40.2580         71.1010         26.0507
             227         82.8128         33.9032         85.3671         20.9381
             228         89.5804         31.8567         97.0449         15.0953
             229         94.9603         32.4162         105.299         9.86961
             230         98.2557         33.4447         110.083         5.74487
             231         99.2446         33.5456         111.487         3.40447
             232         98.8666         32.1692         110.945    -127.241E-03
             233         96.1725         29.6285         107.178        -4.46398
             234         91.0069         27.4893         99.8137        -10.1262
             235         83.7665         27.9411         88.8186        -16.6239
             236         75.9987         32.6845         74.9744        -22.6338
             237         70.3444         42.2826         59.9569        -26.4626
             238         69.6228         55.7490         46.0920        -26.9845
             239         74.2262         70.8304         35.7136        -24.1297
             240         81.5469         85.1105         30.1022        -18.8146
             241         89.0200         96.9443         28.7760        -12.7536
             242         94.6805         105.230         30.3085        -7.34374
             243         98.0412         109.986         32.4467        -3.21575
             244         99.1340         111.520         33.4009    -1.02019E-03
             245         98.3538         31.9213         110.343     610.934E-03
             246         96.2756         106.663         32.9025         10.3114
             247         85.9668         95.3494         32.4368         10.6375
             248         8.69312         9.09592         7.92967     832.634E-03
             249         12.8170         9.20955         14.1835         1.72339
             250         17.8451         10.7323         19.9682         2.50609
             251         22.9718         13.2311         25.7437         3.18949
             252         28.0741         16.3867         31.5144         3.78119
             253         33.2490         20.0938         37.3592         4.34805
             254         39.2141         24.8582         43.9489         5.18988
             255         43.4253         27.3315         49.3720         4.10530
             256         47.6340         30.5726         54.3474         3.75113
             257         51.8622         33.9916         59.1770         3.82378
             258         56.3525         37.4427         64.2101         4.27792
             259         60.1395         40.3222         68.7893         3.29900
             260         65.5554         43.9634         75.0922         3.01091
             261         69.0573         46.4769         79.2213         2.21810
             262         72.1200         48.4934         82.8059         1.67306
             263         74.8706         49.1074         86.1047         1.67709
             264         77.7663         50.5689         89.5189         1.10000
             265         79.7097         50.3429         91.8819     922.639E-03
             266         82.4690         51.9245         95.0901     349.528E-03
             267         83.9119         52.8559         96.7547     133.744E-03
             268         84.9586         52.6362         98.0121     29.0010E-03
             269         85.6952         51.4850         98.9246    -50.1874E-03
             270         86.4771         51.9348         99.8277    -97.7533E-03
             271         86.6384         52.3346         100.005    -90.0671E-03
             272         86.4207         51.4343         99.7738    -112.566E-03
             273         85.8682         52.0269         99.1107    -115.978E-03
             274         85.0377         52.1547         98.1276    -164.400E-03
             275         83.9505         52.2111         96.8374    -244.713E-03
             276         82.6089         51.7571         95.2663    -397.829E-03
             277         80.0979         49.6396         92.3838    -952.017E-03
             278         76.9320         49.1450         88.6190        -1.31122
             279         74.4335         48.6490         85.6380        -1.40802
             280         71.7389         47.1701         82.4800        -1.74035
             281         68.8020         45.1528         79.0471        -2.28710
             282         65.2033         42.4768         74.7948        -3.16062
             283         61.5212         40.2402         70.5436        -3.04798
             284         57.8174         37.4677         66.2020        -3.50006
             285         53.4575         34.1371         60.8599        -4.69079
             286         48.7300         30.4456         55.6562        -3.85355
             287         44.7010         27.2192         51.0133        -3.80677
             288         40.5376         24.0046         46.1388        -3.90869
             289         35.0052         21.0884         39.0459        -5.14701
             290         27.9197         15.2712         31.4305        -3.57756
             291         22.9665         13.4037         25.5239        -3.57980
             292         17.1078         9.31100         19.2551        -2.19904
             293         12.1320         7.55854         13.6977        -1.40973
             294         8.05282         8.10971         7.78140    -737.971E-03
             295         13.3575         15.1632         7.28206         1.40114
             296         18.9510         18.9918         15.8945         3.98665
             297         19.4648         16.6478         19.2435         4.15453
             298         26.0019         19.4374         26.9256         5.67629
             299         30.6903         22.0092         32.1935         6.57327
             300         35.3492         24.8894         37.3995         7.35330
             301         41.8515         28.6322         45.3256         7.63992
             302         46.7149         32.1038         50.8033         8.19825
             303         49.7000         33.6501         54.8681         7.60639
             304         53.9784         36.1265         60.5088         6.66337
             305         56.9274         37.9714         64.2163         6.15192
             306         62.0182         41.0765         70.4135         5.57555
             307         65.3055         42.8104         74.4070         5.19832
             308         68.0794         43.9817         77.8056         4.78601
             309         72.0160         46.5669         82.7342         2.91910
             310         74.4802         46.9803         85.7141         2.58961
             311         76.6331         47.5642         88.3082         2.02091
             312         79.6888         48.2688         91.9476         1.19202
             313         81.6097         48.0942         94.2170     717.446E-03
             314         83.5051         48.3676         96.4216     274.374E-03
             315         85.6612         48.8914         98.9107    -91.8177E-03
             316         86.3372         48.0214         99.6709    -189.404E-03
             317         86.6102         49.0544         100.002    -172.951E-03
             318         86.3721         48.1539         99.7136    -206.618E-03
             319         85.5457         48.1706         98.7682    -273.296E-03
             320         84.6651         48.4872         97.7589    -373.333E-03
             321         83.6219         48.8828         96.5504    -507.319E-03
             322         81.5218         47.8371         94.1092    -964.307E-03
             323         79.5737         47.2685         91.8262        -1.42674
             324         77.0931         46.0676         88.8945        -2.16387
             325         74.4362         45.3557         85.7142        -2.84700
             326         72.6201         45.2167         83.5393        -3.03795
             327         69.0127         43.4389         79.1642        -3.98569
             328         64.6074         41.1434         73.7903        -4.90949
             329         58.5186         37.6175         65.8641        -7.04526
             330         53.8487         34.7470         60.2827        -7.14068
             331         49.0918         32.1238         53.9486        -8.17815
             332         45.3632         29.1795         50.1470        -7.18614
             333         40.3115         26.1803         43.9114        -7.32607
             334         36.0868         23.9621         38.6425        -7.32100
             335         30.1360         20.3074         32.0561        -6.30261
             336         24.6040         19.0203         24.7794        -5.79883
             337         19.9411         15.2264         20.7084        -4.17437
             338         16.5057         15.0433         15.7929        -3.38117
             339         11.6085         13.2099         6.47692        -1.13419
             340         18.7488         21.1351         9.27552         2.22334
             341         20.3899         21.6306         14.7954         4.04125
             342         26.3952         25.0801         22.2119         6.61822
             343         31.4484         27.4107         28.3840         8.36724
             344         33.8435         27.1535         32.7200         8.67826
             345         39.8355         30.6521         39.5821         9.89702
             346         43.3308         32.7895         43.7006         10.4176
             347         45.7621         32.9352         48.0875         9.67485
             348         50.1910         35.2638         53.9786         9.40567
             349         53.3217         37.2548         57.8243         9.41402
             350         58.2285         39.5642         64.5966         8.33096
             351         61.7404         41.0456         69.5363         6.97630
             352         65.6906         42.8487         74.5404         6.24305
             353         68.3008         43.7102         77.8930         5.53242
             354         71.8588         45.3020         82.5021         3.75686
             355         73.8166         45.5134         84.9145         3.25034
             356         76.2880         45.7497         87.9332         2.41474
             357         79.6464         46.6471         91.9282         1.28855
             358         81.5278         46.3062         94.1251     718.150E-03
             359         83.2274         45.8746         96.0692     242.678E-03
             360         84.2489         46.4062         97.2484     52.6336E-03
             361         85.8717         45.3304         99.0367    -268.458E-03
             362         86.5305         46.0256         99.8146    -277.373E-03
             363         86.7355         45.3341         100.007    -296.511E-03
             364         86.5360         45.3003         99.7809    -283.234E-03
             365         85.9199         45.4752         99.0982    -310.607E-03
             366         84.4037         45.0548         97.3654    -520.025E-03
             367         82.7773         45.0508         95.5167    -848.810E-03
             368         80.8147         44.5994         93.2484        -1.34824
             369         79.0334         45.4043         91.1887        -1.79895
             370         76.3353         44.4060         87.9785        -2.69250
             371         73.3213         43.5965         84.3175        -3.73574
             372         70.5797         42.8636         80.9184        -4.65015
             373         67.9022         41.8714         77.4918        -5.69196
             374         63.9622         40.4381         72.2797        -7.17465
             375         61.4006         39.2113         69.2361        -7.15777
             376         58.4705         37.8649         65.2555        -8.11697
             377         54.2544         35.6264         59.7925        -8.74349
             378         50.2187         33.7962         54.1290        -9.64611
             379         45.9767         31.2380         48.9745        -9.47635
             380         43.2383         30.5169         44.7079        -10.0634
             381         37.7063         27.2674         38.2867        -9.24416
             382         34.1447         26.7377         32.8897        -9.10346
             383         29.1115         23.0743         28.2674        -7.48903
             384         25.2746         22.0546         23.2138        -6.46753
             385         20.6924         20.7583         16.7466        -4.63503
             386         17.2378         19.3328         9.80462        -2.36677
             387         24.8433         27.8011         13.1611         3.51019
             388         25.1386         27.1165         16.3863         4.91501
             389         35.4432         32.8495         29.3061         9.67758
             390         37.0530         32.1930         32.9284         10.2033
             391         42.4052         34.9565         39.6362         11.4129
             392         45.4817         36.4466         43.8239         11.7888
             393         47.0749         35.8138         47.5197         11.2124
             394         52.3986         38.6359         54.8000         11.0617
             395         55.2508         39.8682         59.0153         10.5390
             396         57.6413         41.0135         62.4352         10.0490
             397         61.4352         41.8205         68.3366         8.43238
             398         64.3444         42.9127         72.3644         7.47097
             399         66.9758         43.4956         76.0297         6.33343
             400         69.9264         43.9753         79.9921         4.99406
             401         72.8338         44.2605         83.7298         3.69761
             402         76.0043         44.5338         87.6253         2.41439
             403         79.1601         44.1785         91.3605         1.15685
             404         80.6219         44.1732         93.0439     706.700E-03
             405         82.0853         43.9475         94.7009     271.687E-03
             406         84.7375         43.3684         97.6414    -338.837E-03
             407         85.7871         42.8234         98.7634    -504.136E-03
             408         86.6109         43.2111         99.7107    -457.852E-03
             409         87.0563         41.7660         100.065    -502.212E-03
             410         86.7486         42.6401         99.8142    -339.166E-03
             411         86.0754         42.7035         99.0755    -319.948E-03
             412         85.0162         42.7664         97.9047    -403.233E-03
             413         83.5261         42.9888         96.2562    -646.183E-03
             414         80.4995         42.3986         92.8010        -1.30756
             415         78.0741         42.7254         90.0142        -2.11773
             416         75.7754         42.4869         87.2930        -2.91680
             417         73.3396         42.5060         84.3230        -3.90749
             418         70.4709         42.1486         80.7086        -5.08307
             419         67.8393         41.6750         77.2720        -6.18370
             420         64.1503         40.9561         72.1828        -7.82784
             421         60.3419         39.4318         67.0035        -8.92334
             422         57.8800         38.6298         63.4207        -9.75661
             423         55.6545         37.8095         60.1730        -10.3632
             424         52.1683         36.4813         55.0464        -11.0860
             425         47.2610         33.6986         48.7450        -11.0238
             426         45.2766         34.0526         44.7697        -11.6989
             427         40.9956         32.0217         39.2100        -11.1564
             428         38.5175         31.9527         35.0287        -10.8761
             429         33.7904         29.3040         29.8055        -9.45371
             430         30.1335         27.8866         25.2387        -8.10751
             431         27.2318         27.2352         20.8927        -6.64151
             432         25.3116         28.4370         13.7287        -3.36344
             433         31.1732         34.9847         16.5377         4.19958
             434         33.3995         36.3303         20.5272         6.32536
             435         37.0765         37.7266         26.4241         9.12909
             436         39.6246         38.0136         30.9272         10.7119
             437         42.2510         38.1184         35.7794         11.7732
             438         44.9968         39.0381         40.0448         12.3885
             439         47.6519         40.1897         44.0498         12.7207
             440         50.1614         41.0453         48.2311         12.7131
             441         52.5257         41.5754         52.4861         12.3528
             442         54.7609         41.8886         56.6000         11.7108
             443         58.3052         43.2502         62.3725         10.5863
             444         60.9153         44.2135         66.6218         9.36237
             445         64.0096         43.8641         71.6664         7.76046
             446         66.3757         44.0931         75.1807         6.43783
             447         68.8023         44.2087         78.6727         4.75989
             448         70.5377         43.9838         80.9219         4.15914
             449         74.0894         43.5335         85.4168         2.34738
             450         77.1230         42.9863         89.0100         1.09156
             451         79.9340         42.3668         92.1988     129.316E-03
             452         81.9831         41.6057         94.4377    -534.909E-03
             453         84.7503         40.8089         97.4167    -948.444E-03
             454         86.2577         40.5879         99.0495    -897.027E-03
             455         87.0963         39.7822         99.8688    -887.707E-03
             456         87.4530         39.7480         100.260    -616.463E-03
             457         87.2972         39.3739         100.047    -358.684E-03
             458         86.2288         40.0454         98.9693    -195.604E-03
             459         84.5968         40.1638         97.1965    -202.716E-03
             460         83.3262         41.0467         95.8821    -477.978E-03
             461         80.3430         40.8771         92.5427    -963.764E-03
             462         77.4194         41.3482         89.2363        -1.89142
             463         74.4178         41.5240         85.7185        -2.91408
             464         72.5605         41.7348         83.4466        -3.76503
             465         69.9031         41.8507         80.0410        -5.10481
             466         67.5441         41.6951         76.8604        -6.34822
             467         63.8060         41.3629         71.5867        -8.09727
             468         60.1130         40.8794         65.9485        -9.81786
             469         58.5476         40.4577         63.5069        -10.4438
             470         54.4389         39.3239         56.9216        -11.7691
             471         52.0870         38.9099         52.8888        -12.3794
             472         49.6975         37.7673         49.3901        -12.5089
             473         46.1599         37.0925         43.4235        -12.6487
             474         45.5754         38.0191         41.4408        -12.7784
             475         42.6728         36.5042         37.6770        -12.1686
             476         36.9141         34.3644         29.9113        -10.2459
             477         33.9334         33.2726         25.9727        -8.83180
             478         30.3793         32.2128         20.6011        -6.44087
             479         30.4253         34.2931         16.9260        -3.81396
             480         38.3434         43.4551         20.4008         4.17133
             481         39.6897         43.4316         24.1308         7.18137
             482         41.9722         43.6185         28.6026         9.80797
             483         43.5773         42.9280         32.6383         11.4310
             484         46.2911         43.6632         37.2466         12.5882
             485         47.5784         43.9444         39.6247         12.9584
             486         49.6913         44.1344         43.9760         13.2709
             487         51.7733         44.6096         48.0890         13.2053
             488         53.9754         45.3035         52.3608         12.7986
             489         55.7743         44.7377         56.6690         12.0164
             490         58.0224         45.0518         61.0684         10.9366
             491         59.7985         45.6732         64.3188         9.84124
             492         63.0819         45.4140         70.2214         7.63500
             493         65.3327         45.1303         73.8468         6.08299
             494         67.9344         44.5868         77.6285         4.55061
             495         71.0045         43.9141         81.6640         3.18273
             496         73.8347         43.2097         85.1975         1.55250
             497         75.8801         42.5070         87.6021     414.052E-03
             498         79.3550         41.3853         91.4819    -718.885E-03
             499         81.7080         40.7180         94.0404        -1.12357
             500         84.7404         39.5406         97.2389        -1.52346
             501         87.7216         37.7429         100.244        -1.32429
             502         88.0712         37.7042         100.635    -801.211E-03
             503         87.6733         37.6237         100.205    -228.017E-03
             504         86.3016         38.4663         98.8461     32.0993E-03
             505         84.8428         38.6288         97.2829     159.928E-03
             506         82.2137         39.1492         94.4719     2.72072E-03
             507         80.1940         39.5669         92.2861    -311.390E-03
             508         76.9705         40.3243         88.7248        -1.16702
             509         73.8040         41.0092         85.0810        -2.28010
             510         71.7295         41.5060         82.5367        -3.45608
             511         68.7967         41.9377         78.8036        -4.79785
             512         65.5389         42.1319         74.2004        -6.84955
             513         63.5097         41.9221         71.1380        -8.11693
             514         60.1097         42.4978         65.6330        -9.80947
             515         58.3107         42.5890         62.4188        -10.7791
             516         55.4767         42.0488         57.2543        -12.0966
             517         53.3909         41.5122         53.4893        -12.7368
             518         51.4216         41.9577         49.1715        -13.2793
             519         48.3914         40.6766         44.2404        -13.2850
             520         46.3363         41.0555         39.8732        -13.0210
             521         44.3993         40.5609         36.7416        -12.4691
             522         41.1968         38.8341         32.7676        -11.3707
             523         37.7658         38.5320         27.1484        -9.13937
             524         35.1255         37.8197         23.0589        -6.92438
             525         35.3304         39.9973         20.2573        -4.01383
             526         43.3872         49.4153         23.6774         4.08201
             527         44.3246         49.0806         26.4676         7.17112
             528         45.4487         47.3684         30.8931         10.5006
             529         47.9092         49.6594         33.0476         11.2281
             530         50.0881         50.2359         37.1031         12.5492
             531         50.5591         48.6833         40.3721         13.1871
             532         52.1332         48.3550         44.7466         13.4304
             533         53.4234         48.4185         47.9933         13.2930
             534         54.8863         48.9248         51.3653         12.8259
             535         56.5690         48.5613         56.0894         11.8265
             536         58.8435         47.0990         62.0801         10.2342
             537         59.6273         48.0357         63.6659         9.18102
             538         61.9812         46.7630         68.4423         7.55206
             539         64.1624         46.0445         72.2080         5.98623
             540         67.8698         44.8594         77.7128         3.68839
             541         69.5027         44.3842         79.9310         2.54158
             542         71.9323         43.5371         83.0084     879.974E-03
             543         75.9570         42.0486         87.6725    -689.131E-03
             544         78.6465         40.8821         90.6037        -1.72866
             545         81.7269         39.6177         93.8774        -2.30697
             546         84.6933         38.3829         96.9758        -2.42301
             547         86.5144         37.8802         98.9201        -1.97909
             548         88.4556         36.2439         100.761        -1.82077
             549         89.2741         35.3873         101.532    -762.616E-03
             550         88.2625         36.0764         100.586     922.840E-06
             551         86.8641         36.6811         99.1837     458.157E-03
             552         85.0110         36.9014         97.2097     932.513E-03
             553         81.7663         37.4894         93.7518         1.36145
             554         75.7870         39.8142         87.3948    -260.332E-03
             555         72.6133         40.7441         83.8092        -1.05752
             556         66.8275         42.5595         76.4896        -4.44624
             557         64.1658         43.2116         72.5911        -6.25340
             558         62.0076         43.4289         69.0039        -8.04373
             559         59.3730         43.7854         64.2592        -9.87192
             560         57.5702         44.4942         60.5914        -10.9428
             561         55.4370         44.9962         55.7461        -12.2385
             562         53.9692         45.5927         51.9535        -12.9552
             563         52.1176         44.2494         48.7368        -13.4107
             564         50.9004         45.6436         44.6702        -13.5522
             565         48.3297         44.4217         40.3854        -13.2347
             566         45.7728         44.0377         35.7594        -12.2727
             567         43.9466         43.9313         32.5425        -11.1350
             568         41.6866         43.4405         29.0760        -9.45784
             569         39.5250         43.1443         25.5159        -7.08520
             570         39.9833         45.4694         23.6088        -3.97086
             571         48.3384         55.2062         27.1853         4.10831
             572         50.5911         55.9010         30.8258         8.31664
             573         50.3328         54.2675         32.2499         9.97493
             574         51.7510         54.3166         35.2691         11.5421
             575         53.2203         55.2596         37.5017         12.1754
             576         53.1858         53.0642         40.9542         13.0240
             577         54.5833         53.7335         44.1702         13.0953
             578         54.8621         52.3129         47.3105         13.0368
             579         56.0285         52.2597         51.3325         12.3250
             580         56.8526         51.7836         54.6628         11.4498
             581         57.8350         50.2329         58.6669         10.4363
             582         58.7737         50.8334         61.3080         8.72049
             583         60.9331         48.8014         66.7153         6.73642
             584         62.6209         47.8304         70.0155         5.17480
             585         65.0335         46.7615         74.0650         2.61343
             586         68.7096         44.8712         79.0812     859.896E-03
             587         71.2199         43.7320         82.1765    -430.520E-03
             588         74.6763         42.0722         86.0735        -2.52509
             589         77.6044         40.7869         89.2979        -2.99715
             590         81.1888         39.0942         93.0570        -3.72602
             591         84.8511         37.4574         96.8864        -3.59595
             592         87.0119         36.6086         99.1763        -2.92369
             593         89.1001         35.1250         101.173        -2.75286
             594         90.2821         34.2841         102.376        -1.22166
             595         89.3902         34.6070         101.519     126.668E-03
             596         88.0904         34.9564         100.187     960.072E-03
             597         86.1970         35.3350         98.1891         1.80361
             598         82.8370         36.4303         94.7057         2.29419
             599         78.6365         38.4400         90.4331         1.17912
             600         74.4351         39.7307         85.8564     789.154E-03
             601         70.0614         41.4154         80.8813    -661.588E-03
             602         68.0276         42.2565         78.3469        -2.20393
             603         64.4078         43.6260         73.3721        -4.56824
             604         62.6456         44.2948         70.6135        -5.88745
             605         61.4432         44.6648         68.4975        -7.02003
             606         58.7922         45.6033         63.2563        -9.31310
             607         57.3906         46.6693         59.9908        -10.2712
             608         56.0291         47.0943         56.3332        -11.5605
             609         54.8605         48.1285         52.5204        -12.4185
             610         53.4587         48.9409         47.7397        -13.1652
             611         51.8404         47.9327         44.5000        -13.4492
             612         50.4714         48.1273         40.9951        -13.2099
             613         50.4510         50.0665         38.7013        -12.6293
             614         47.2903         47.4944         35.0694        -11.7813
             615         45.9472         47.8386         32.2706        -10.4084
             616         46.1080         50.2428         30.3473        -8.27423
             617         44.4329         50.6906         27.0111        -3.84520
             618         53.5039         61.0987         30.9441         4.57254
             619         53.7054         60.6368         31.6352         6.45232
             620         54.6417         59.9179         34.0725         9.59472
             621         54.9955         59.2742         35.7812         10.8272
             622         55.9678         58.8090         39.3883         12.0947
             623         55.2248         56.5060         41.3872         12.6830
             624         56.6215         57.9467         43.8543         12.4657
             625         57.0230         57.1984         47.6607         12.0352
             626         56.8813         55.1851         50.8843         11.6752
             627         57.4094         54.6380         54.2763         10.4906
             628         57.7616         53.7763         56.7349         9.60294
             629         58.3287         54.1387         59.3685         7.32007
             630         59.4721         51.6978         63.6446         5.88551
             631         61.0730         50.0447         67.5188         3.89914
             632         62.6621         48.8636         70.5304         1.89077
             633         66.6378         46.1874         76.3798    -642.111E-03
             634         70.3258         44.1309         81.0014        -1.96724
             635         73.3907         42.4798         84.2631        -4.50455
             636         77.8243         40.2979         89.1789        -4.95106
             637         82.1991         38.0494         93.6165        -5.97031
             638         85.9954         36.1455         97.4959        -5.98075
             639         88.0576         35.3614         99.9173        -4.22167
             640         90.8754         33.7289         102.714        -3.41670
             641         92.2502         32.8336         104.115        -1.88601
             642         90.8951         33.2439         102.835     311.397E-03
             643         89.3830         33.5219         101.241         1.79650
             644         86.2281         34.5271         97.9689         3.04600
             645         82.4944         35.7550         94.0464         3.86521
             646         78.2671         37.8554         89.8512         2.63475
             647         72.9551         39.8898         84.1065         2.02859
             648         68.6372         41.7614         79.1900         1.01340
             649         65.2992         43.4541         75.0679    -919.909E-03
             650         62.7190         44.8500         71.3910        -3.02034
             651         60.7035         46.0996         68.0660        -4.63941
             652         59.3098         47.0620         65.2907        -6.12782
             653         58.0038         47.9647         62.0332        -7.98153
             654         56.6693         49.4217         57.8811        -9.64832
             655         55.8012         50.8554         53.9801        -10.9366
             656         55.0788         50.0058         51.8080        -12.1069
             657         54.7206         52.0453         48.3338        -12.4502
             658         53.6453         52.1856         44.3447        -12.9381
             659         52.9319         53.0811         40.9406        -12.6651
             660         51.7930         53.0235         38.1716        -12.0823
             661         51.0343         53.5962         35.8795        -11.0696
             662         49.5272         53.5219         33.1958        -9.36463
             663         48.9921         54.6748         31.4349        -6.86631
             664         48.7219         55.6506         30.4165        -3.84545
             665         58.3605         66.9437         34.2240         3.84210
             666         58.5724         66.4094         34.5243         6.35935
             667         58.5517         65.2478         35.4733         8.70291
             668         59.5181         65.4908         37.4244         10.0620
             669         58.1473         62.2853         39.6959         11.5232
             670         58.4236         61.8914         42.1639         11.7554
             671         58.6917         61.7314         44.6101         11.5143
             672         58.7677         61.2741         48.0465         10.5619
             673         58.1860         59.2463         50.7944         10.0795
             674         57.8337         56.8071         53.9745         9.49700
             675         58.0049         55.7338         56.7383         8.19182
             676         58.3909         54.5626         59.6993         6.47480
             677         59.0807         53.3413         62.7798         4.19055
             678         60.3261         51.3528         66.1111         2.96853
             679         62.1137         49.8028         69.5974    -210.243E-03
             680         64.2169         48.2002         72.6166        -3.02827
             681         68.4609         45.2414         78.1694        -4.69569
             682         72.4115         42.9054         82.5052        -6.71707
             683         77.0135         40.4781         87.7660        -6.88778
             684         87.3875         35.3315         98.4554        -7.60192
             685         90.5146         33.8743         101.986        -5.74531
             686         93.3545         32.5026         105.017        -3.80656
             687         93.2882         32.2743         105.089        -1.72790
             688         93.4225         31.8529         105.178     581.477E-03
             689         90.0643         32.6854         101.671         3.13161
             690         88.3688         33.0398         99.7888         4.34405
             691         83.1494         35.0581         94.4627         4.94101
             692         77.4031         37.4323         88.5172         4.76697
             693         73.3941         39.1220         84.2079         4.45635
             694         68.9738         41.2253         79.3108         3.52404
             695         65.4124         43.2366         75.1761         1.66258
             696         62.3013         45.2220         71.0290        -1.06006
             697         60.1661         46.8341         67.6854        -2.25077
             698         58.0402         49.0039         63.3390        -4.44619
             699         57.0836         50.0854         59.9941        -7.20009
             700         56.4033         51.7020         57.0381        -8.24365
             701         55.9053         52.8013         53.1908        -10.2747
             702         55.8396         54.7402         49.9235        -10.9853
             703         55.4212         55.0978         46.5977        -11.9976
             704         55.9804         57.3454         44.5553        -11.7640
             705         55.5046         57.4470         42.0923        -11.9292
             706         55.0927         58.2554         39.2820        -11.3553
             707         55.0186         59.2545         37.6931        -10.4669
             708         54.4295         59.7394         35.9839        -9.10294
             709         53.7379         59.9624         34.7669        -7.48880
             710         53.0825         60.5863         33.8224        -4.17412
             711         63.1283         72.4336         37.2450         4.04782
             712         62.9165         71.6013         36.9072         6.11540
             713         63.1162         71.0773         37.4852         7.97650
             714         62.9140         70.1281         38.5672         9.26343
             715         63.1131         69.9026         40.4305         9.80569
             716         61.4898         67.2238         41.4077         10.5029
             717         60.9310         66.0124         44.1819         10.3193
             718         60.7174         65.7012         46.8206         9.20055
             719         59.5436         63.2372         49.3466         8.79308
             720         58.7585         61.0949         52.0321         7.99011
             721         58.3128         59.1505         54.6895         6.96591
             722         58.2376         58.1785         57.0584         4.85769
             723         58.4160         56.0875         60.0198         3.19433
             724         59.3196         53.7873         63.6149     432.314E-03
             725         61.2859         51.3121         67.3656        -3.72288
             726         63.8317         48.7663         71.2572        -5.58880
             727         67.4078         45.9940         76.0668        -6.85142
             728         71.4969         43.3349         80.4041        -9.19011
             729         78.8007         39.3132         88.6552        -9.82513
             730         83.9046         36.6531         93.6187        -11.0074
             731         88.7845         34.6832         99.5015        -8.76075
             732         92.1445         33.3291         103.296        -7.12933
             733         95.3787         32.1947         106.914        -4.89807
             734         96.6497         31.6204         108.424        -2.16264
             735         94.9939         31.4183         106.717     590.907E-03
             736         92.5516         31.6475         104.027         3.40625
             737         90.6543         31.8198         101.810         5.16404
             738         84.6596         33.8992         95.6082         6.27715
             739         79.3437         35.9604         90.0269         6.70390
             740         72.1495         39.1380         82.3089         6.33561
             741         67.2892         41.6658         76.8342         5.46670
             742         64.6068         43.3858         73.7721         4.08462
             743         60.2476         46.7271         67.9590         1.07279
             744         58.0974         49.0462         64.1488    -567.887E-03
             745         57.0347         50.7391         61.4541        -2.58350
             746         56.4454         52.2388         58.6477        -5.20653
             747         56.1359         54.3515         54.7188        -7.68225
             748         56.1642         55.3418         52.9970        -8.48480
             749         56.4556         57.2391         49.6686        -9.77984
             750         56.8074         58.6182         47.3121        -10.4229
             751         57.2827         60.1044         45.0070        -10.7743
             752         57.5523         61.0194         43.2486        -10.9159
             753         57.9091         62.6047         40.3872        -10.5106
             754         57.6826         62.8286         39.1869        -10.1043
             755         58.3344         65.2142         37.7042        -7.90048
             756         58.5034         66.0634         37.5177        -6.56367
             757         57.6410         65.9614         37.2134        -3.71416
             758         67.5674         77.7812         40.2669         2.94523
             759         68.1774         78.0895         39.5853         4.97942
             760         67.7180         76.9250         39.2435         7.00062
             761         66.3103         74.8015         39.3206         8.10194
             762         65.0537         72.7498         40.7385         9.00991
             763         64.7965         72.3987         42.3712         8.74286
             764         63.7907         70.9603         43.6946         8.66514
             765         62.3630         68.8354         45.7727         8.29608
             766         61.2595         67.1290         47.8877         7.47994
             767         60.1421         65.0999         50.1323         6.56846
             768         59.1677         62.8817         52.6360         5.35390
             769         58.7335         61.7533         54.6612         2.81759
             770         58.3608         59.4818         57.0812         1.28155
             771         58.9974         55.6123         61.5537        -2.72311
             772         60.4790         53.2243         64.1362        -6.45610
             773         62.4331         50.5467         67.6839        -7.81049
             774         65.8887         47.3089         72.0401        -10.3530
             775         70.6595         43.7188         77.9530        -11.7298
             776         79.9416         38.1994         88.3103        -12.9891
             777         87.0353         34.7230         96.0158        -12.7068
             778         92.9044         33.0129         103.062        -10.3584
             779         95.3010         32.7431         106.409        -7.55955
             780         98.0301         32.6580         109.848        -4.62368
             781         98.6355         32.3372         110.671        -2.15739
             782         97.7606         31.5247         109.629     537.805E-03
             783         95.3487         30.7652         106.703         3.74478
             784         91.3783         30.4400         101.878         6.96411
             785         86.7182         31.6950         96.7532         8.58050
             786         77.8935         35.3629         87.3828         9.50826
             787         72.5202         37.9587         81.5570         9.35542
             788         68.6085         40.2365         77.3608         8.48886
             789         62.2456         44.6105         69.7273         6.66051
             790         59.0061         47.7924         65.4157         3.86301
             791         57.1356         50.4583         61.9879         1.11588
             792         56.1440         52.9652         58.8311    -762.070E-03
             793         55.9373         55.7424         55.4506        -3.55635
             794         56.2755         57.7497         52.9880        -5.29843
             795         56.6357         58.6599         51.2882        -6.94510
             796         57.0243         59.4076         49.2056        -8.65079
             797         58.1510         62.0915         46.1867        -9.32337
             798         59.2379         64.2684         44.4960        -9.28256
             799         59.9530         65.5465         42.7579        -9.52900
             800         60.6280         66.8801         41.1086        -9.34948
             801         61.5401         69.3904         39.2544        -7.19082
             802         60.9602         69.1456         38.8828        -6.10311
             803         61.2765         70.2402         39.8601        -3.26979
             804         71.3594         82.2411         42.6413         2.39120
             805         71.0910         81.6428         41.0193         4.27127
             806         71.7262         82.1166         40.5951         5.38775
             807         69.2508         78.6466         40.1893         7.21003
             808         68.3200         77.3627         40.6631         7.63664
             809         67.7773         76.7441         41.8307         7.40616
             810         66.8914         75.6942         42.8647         7.11978
             811         65.6066         74.2331         44.5335         6.22623
             812         63.7851         71.8280         46.5266         5.36861
             813         62.2724         69.6916         48.5285         3.99755
             814         60.9823         67.6051         50.5650         1.82742
             815         59.4255         64.0506         53.3404     255.879E-03
             816         59.0419         62.0415         55.0356        -2.73083
             817         58.8698         58.9683         57.6887        -4.55364
             818         60.6217         54.6115         61.4082        -9.57772
             819         63.7047         50.3104         65.7859        -13.0266
             820         66.8469         46.9303         69.9350        -14.8012
             821         71.7119         42.7253         76.0727        -16.1279
             822         73.5258         35.4024         79.5139         14.6655
             823         68.3596         39.1666         74.3159         13.2523
             824         62.3526         44.1998         67.4159         11.0920
             825         58.5865         48.4763         62.6746         8.01151
             826         56.5887         51.8725         59.5135         4.35051
             827         55.9635         57.0916         54.4342         2.38815
             828         55.9767         57.5706         54.0882        -1.56755
             829         56.6432         59.9728         51.7604        -3.50204
             830         57.5419         62.0542         49.7397        -4.92844
             831         58.4182         63.5377         47.9543        -6.40166
             832         60.3633         66.7850         45.2250        -7.26959
             833         60.5550         66.7343         43.9158        -8.47612
             834         62.2195         69.3899         42.6554        -8.09683
             835         63.1879         70.8160         41.4602        -8.06024
             836         64.1684         72.3978         40.7341        -7.43715
             837         64.7453         73.5419         40.6390        -6.34257
             838         65.5180         74.9471         41.5278        -4.59580
             839         66.2194         76.0192         42.9712        -2.95509
             840         76.5314         88.2808         45.2254         1.89315
             841         74.7169         85.9411         42.3192         3.77685
             842         74.3657         85.3069         41.2456         4.84139
             843         73.7174         84.3981         40.8345         5.48047
             844         72.5240         82.9466         40.9927         5.75593
             845         72.0622         82.4583         41.3056         5.58055
             846         70.5320         80.7725         42.2499         5.10378
             847         67.8652         77.7582         44.2852         3.72828
             848         65.8553         75.1564         45.7016         3.39486
             849         64.2145         72.9473         47.2234         2.37858
             850         62.3188         70.0387         49.3145     271.668E-03
             851         61.9270         68.8359         50.0943        -3.43634
             852         60.5672         65.3858         52.1552        -5.26378
             853         59.7750         60.9359         55.2638        -7.60100
             854         61.1979         57.3843         57.2851        -12.3545
             855         66.4326         51.1457         60.9203        -20.0161
             856         71.9250         43.6117         69.5237        -22.1339
             857         79.7851         92.0813         46.8864         1.38068
             858         79.1556         91.2022         43.6936         2.80483
             859         79.7410         91.7937         42.6686         3.09012
             860         76.0883         87.3424         41.0358         4.50776
             861         75.9487         87.2301         40.9813         4.26030
             862         73.8493         84.8560         41.4016         4.17380
             863         73.1478         84.1971         41.8816         3.35118
             864         70.9418         81.7412         43.0818         2.35395
             865         68.3650         78.6320         44.5856         1.70927
             866         66.9348         76.7735         45.8846        -1.06670
             867         66.1913         75.4842         46.5037        -3.22138
             868         64.7225         72.9392         47.5937        -5.00545
             869         63.3754         69.4782         48.8699        -8.08988
             870         62.5461         64.6131         50.9510        -12.0175
             871         64.2210         59.9970         52.7578        -17.3840
             872         82.7095         95.4813         47.8384         1.05728
             873         81.0348         93.3759         43.7215         2.48675
             874         82.2705         94.7544         43.1041         2.33617
             875         80.7259         92.8594         41.4021         2.84267
             876         78.8117         90.6768         40.7498         2.79993
             877         78.4986         90.4047         40.6388         1.95356
             878         77.9922         89.9063         40.7150     908.822E-03
             879         75.1955         86.7900         41.6081     771.072E-03
             880         74.4262         85.9048         42.0798        -1.12142
             881         72.4201         83.3970         43.0810        -2.96999
             882         70.0110         79.9612         44.2571        -5.41333
             883         67.3907         76.0885         45.6788        -6.85874
             884         69.5876         75.8884         43.6788        -12.7836
             885         70.1736         71.6741         43.4172        -18.3847
             886         85.4205         98.5994         47.6035     894.452E-03
             887         84.4632         97.3946         45.0809         1.49203
             888         84.7998         97.5959         42.5281         1.63016
             889         83.3123         95.8161         41.2180         1.88349
             890         84.4611         97.0459         40.3551         1.08337
             891         81.8062         94.0951         40.0548     989.199E-03
             892         81.3942         93.6396         39.8389    -5.56495E-03
             893         78.9565         90.9409         40.3990        -1.38070
             894         78.1372         89.8813         40.6783        -3.06943
             895         76.6763         87.9884         41.2284        -4.65970
             896         74.5567         85.1094         42.0104        -6.47316
             897         75.5694         84.7811         40.8991        -10.2897
             898         76.2450         82.9556         39.2549        -14.6870
             899         78.6196         80.5908         36.5217        -20.7818
             900         88.3371         101.969         48.8058     393.482E-03
             901         88.2884         101.752         45.5409     663.308E-03
             902         87.1303         100.247         42.9410     994.132E-03
             903         86.7973         99.6665         40.7721     730.650E-03
             904         87.2076         100.009         39.8218     203.503E-03
             905         86.2192         98.8552         39.2134    -221.674E-03
             906         84.6074         97.0360         38.8998        -1.14332
             907         81.7571         93.5965         39.2999        -4.38838
             908         80.2190         91.5437         39.7456        -6.15334
             909         82.0240         92.7812         38.7432        -8.42995
             910         82.8391         92.3770         37.5182        -11.3580
             911         84.4742         91.9461         34.9183        -14.9791
             912         90.4678         104.409         49.2936     135.984E-03
             913         90.3883         104.130         45.9339     265.328E-03
             914         90.3272         103.819         43.2527     267.116E-03
             915         90.1896         103.424         41.1389     84.6006E-03
             916         89.4245         102.370         39.4871    -280.381E-03
             917         88.7312         101.448         38.4160    -998.185E-03
             918         88.2919         100.781         37.6453        -2.26910
             919         87.6524         99.8887         37.3822        -3.73360
             920         86.9394         98.9880         37.4684        -4.65034
             921         87.3076         98.6890         37.0135        -7.43685
             922         87.5481         98.5379         36.7116        -8.65448
             923         87.8943         97.4851         35.3134        -11.7978
             924         93.3692         102.015         31.5324        -13.3315
             925         92.1967         106.374         49.5000    -16.8008E-03
             926         92.1746         106.132         46.1321     4.88694E-03
             927         92.1712         105.858         43.3831    -41.8336E-03
             928         92.4687         105.874         40.9663    -288.890E-03
             929         92.2161         105.314         39.0890    -682.057E-03
             930         92.1740         105.063         37.9310        -1.19215
             931         92.2954         104.833         36.4107        -2.57185
             932         92.2892         104.621         35.9049        -3.60423
             933         92.2335         104.288         35.5810        -5.02070
             934         93.9557         105.500         34.7691        -7.22698
             935         93.4905         104.595         34.7076        -8.67881
             936         95.9660         106.392         33.0938        -10.2618
             937         93.5667         107.920         49.5356    -91.6721E-03
             938         93.6152         107.734         46.1958    -133.046E-03
             939         93.6803         107.514         43.4400    -209.384E-03
             940         94.2573         107.676         40.1279    -525.034E-03
             941         94.2515         107.264         37.8047        -1.10062
             942         95.0808         107.865         36.4340        -1.64159
             943         95.8151         108.414         35.4647        -2.15987
             944         95.5659         107.912         34.8104        -3.29040
             945         97.1719         109.205         33.8372        -4.72360
             946         97.4558         109.198         33.7100        -6.27506
             947         98.1010         109.514         33.5167        -7.69706
             948         101.103         112.484         32.8095        -7.81460
             949         94.5846         109.053         49.3573    -107.006E-03
             950         95.1781         109.253         44.3015    -209.659E-03
             951         95.3592         109.107         41.7181    -336.416E-03
             952         96.0333         109.466         39.4185    -509.977E-03
             953         96.2449         109.442         38.0375    -739.714E-03
             954         96.4215         109.365         36.7169        -1.12426
             955         98.1550         110.658         34.3662        -1.91584
             956         99.3947         111.708         33.4080        -2.33656
             957         100.104         112.236         32.8894        -3.34294
             958         104.137         116.180         32.4633        -4.62894
             959         106.072         118.431         33.4237        -4.71689
             960         95.2810         109.796         48.8071    -76.8558E-03
             961         95.6922         109.898         45.0129    -124.127E-03
             962         95.9858         109.882         42.3848    -210.140E-03
             963         96.5857         110.150         39.9496    -287.771E-03
             964         97.0746         110.356         38.1778    -427.488E-03
             965         98.0620         110.903         35.7147    -803.926E-03
             966         99.4505         111.999         34.0852    -888.163E-03
             967         100.780         113.094         32.9115        -1.31807
             968         102.464         114.620         32.1095        -1.87247
             969         104.429         116.567         31.8237        -2.18787
             970         106.478         118.817         32.3667        -2.45830
             971         95.4394         110.006         49.2803     26.6116E-03
             972         95.8445         110.137         45.6586    -6.66715E-03
             973         96.2474         110.259         43.0538     14.2379E-03
             974         96.7561         110.444         40.6140     14.3806E-03
             975         97.8107         110.963         37.2496    -62.5592E-03
             976         98.7445         111.560         35.3803     158.904E-03
             977         100.209         112.688         33.5861     146.798E-03
             978         101.365         113.676         32.6941    -222.375E-03
             979         102.943         115.130         31.9512     17.8803E-03
             980         105.021         117.204         31.6416    -109.216E-03
             981         107.171         119.604         32.2946    -3.67848E-03
             982         95.1389         109.619         48.5494     97.4902E-03
             983         95.4049         109.698         46.0881     131.525E-03
             984         95.9801         110.013         43.3924     140.760E-03
             985         96.6570         110.188         39.7217     298.499E-03
             986         97.4460         110.565         37.2126     513.231E-03
             987         98.5826         111.372         35.3220     574.772E-03
             988         99.3358         111.907         34.2076     880.063E-03
             989         100.384         112.721         33.1086         1.50786
             990         102.611         114.784         32.0645         1.41517
             991         104.229         116.366         31.7898         1.92595
             992         106.106         118.384         32.2086         2.53300
             993         94.2687         108.703         49.4293     107.936E-03
             994         94.8014         108.994         45.7009     178.481E-03
             995         95.2258         109.066         42.4424     294.901E-03
             996         95.6775         109.146         39.7795     510.029E-03
             997         97.1747         110.060         36.1976         1.07192
             998         97.2205         109.798         34.9279         1.93830
             999         99.1397         111.470         33.5354         2.35499
            1000         100.052         112.168         32.8972         3.49674
            1001         102.565         114.578         32.2947         4.03400
            1002         103.154         115.084         32.5600         5.27401
            1003         104.636         116.614         32.9877         6.01783
            1004         93.1645         107.480         49.7768     72.4134E-03
            1005         93.3883         107.386         45.1817     131.614E-03
            1006         93.8923         107.633         42.5496     269.188E-03
            1007         94.1325         107.518         39.9791     547.406E-03
            1008         94.6605         107.879         38.7590     779.730E-03
            1009         95.0727         107.964         36.9215         1.36956
            1010         95.6070         108.151         35.3425         2.39947
            1011         95.1165         107.392         34.8302         3.72080
            1012         96.8516         108.890         33.9544         4.75000
            1013         97.0610         108.857         33.8311         6.03248
            1014         99.4097         110.947         33.2445         7.21606
            1015         101.065         112.408         32.7660         7.91690
            1016         91.7549         105.880         49.6119    -15.8875E-03
            1017         91.6142         105.393         44.8003    -76.8978E-03
            1018         92.5163         106.134         42.5366     134.756E-03
            1019         91.9648         105.286         40.6634     276.682E-03
            1020         92.4495         105.538         38.9280     745.587E-03
            1021         92.8350         105.740         37.7699         1.23720
            1022         92.2911         104.829         36.4131         2.57256
            1023         92.7222         104.981         35.6291         3.97495
            1024         92.7855         104.745         35.3222         5.46940
            1025         95.2644         106.862         34.3644         7.00525
            1026         95.2653         106.362         34.1309         8.71535
            1027         89.8647         103.700         48.6421    -233.324E-03
            1028         89.9852         103.724         46.5597    -309.426E-03
            1029         90.0373         103.502         43.2686    -324.941E-03
            1030         89.0117         102.098         40.8074    -246.845E-03
            1031         89.2851         102.205         39.3908     310.871E-03
            1032         88.3807         101.095         38.5581     876.705E-03
            1033         89.1700         101.699         37.4543         2.21859
            1034         88.4294         100.729         37.1936         3.48818
            1035         86.8713         98.7849         37.4142         5.30094
            1036         87.7323         99.3016         36.9457         6.82954
            1037         88.5200         99.5078         36.3529         8.75324
            1038         87.9224         97.6520         35.4627         11.5447
            1039         90.7012         98.3805         31.7375         14.8667
            1040         87.4202         100.920         48.7469    -501.814E-03
            1041         87.0810         100.390         45.5102    -907.542E-03
            1042         87.8845         101.104         43.1233    -808.441E-03
            1043         86.7354         99.5701         40.5042    -643.659E-03
            1044         85.3387         97.9604         39.7616    -419.624E-03
            1045         84.4978         96.9971         39.3599     104.397E-03
            1046         83.7990         96.1681         39.0487         1.21261
            1047         84.0763         96.3006         38.6659         2.79998
            1048         82.7881         94.6953         38.9306         4.38268
            1049         80.9475         92.3399         39.4722         6.12782
            1050         82.6223         93.5924         38.6161         7.95568
            1051         82.6604         92.3664         37.7383         10.9963
            1052         81.9248         88.8716         35.9720         15.4533
            1053         84.8848         98.0000         48.3295    -812.262E-03
            1054         84.5839         97.5433         45.2773        -1.43837
            1055         84.0260         96.7597         43.0649        -1.85257
            1056         83.1646         95.6704         41.5687        -2.03831
            1057         83.3556         95.8249         40.5024        -1.46505
            1058         82.7018         95.0745         39.8646    -669.303E-03
            1059         80.7738         92.9677         39.9949    -134.965E-03
            1060         80.2814         92.3809         39.9707         1.38337
            1061         78.5126         90.3432         40.5428         2.66896
            1062         76.4717         87.8522         41.3281         4.18935
            1063         76.1954         85.3747         40.5411         10.5593
            1064         73.9558         81.5353         41.0588         12.6934
            1065         74.3576         78.1050         39.8448         17.8244
            1066         82.0776         94.7464         47.5760        -1.15830
            1067         81.8383         94.3710         44.8045        -2.03481
            1068         81.3006         93.6163         42.8376        -2.64673
            1069         80.4188         92.5079         41.5684        -2.99654
            1070         79.1057         90.9792         40.9023        -3.09594
            1071         78.6264         90.5100         40.6705        -2.38342
            1072         77.0117         88.7836         40.9619        -1.54221
            1073         74.3734         85.8430         41.8751        -1.08682
            1074         73.6956         85.0382         42.4305         1.57117
            1075         71.7052         82.4791         43.4344         3.40194
            1076         70.7315         80.8576         43.8835         5.40189
            1077         69.6529         78.7389         44.2781         7.69353
            1078         66.7394         73.1835         45.9056         10.8094
            1079         68.1487         69.6463         45.2798         17.2910
            1080         78.9771         91.1374         46.4219        -1.54267
            1081         78.8782         90.9072         44.0184        -2.68423
            1082         78.1647         89.8713         41.8154        -3.75735
            1083         77.2309         88.7237         41.1280        -4.09214
            1084         75.8672         87.1425         40.9895        -4.23509
            1085         72.6712         83.6162         42.0102        -3.52687
            1086         71.8327         82.8280         42.7412        -2.06756
            1087         69.4568         80.0355         44.1199        -1.02614
            1088         67.2599         77.2388         45.6137     449.445E-03
            1089         65.6965         74.9122         46.8162         2.55278
            1090         63.8933         71.7817         48.2578         4.65316
            1091         62.1567         67.7314         50.1835         7.22328
            1092         63.3254         66.0345         49.7940         12.3590
            1093         66.4016         60.3242         51.2040         20.3073
            1094         75.5652         87.1506         44.7596        -2.02216
            1095         74.3034         85.3418         41.6613        -4.37997
            1096         74.1816         85.0312         41.0399        -5.09930
            1097         72.7321         83.1559         40.7211        -5.86048
            1098         72.8011         83.2903         40.9666        -5.67389
            1099         71.2810         81.5658         41.6982        -5.48952
            1100         69.6211         79.6390         42.6343        -5.24047
            1101         67.3861         77.0410         44.3565        -4.29493
            1102         66.5756         76.1415         45.2404        -3.30471
            1103         65.0088         74.1830         46.9499    -735.506E-03
            1104         62.6612         70.6033         49.0038    -142.381E-03
            1105         61.3900         68.0728         50.6411         2.42097
            1106         60.0497         64.3565         52.9933         4.70406
            1107         60.5176         61.6727         54.1303         9.43635
            1108         62.1271         55.5963         58.5428         14.0988
            1109         66.2240         50.7584         61.7024         19.4416
            1110         70.6682         45.9949         65.6540         23.0056
            1111         71.6794         82.5702         42.4280        -2.78369
            1112         71.2206         81.6663         40.7293        -4.84176
            1113         71.4736         81.7151         40.4075        -5.78112
            1114         70.4115         80.1872         40.2946        -6.71414
            1115         69.3888         78.8089         40.7422        -7.18539
            1116         68.0429         77.0866         41.6539        -7.38043
            1117         66.6469         75.4245         43.2013        -6.95304
            1118         64.8451         73.1472         45.0918        -6.30977
            1119         63.1331         70.7838         47.0320        -5.55385
            1120         62.3565         69.8681         48.5299        -3.75585
            1121         60.7620         67.0891         50.6322        -2.84766
            1122         59.7113         64.7528         52.8767     400.733E-03
            1123         58.6445         60.7571         56.1758         1.30480
            1124         58.9158         58.9142         57.7113         4.81712
            1125         60.4079         55.4824         60.3569         9.60214
            1126         62.5887         51.9204         63.7900         12.4426
            1127         69.3678         44.6305         73.0522         15.7453
            1128         73.9248         40.9493         77.6071         17.7307
            1129         65.7541         75.6565         39.1493        -3.10545
            1130         67.4939         77.1926         39.1753        -5.35636
            1131         66.5512         75.5263         38.7497        -7.06915
            1132         66.2695         74.6901         39.4799        -8.22873
            1133         65.6769         73.6500         40.9777        -8.71710
            1134         64.5407         71.9899         42.2228        -8.94054
            1135         64.7126         72.4748         43.6377        -8.03133
            1136         62.7203         69.3901         45.2581        -8.38675
            1137         61.4525         67.4433         47.5049        -7.63730
            1138         60.1437         65.2344         50.4364        -6.00270
            1139         59.3777         63.6776         52.5353        -4.32967
            1140         58.5888         61.1096         55.5826        -1.35035
            1141         58.3155         58.2971         58.2502        -1.27480
            1142         58.7909         56.2155         60.8434         2.20731
            1143         59.4355         55.3071         61.6640         5.21883
            1144         62.8152         50.2488         67.8348         8.71524
            1145         66.7563         46.6128         72.8001         11.2133
            1146         72.5697         42.3585         79.5173         13.1320
            1147         79.4453         38.2882         87.3545         13.6554
            1148         84.1704         35.7442         92.3928         13.8212
            1149         90.9812         33.2679         100.524         11.6899
            1150         94.3675         32.9454         105.117         8.82120
            1151         97.3001         32.6385         108.901         5.68429
            1152         98.5630         32.5228         110.559         3.12805
            1153         95.9727         30.9895         107.520        -2.70186
            1154         93.9323         30.2275         104.830        -5.44507
            1155         88.0776         31.0909         98.1291        -8.41876
            1156         80.8254         34.0102         90.4667        -9.46245
            1157         71.3107         38.6703         80.3189        -9.03046
            1158         66.3899         41.5283         74.6586        -8.35784
            1159         61.7406         44.9708         68.7990        -7.07511
            1160         57.1851         50.4143         62.1235     610.757E-03
            1161         56.2524         52.6615         59.1555         1.52140
            1162         55.9051         55.0585         56.2941         2.85093
            1163         56.2963         57.5249         52.8577         5.96797
            1164         56.6079         58.5354         51.3797         6.96936
            1165         57.2648         60.1242         48.6762         8.59431
            1166         57.8397         61.3470         46.3224         9.62541
            1167         59.9433         65.5755         43.8635         9.04463
            1168         60.4332         66.3928         42.5077         9.30002
            1169         61.1152         67.7229         40.8561         9.06174
            1170         61.2374         68.3032         39.8478         8.53568
            1171         60.8832         68.4205         39.0195         7.58518
            1172         62.4010         70.9407         39.6749         5.82432
            1173         61.4226         70.4657         40.1479         2.85895
            1174         61.5812         70.6396         36.3077        -4.03319
            1175         62.0116         70.6656         36.4144        -5.74554
            1176         62.6460         70.7314         37.0366        -7.51730
            1177         62.6854         69.7843         38.5719        -9.37268
            1178         61.4657         67.5211         39.8531        -10.3535
            1179         60.9684         66.4376         41.1054        -10.7158
            1180         61.6239         67.2653         43.7142        -10.0400
            1181         60.4033         64.9830         45.8184        -10.0642
            1182         59.7941         63.7875         48.5452        -9.06326
            1183         58.8209         61.3187         51.9319        -7.90336
            1184         58.4586         60.0351         54.4897        -6.20102
            1185         58.2959         59.0260         56.6797        -3.97181
            1186         58.3957         56.1470         59.8768        -3.37874
            1187         59.0858         54.4011         62.8559    -270.898E-03
            1188         61.3039         51.2510         67.4704         3.51977
            1189         63.2340         49.3363         70.3152         5.45687
            1190         67.1652         46.1826         75.3506         7.75669
            1191         70.0906         44.1922         78.4102         9.60377
            1192         77.8640         39.7203         87.3354         10.4341
            1193         83.7887         36.8358         93.8938         10.1041
            1194         88.0390         34.9540         98.4416         9.64822
            1195         91.2829         33.6701         102.323         7.62021
            1196         94.6789         32.3032         106.205         4.89454
            1197         96.6979         31.6621         108.467         2.39480
            1198         95.7265         31.3224         107.460    -520.419E-03
            1199         92.7203         31.6439         104.231        -3.15569
            1200         89.4897         32.3381         100.718        -5.02150
            1201         84.7095         33.3685         95.2788        -7.38246
            1202         79.5369         35.8041         90.1659        -6.89462
            1203         72.2966         38.9579         82.3526        -6.71851
            1204         68.2398         41.2844         78.1190        -4.99304
            1205         63.2790         44.1702         71.9125        -4.40464
            1206         60.5579         46.4546         68.4256        -1.39734
            1207         57.7867         49.4860         63.3635         1.92407
            1208         56.9387         50.9461         60.9498         3.50195
            1209         56.3524         52.5884         58.4888         4.65291
            1210         56.1322         54.6848         54.6535         7.35093
            1211         56.2509         56.1241         51.7875         8.92233
            1212         56.6822         58.1226         49.1257         9.60227
            1213         56.9669         59.0895         46.9447         10.3890
            1214         57.0294         59.5930         44.7882         11.0167
            1215         56.8710         60.0711         42.0999         11.2895
            1216         57.8707         62.4164         40.6811         10.6055
            1217         57.5165         63.0580         38.4111         9.63591
            1218         58.8436         65.8492         37.9765         7.85181
            1219         58.2898         66.1249         37.3730         5.76599
            1220         55.9709         64.0918         36.0391         3.46268
            1221         56.7749         65.1425         33.1379        -3.67042
            1222         58.7703         66.6660         34.6356        -6.29790
            1223         57.3348         63.8468         34.7601        -8.60082
            1224         58.7265         64.6230         36.7628        -9.94804
            1225         58.5999         63.2806         39.0662        -11.1873
            1226         58.7603         62.3609         42.5885        -11.6328
            1227         58.8566         61.9452         45.1485        -11.3318
            1228         59.2255         62.5631         45.9633        -10.9010
            1229         58.1908         59.5645         49.3963        -10.6538
            1230         57.9565         57.6853         53.3198        -9.38310
            1231         58.0400         56.9163         55.8064        -7.98152
            1232         58.2855         55.6582         58.9476        -5.92910
            1233         59.3070         52.8459         63.4726        -4.08735
            1234         60.1407         51.8964         65.7626        -1.98206
            1235         62.9893         48.8632         71.0872    -252.418E-03
            1236         64.4409         48.0044         72.9670         2.98677
            1237         68.1852         45.4054         77.8776         4.42398
            1238         73.1173         42.5254         83.4176         6.49611
            1239         76.4902         40.6933         86.9697         7.53154
            1240         81.4890         38.1835         92.3679         7.69348
            1241         87.0403         35.4842         98.1039         7.60828
            1242         90.3952         33.9344         101.893         5.63647
            1243         92.8200         32.7031         104.524         3.60482
            1244         93.5434         32.1843         105.329         1.85646
            1245         93.7014         31.8246         105.468    -119.939E-03
            1246         90.9836         32.4794         102.666        -2.40116
            1247         88.1230         33.1498         99.5512        -4.33619
            1248         84.0478         34.4499         95.2100        -5.54572
            1249         77.4984         37.3773         88.6091        -4.80740
            1250         73.2228         39.1475         83.9784        -4.62697
            1251         69.3782         41.1232         79.8620        -3.08028
            1252         65.1830         43.2946         74.8225        -2.26649
            1253         62.6858         44.9621         71.5966     571.404E-03
            1254         60.5399         46.4812         68.2033         2.77260
            1255         58.4706         48.4577         64.2944         4.18148
            1256         56.8657         50.8208         59.5873         6.54665
            1257         56.2479         52.2500         55.9488         8.69532
            1258         56.0132         54.1267         52.6328         9.77085
            1259         55.6969         54.3937         49.5746         11.2897
            1260         56.0773         56.5518         47.3497         11.2882
            1261         55.4939         56.2437         44.5763         12.0596
            1262         55.7008         57.6136         42.5589         11.8878
            1263         54.9726         57.7248         39.7769         11.6009
            1264         55.4371         60.0428         37.6113         10.1950
            1265         53.8202         59.3759         35.2947         8.58397
            1266         53.2960         59.7675         34.3002         6.87603
            1267         52.1509         59.4063         33.1371         4.51270
            1268         52.1926         59.8229         29.8484        -3.65052
            1269         54.1343         60.6379         32.3319        -7.50007
            1270         54.5288         59.5838         34.2556        -9.84541
            1271         55.6878         59.7912         36.7390        -11.1514
            1272         56.0578         58.9767         39.3516        -12.0623
            1273         56.3423         58.1607         42.1457        -12.4733
            1274         56.4520         57.0695         45.0747        -12.5240
            1275         56.5363         56.0996         47.5311        -12.3350
            1276         56.9264         55.8868         49.8855        -11.7851
            1277         57.4821         54.2357         55.0293        -10.3118
            1278         57.9851         53.9174         57.6996        -8.88736
            1279         58.8031         51.9644         61.3792        -7.73802
            1280         60.3955         50.3232         65.8956        -5.44787
            1281         61.5499         49.6239         68.4768        -3.40948
            1282         63.1673         48.5021         71.3692        -1.37200
            1283         67.0737         45.9062         76.9624     670.279E-03
            1284         69.8264         44.3974         80.3039         2.65616
            1285         73.4344         42.4826         84.3958         4.10491
            1286         76.0252         41.1321         87.1442         5.10864
            1287         80.5250         38.9541         91.9931         5.40477
            1288         85.1627         36.6227         96.7389         5.65334
            1289         89.4510         34.4704         101.179         4.61235
            1290         90.9316         33.7074         102.792         3.21591
            1291         91.7918         33.0312         103.712         1.18435
            1292         91.3643         32.9176         103.260    -350.838E-03
            1293         88.6722         34.0744         100.611        -1.56721
            1294         85.6665         34.8747         97.4480        -2.87839
            1295         82.1235         36.1099         93.7635        -3.39260
            1296         78.6052         37.4126         90.0679        -3.48944
            1297         74.3155         39.2007         85.5337        -2.77246
            1298         68.8581         41.7214         79.4689    -578.208E-03
            1299         65.7533         43.2353         75.5987         1.58810
            1300         62.9648         44.6707         71.6905         3.26790
            1301         61.1301         45.6725         68.6402         4.97999
            1302         59.4690         46.8590         65.5556         6.19467
            1303         57.6024         48.7580         61.1550         7.80065
            1304         56.5325         50.0987         57.3731         9.46366
            1305         55.9045         50.7625         54.4643         10.7527
            1306         55.1455         50.8923         51.2749         11.9914
            1307         54.3855         50.9408         48.4601         12.6890
            1308         53.8356         51.7283         45.5980         12.9355
            1309         52.8714         51.5757         42.8640         13.0225
            1310         52.1818         52.5063         39.7591         12.5545
            1311         50.8958         53.4164         35.7964         11.0725
            1312         50.1085         53.8072         33.9354         9.83200
            1313         48.3608         53.9949         30.9590         6.74488
            1314         47.4129         54.0944         29.4181         3.98785
            1315         47.5769         54.3396         26.6188        -4.02779
            1316         49.8956         55.4275         30.0269        -7.74713
            1317         49.3685         53.5886         31.1212        -9.39373
            1318         51.7389         54.5550         34.8977        -11.3529
            1319         52.9765         54.2910         38.3962        -12.5072
            1320         52.9775         53.1755         40.1715        -12.9276
            1321         54.2576         52.5957         44.9235        -13.1939
            1322         55.1007         52.0128         48.5070        -12.9204
            1323         56.0716         52.1524         51.6035        -12.2811
            1324         56.7241         51.1052         54.7862        -11.6077
            1325         58.4249         50.3277         60.3554        -9.58064
            1326         59.2353         50.0644         62.6502        -8.44331
            1327         60.9987         48.7374         66.8533        -6.69311
            1328         62.9328         47.5063         70.5064        -5.22938
            1329         65.7770         46.2870         75.1164        -2.48791
            1330         68.3860         45.0275         78.6657    -999.288E-03
            1331         72.4560         43.1951         83.6365     748.356E-03
            1332         75.2624         41.8951         86.7798         2.17092
            1333         77.1093         40.9934         88.7550         2.96074
            1334         82.3121         38.4984         94.1901         3.98091
            1335         84.5859         37.4653         96.5628         3.85201
            1336         87.9410         35.7234         99.9729         3.37893
            1337         89.5491         34.8781         101.640         2.36710
            1338         90.2604         34.2813         102.359         1.04965
            1339         89.6409         34.3302         101.732    -170.548E-03
            1340         87.5543         35.5502         99.7261    -803.279E-03
            1341         85.4875         35.8403         97.5233        -1.63947
            1342         82.3556         36.7203         94.2391        -2.12493
            1343         79.0515         38.0878         90.8316        -1.59635
            1344         74.5632         39.7033         86.0003    -768.924E-03
            1345         71.8702         40.8496         82.9737     692.300E-03
            1346         68.6992         41.9997         79.1798         1.97394
            1347         65.4525         43.2094         74.8455         4.04808
            1348         60.3563         45.6506         66.7995         6.98035
            1349         58.5007         46.1694         62.7016         9.20373
            1350         56.9167         46.8846         58.7429         10.7200
            1351         56.0404         47.6716         56.1573         11.4223
            1352         54.5682         47.3343         52.2562         12.6484
            1353         53.2872         47.3496         48.8157         13.2409
            1354         52.1332         48.4171         44.7108         13.4086
            1355         50.7232         48.1890         41.5142         13.2635
            1356         48.5839         47.8949         37.1849         12.4462
            1357         48.7459         49.9561         35.2800         11.5228
            1358         45.6960         48.0450         31.6464         9.97926
            1359         45.2474         49.0622         29.9408         8.42086
            1360         43.1307         49.0659         26.1289         4.16805
            1361         42.7696         48.2915         23.9923        -5.16915
            1362         45.1308         49.7557         27.2979        -7.62043
            1363         45.1452         48.0577         29.4262        -9.60563
            1364         47.9526         49.1428         33.8098        -11.5880
            1365         49.9533         49.6199         37.6475        -12.7008
            1366         50.2306         48.4637         39.8768        -13.1250
            1367         52.1928         47.8915         45.4632        -13.4274
            1368         53.8227         48.1897         49.2900        -13.1707
            1369         55.3075         48.7010         52.6914        -12.6078
            1370         56.4634         48.7504         55.6991        -11.8951
            1371         58.2271         48.5674         60.2756        -10.4224
            1372         59.6473         47.2314         63.7733        -9.52307
            1373         61.1150         47.0872         66.7935        -8.19748
            1374         64.0406         46.1119         72.0222        -6.02148
            1375         65.5613         45.9144         74.5503        -4.29501
            1376         69.4355         44.4820         79.9448        -1.58794
            1377         71.6534         43.6346         82.6730    -967.249E-03
            1378         75.1078         42.2720         86.7057     733.490E-03
            1379         79.0389         40.6972         91.0198         1.87422
            1380         81.7339         39.5188         93.8620         2.44464
            1381         84.8043         38.3294         97.0893         2.42691
            1382         87.0107         37.2204         99.3381         2.22532
            1383         88.4765         36.3484         100.812         1.65842
            1384         88.7258         36.3218         101.108     927.760E-03
            1385         88.7640         35.8708         101.083     373.354E-03
            1386         87.1913         36.2967         99.4714    -514.098E-03
            1387         85.2412         37.1230         97.4972    -733.756E-03
            1388         82.5978         37.6112         94.6901    -996.508E-03
            1389         79.7042         38.7169         91.6623    -470.898E-03
            1390         75.9063         39.8085         87.5282     273.222E-03
            1391         72.7474         40.8542         83.9329         1.57053
            1392         69.4453         41.8295         79.8745         3.37220
            1393         67.2785         42.4223         77.0823         4.28499
            1394         64.2508         43.0924         72.6593         6.40049
            1395         61.8047         43.8390         68.7858         7.78844
            1396         59.9555         44.0213         65.3922         9.29697
            1397         57.1550         44.4825         59.7189         11.2264
            1398         56.0654         44.9966         57.1721         11.8679
            1399         54.6281         45.9666         53.3047         12.6510
            1400         52.3738         44.9290         48.7333         13.4040
            1401         50.1744         44.2243         44.4728         13.5478
            1402         48.2336         44.3330         40.2706         13.2244
            1403         47.2605         45.5838         37.0195         12.5528
            1404         44.5415         44.2444         33.2878         11.4178
            1405         42.9784         43.9910         30.7862         10.3032
            1406         40.0646         43.6986         25.9525         7.21465
            1407         38.6202         43.4588         23.2411         4.92400
            1408         36.3339         41.0280         19.3571        -4.33356
            1409         37.6976         40.8683         23.4288        -7.29110
            1410         41.3918         42.8700         28.4079        -9.76861
            1411         43.5765         42.9166         32.6422        -11.4375
            1412         45.6923         43.8333         35.7912        -12.3054
            1413         47.6052         43.7696         39.8823        -12.9809
            1414         49.8385         44.3095         44.1089        -13.2840
            1415         52.0145         44.7327         48.5026        -13.1864
            1416         54.2312         45.4591         52.8095        -12.7321
            1417         56.6193         45.8274         57.8168        -11.7246
            1418         58.1581         45.0866         61.3137        -10.8724
            1419         62.2226         45.2071         68.7451        -8.36349
            1420         67.3267         44.6926         76.7653        -4.94595
            1421         70.6576         43.9912         81.2974        -2.85018
            1422         74.1666         43.1597         85.5860        -1.50965
            1423         76.8734         42.4928         88.7335    -511.820E-03
            1424         78.9687         41.5680         91.0636     546.846E-03
            1425         81.1638         40.7204         93.4339         1.18174
            1426         83.4758         39.9820         95.9048         1.45911
            1427         86.1954         38.9035         98.7475         1.49744
            1428         87.5163         38.0759         100.073         1.29793
            1429         88.0146         37.8063         100.587     887.292E-03
            1430         87.5866         37.6054         100.109     173.564E-03
            1431         86.6934         37.8296         99.1794    -100.683E-03
            1432         85.3998         38.4023         97.8585    -175.678E-03
            1433         82.9333         39.0814         95.2534    -36.2992E-03
            1434         79.8352         39.8899         91.9125     559.323E-03
            1435         76.5591         40.4827         88.2593         1.37949
            1436         73.8875         41.1368         85.1535         2.51356
            1437         70.9464         41.6321         81.5538         3.84699
            1438         68.9200         41.9109         78.9447         4.82429
            1439         65.6794         42.1183         74.4002         6.78365
            1440         62.6514         42.6542         69.8918         8.20840
            1441         60.3772         42.3094         66.1098         9.69336
            1442         57.4523         42.1656         60.9503         11.2233
            1443         53.3322         41.6544         53.2644         12.7910
            1444         50.7621         41.0145         48.6271         13.2215
            1445         48.6314         40.3683         44.9993         13.2543
            1446         46.8114         40.5336         41.2974         13.1249
            1447         43.3589         39.5735         35.8458         12.2142
            1448         41.6519         40.1210         32.2625         11.2356
            1449         37.4737         38.1750         27.0013         9.10401
            1450         35.0364         37.7548         22.9642         6.87453
            1451         33.0654         37.2826         18.8607         4.11405
            1452         32.6225         35.1915         20.5829        -6.49300
            1453         34.7232         35.4269         24.7871        -8.45305
            1454         39.0171         37.7525         30.0999        -10.4471
            1455         41.1961         36.9819         35.1065        -11.4789
            1456         44.3838         38.5754         39.3591        -12.2612
            1457         47.8371         40.3123         44.2894        -12.7432
            1458         50.7959         40.7495         49.7903        -12.5108
            1459         52.7028         42.1232         52.3708        -12.4706
            1460         55.1537         43.2660         56.3961        -11.9652
            1461         58.1806         42.8284         62.3472        -10.5478
            1462         60.5572         43.3670         66.2415        -9.50851
            1463         63.0966         43.6028         70.2905        -8.24793
            1464         65.8247         44.0155         74.3736        -6.77441
            1465         68.4792         44.1252         78.1687        -5.20332
            1466         71.8178         43.8710         82.5730        -3.53033
            1467         75.3562         43.5948         86.9110        -2.11319
            1468         76.8151         43.1838         88.6485        -1.33497
            1469         79.5053         42.8154         91.7322    -477.480E-03
            1470         82.2330         41.6510         94.7194     530.606E-03
            1471         84.4354         41.3683         97.1308     761.233E-03
            1472         86.0326         40.9304         98.8426     840.502E-03
            1473         87.0306         40.0043         99.8262     853.988E-03
            1474         87.4663         39.5929         100.253     673.177E-03
            1475         86.9052         40.5586         99.7680     324.060E-03
            1476         86.0597         40.6253         98.8512     236.209E-03
            1477         84.8248         40.7691         97.5106     275.922E-03
            1478         83.2041         40.3592         95.6838     355.183E-03
            1479         80.0792         40.9206         92.2486         1.04073
            1480         77.6840         41.3414         89.5410         1.81318
            1481         73.8729         41.6900         85.0463         3.25913
            1482         71.8606         41.8371         82.5490         4.19790
            1483         69.3515         41.8449         79.3221         5.34961
            1484         66.6416         41.7790         75.6544         6.65333
            1485         63.2872         41.6404         70.7933         8.31696
            1486         60.4385         40.8815         66.4773         9.66057
            1487         57.9556         40.4592         62.5055         10.7065
            1488         55.1156         39.9217         57.7756         11.7256
            1489         52.8592         39.5361         53.8626         12.3737
            1490         48.6374         37.3594         47.7665         12.5534
            1491         46.3570         36.8027         44.0711         12.5725
            1492         44.3996         35.7709         41.5103         12.2953
            1493         40.6427         35.2878         35.3246         11.6232
            1494         38.0334         35.0686         31.0962         10.6499
            1495         35.5487         34.3280         27.6472         9.48688
            1496         31.5230         33.3491         21.4527         6.75144
            1497         28.2249         31.6651         15.8168         3.85736
            1498         27.8872         31.3852         14.0337        -3.47228
            1499         27.4637         29.4116         18.0495        -5.60620
            1500         31.8387         31.3051         24.5602        -8.15164
            1501         32.0821         29.2862         27.4259        -8.61396
            1502         38.4787         33.2199         34.3606        -10.6121
            1503         42.5673         34.3392         40.6137        -11.2244
            1504         45.2040         36.1133         43.6396        -11.7017
            1505         48.8497         36.9778         49.6914        -11.3605
            1506         52.4319         39.0110         54.5257        -11.2738
            1507         55.6539         41.0195         58.8865        -10.9945
            1508         59.4101         41.4769         65.1802        -9.38514
            1509         61.8753         42.2693         68.8045        -8.48741
            1510         64.2379         42.6892         72.3008        -7.37563
            1511         66.9663         43.4921         76.0205        -6.32724
            1512         73.2169         44.2707         84.2114        -3.52861
            1513         76.0916         44.4235         87.7348        -2.35059
            1514         78.6441         44.4748         90.7605        -1.40995
            1515         80.0291         44.1891         92.3640    -885.449E-03
            1516         82.4965         43.2241         95.1269    -7.10509E-03
            1517         84.1056         43.4169         96.9401     240.203E-03
            1518         85.8003         43.0004         98.7933     482.318E-03
            1519         86.6747         42.9235         99.7560     478.915E-03
            1520         87.0291         42.1471         100.075     441.202E-03
            1521         86.8937         42.5479         99.9655     365.780E-03
            1522         85.9894         42.0027         98.9163     305.596E-03
            1523         84.5882         42.0499         97.3695     418.431E-03
            1524         83.1522         42.0370         95.7694     644.111E-03
            1525         80.7088         43.2942         93.0799         1.35087
            1526         78.2542         43.0224         90.2312         2.08827
            1527         75.1972         42.5070         86.5974         3.14445
            1528         72.7474         42.3789         83.5918         4.12971
            1529         70.2463         42.1284         80.4189         5.17886
            1530         67.1146         41.5182         76.2982         6.50509
            1531         63.9848         40.8968         71.9550         7.88911
            1532         60.9153         39.7047         67.7805         8.77901
            1533         58.7649         39.1411         64.5773         9.63815
            1534         55.1172         38.1796         58.9453         10.8961
            1535         51.3987         36.7119         53.4369         11.5518
            1536         47.4261         34.6335         48.1192         11.5590
            1537         45.0111         33.4545         44.8833         11.4577
            1538         41.2538         32.0057         39.6684         11.1586
            1539         36.1566         30.3522         32.6740         10.1683
            1540         33.4123         28.9697         29.5247         9.32287
            1541         29.2270         27.6664         23.9378         7.70362
            1542         24.7926         25.8397         17.9125         5.44589
            1543         23.0392         25.5368         13.6540         3.69329
            1544         19.4111         21.8338         10.0154        -2.47951
            1545         20.0442         20.8955         15.3117        -4.10881
            1546         25.5690         22.6450         23.4818        -6.35945
            1547         31.1210         26.3009         28.9946        -8.13788
            1548         36.1932         29.5491         34.2961        -9.55682
            1549         38.0055         28.9989         38.0382        -9.30305
            1550         43.4310         32.9531         43.7076        -10.4928
            1551         47.3830         34.1873         49.8025        -9.97830
            1552         50.5238         35.3335         54.5479        -9.23921
            1553         54.5210         37.4611         59.8595        -8.72632
            1554         58.1722         39.6685         64.4135        -8.49501
            1555         60.8062         41.0273         67.8512        -8.04419
            1556         64.7558         42.4589         73.3461        -6.45753
            1557         71.1930         44.5432         81.6340        -4.33869
            1558         74.8031         45.1329         86.1360        -2.98287
            1559         76.7337         46.0667         88.4653        -2.24490
            1560         78.8487         46.1692         90.9914        -1.53711
            1561         80.6088         45.3536         93.0513    -913.592E-03
            1562         83.1503         45.9809         95.9842    -268.108E-03
            1563         84.4889         45.9113         97.5042     23.7404E-03
            1564         85.7591         45.9200         98.9402     219.384E-03
            1565         86.5228         45.8950         99.7992     284.080E-03
            1566         86.7446         45.1946         100.008     300.109E-03
            1567         86.4171         46.1613         99.6937     262.273E-03
            1568         86.0802         44.0427         99.1879     319.484E-03
            1569         84.8641         44.5866         97.8601     448.913E-03
            1570         83.1909         44.6731         95.9724     760.195E-03
            1571         81.2276         45.8154         93.7552         1.19323
            1572         79.5609         45.2690         91.8056         1.66646
            1573         76.7852         43.9374         88.5098         2.60647
            1574         73.0624         43.2234         83.9870         3.92561
            1575         71.6568         42.9530         82.2436         4.40979
            1576         67.5522         41.8365         77.0893         5.63885
            1577         64.5149         40.6431         73.2043         6.49848
            1578         61.3328         39.1889         69.1226         7.23070
            1579         58.6392         37.9954         65.3992         8.22019
            1580         54.1024         35.8689         59.2033         9.29175
            1581         49.3337         32.8822         53.4862         9.13852
            1582         46.0568         31.9565         48.3424         10.1305
            1583         41.9614         29.1822         43.8076         9.45972
            1584         38.2048         27.3764         39.0469         9.20956
            1585         34.0875         25.3511         34.1117         8.57204
            1586         31.6085         26.4119         29.1179         8.61615
            1587         24.1929         21.6840         21.8392         6.10216
            1588         18.5592         19.4728         14.0978         3.69814
            1589         17.1787         19.3185         9.45662         2.24808
            1590         13.6381         15.3646         8.39405        -1.67695
            1591         18.6778         17.2051         17.4910        -3.99343
            1592         19.9463         16.4336         20.1310        -4.21741
            1593         24.6627         18.6043         25.5252        -5.33766
            1594         31.8534         22.8756         33.3613        -6.86862
            1595         35.2673         24.3924         37.6926        -7.01131
            1596         40.2060         27.3804         43.5680        -7.33880
            1597         45.0852         31.2876         48.5817        -8.43770
            1598         48.6201         32.6588         53.8951        -7.13654
            1599         53.5433         35.8959         59.8883        -6.86804
            1600         57.6324         38.4809         64.8942        -6.49722
            1601         62.1973         41.1711         70.4902        -5.96477
            1602         66.3026         43.5481         75.7691        -4.40576
            1603         68.6198         44.5747         78.5697        -4.11521
            1604         71.3874         45.6754         81.9513        -3.51476
            1605         74.3151         46.1144         85.5223        -2.94040
            1606         77.2231         48.1506         88.9995        -1.76869
            1607         79.0835         48.4182         91.2220        -1.32080
            1608         81.5240         49.2781         94.0905    -686.756E-03
            1609         82.8493         47.7905         95.6625    -414.516E-03
            1610         84.4302         48.9940         97.4909    -99.7375E-03
            1611         85.6966         48.6928         98.9496     102.743E-03
            1612         86.3835         48.2210         99.7283     187.250E-03
            1613         86.6072         49.1159         99.9996     175.038E-03
            1614         86.4400         49.1392         99.8078     177.145E-03
            1615         85.7843         48.1244         99.0408     251.548E-03
            1616         84.8209         47.9635         97.9331     371.587E-03
            1617         83.3086         46.6020         96.1714     685.023E-03
            1618         81.8216         48.3226         94.4555     856.457E-03
            1619         80.2398         47.8130         92.6046         1.21446
            1620         77.6523         46.8890         89.5544         1.86496
            1621         74.6071         44.9690         85.9127         2.96820
            1622         72.9181         45.2815         83.8966         2.99738
            1623         69.4155         43.5722         79.6467         3.94788
            1624         65.4487         41.6668         74.8429         4.63377
            1625         62.3572         39.7193         70.7914         6.08722
            1626         59.0395         37.8744         66.8535         6.16001
            1627         53.5934         34.7034         59.7464         7.56521
            1628         48.9448         31.3887         54.6496         6.81033
            1629         46.0688         30.2275         50.2986         8.14614
            1630         39.5753         25.5281         43.2190         7.06971
            1631         35.2586         23.0957         38.0067         6.90512
            1632         30.6078         20.6197         32.5502         6.41165
            1633         28.1450         21.4118         28.1980         6.88764
            1634         21.4163         17.3531         21.3663         4.89143
            1635         16.3859         14.7531         15.8593         3.33169
            1636         12.2628         13.8096         7.81671         1.47378
            1637         8.09315         8.39920         7.54477    -682.867E-03
            1638         12.7495         8.78993         14.2160        -1.64808
            1639         17.4751         10.3694         19.5964        -2.38316
            1640         23.2324         14.4106         25.7242        -3.69883
            1641         28.2750         16.7176         31.6726        -3.92999
            1642         33.1054         19.8327         37.2685        -4.19634
            1643         38.6713         24.3463         43.4051        -5.01600
            1644         43.1614         27.2018         49.0054        -4.26123
            1645         47.4776         30.5579         54.0492        -4.10912
            1646         52.2529         34.3923         59.3991        -4.55165
            1647         56.1653         37.3334         64.1653        -3.60906
            1648         61.7939         41.5904         70.7449        -2.95494
            1649         65.2350         44.0139         74.7515        -2.62662
            1650         68.4760         45.9927         78.5388        -2.41558
            1651         71.8238         47.3738         82.4992        -2.34982
            1652         75.0444         49.6297         86.2794        -1.46490
            1653         77.5257         50.8524         89.2033        -1.03972
            1654         79.6506         51.4502         91.7341    -751.677E-03
            1655         81.6772         51.3702         94.1775    -508.949E-03
            1656         83.4188         52.3676         96.1967    -206.974E-03
            1657         84.6618         52.4963         97.6674    -60.0334E-03
            1658         85.6622         51.7106         98.8793     44.8519E-03
            1659         86.3173         52.3949         99.6259     78.9357E-03
            1660         86.6432         52.5135         100.005     85.9557E-03
            1661         86.4742         52.4503         99.8084     84.5273E-03
            1662         85.9761         52.0371         99.2371     111.941E-03
            1663         84.9921         50.9463         98.1152     222.466E-03
            1664         83.7177         51.6956         96.5871     299.955E-03
            1665         82.2524         51.5267         94.8546     452.362E-03
            1666         80.4699         50.8271         92.7661     706.354E-03
            1667         78.0286         49.2319         89.9310         1.23370
            1668         75.6097         48.9543         87.0379         1.36511
            1669         73.0808         47.7045         84.0632         1.69771
            1670         69.9164         45.3134         80.3513         2.55952
            1671         66.2999         43.2533         76.0965         2.92037
            1672         61.5100         40.1832         70.5145         3.16176
            1673         57.7033         37.2932         65.9940         3.86477
            1674         53.0387         33.8269         60.5199         4.21866
            1675         48.7118         30.4293         55.6365         3.84948
            1676         44.4233         27.0120         50.6796         3.84347
            1677         39.9809         23.6079         45.4680         3.96671
            1678         35.3452         20.2610         40.0185         4.00470
            1679         30.4568         16.9351         34.3340         3.80545
            1680         25.3497         13.7585         28.4790         3.37070
            1681         17.3180         9.95252         19.4036         2.41350
            1682         11.6336         6.51109         13.2365         1.14285
            1683         8.14788         7.86308         8.20540     763.737E-03
            1684         64.8787         74.4863         42.5151         2.60099
            1685         65.6120         75.0749         41.6094         4.51535
            1686         64.5751         73.3829         40.5692         6.22144
            1687         64.1650         72.4125         40.6888         7.40207
            1688         63.2490         70.9100         41.4018         8.03953
            1689         62.5490         69.8869         42.4216         8.02757
            1690         61.3413         68.1646         43.8495         7.80078
            1691         60.7686         67.5052         44.9738         7.05212
            1692         59.0419         64.8266         47.2551         6.15900
            1693         57.6284         62.3156         49.6157         4.75785
            1694         56.5305         59.6191         52.0617         3.40144
            1695         56.0721         58.1053         53.6246         1.64670
            1696         55.8063         55.8181         55.7735    -623.194E-03
            1697         56.1529         53.3481         57.9485        -3.67612
            1698         58.1900         49.0031         62.2216        -7.35524
            1699         64.0033         42.7071         69.7659        -11.3246
            1700         67.1032         40.1975         73.2485        -12.4642
            1701         72.2614         36.7135         79.1481        -13.1047
            1702         68.1538         78.3114         44.4353         2.41898
            1703         68.1837         78.1744         42.7305         4.17556
            1704         67.7864         77.3948         41.6492         5.59235
            1705         66.8345         76.0346         41.3601         6.31731
            1706         66.1395         75.0968         41.6642         6.52781
            1707         64.3173         72.6818         42.4911         6.75557
            1708         63.0749         71.1145         43.5581         6.36314
            1709         62.8062         71.0223         44.2089         5.34935
            1710         59.0262         65.5608         48.0034         3.09285
            1711         58.5305         64.8904         48.7893     453.893E-03
            1712         57.3323         62.2708         50.4867        -1.19507
            1713         56.7451         59.6153         51.9774        -4.58323
            1714         56.4644         54.4166         56.0217        -6.76115
            1715         58.0204         50.1741         59.6830        -9.68513
            1716         63.8639         43.6341         64.2730        -16.8141
            1717         71.3529         36.3472         73.0685        -19.0345
            1718         71.5460         82.3096         45.7330         2.36039
            1719         71.0875         81.6990         43.8129         3.58718
            1720         71.1920         81.7238         42.5386         4.33602
            1721         69.7982         79.9407         41.8330         5.01454
            1722         67.9660         77.6120         41.7218         5.57245
            1723         67.6141         77.3522         42.0200         4.93175
            1724         66.6402         76.2014         42.4062         4.73958
            1725         65.2690         74.7501         43.3233         3.36542
            1726         62.5765         71.2740         45.0621         2.38022
            1727         60.7697         68.7211         46.5711     800.876E-03
            1728         60.0943         67.5381         47.2305        -1.73910
            1729         58.6028         64.4373         48.7824        -3.90732
            1730         58.0798         61.9393         49.7475        -6.91130
            1731         58.3032         58.2078         51.1567        -11.1330
            1732         59.5832         52.5797         54.7173        -14.9283
            1733         74.7999         86.1295         48.0603         1.45485
            1734         73.8893         85.0977         45.0851         2.70690
            1735         74.0475         85.2604         43.6741         3.15950
            1736         72.8707         83.8168         42.1460         3.70288
            1737         71.7525         82.5079         41.6484         3.76826
            1738         70.7831         81.4213         41.5482         3.53409
            1739         69.3276         79.8438         41.7966         2.67886
            1740         67.1753         77.3210         42.5917         2.09499
            1741         65.7775         75.6860         43.3559    -51.5687E-03
            1742         64.4650         73.7586         44.0586        -2.82579
            1743         62.3811         70.5467         45.3564        -4.36290
            1744         62.5350         69.5432         45.0282        -7.70812
            1745         61.0762         64.8596         46.3960        -11.2571
            1746         63.7531         61.9017         45.3883        -18.0937
            1747         77.2965         89.0629         49.2599         1.03985
            1748         76.8122         88.5854         46.4356         1.82617
            1749         76.6617         88.4034         44.1597         2.28288
            1750         76.8124         88.5651         42.5390         2.18179
            1751         74.7663         86.1878         41.2578         2.26385
            1752         73.6611         84.9473         40.9617         1.96975
            1753         71.2928         82.2826         41.1610         1.26932
            1754         70.1842         81.0348         41.4076     132.873E-03
            1755         70.7987         81.6467         40.9711        -2.06510
            1756         68.8314         79.0048         41.6529        -4.15609
            1757         66.3452         75.6079         42.8004        -5.45609
            1758         66.8903         74.9713         42.0141        -8.91209
            1759         66.5804         72.1628         41.5683        -12.8742
            1760         70.2729         69.6844         38.6038        -20.6736
            1761         79.5326         91.7209         49.6027     793.687E-03
            1762         78.6272         90.7353         46.4916         1.44870
            1763         78.8778         91.0098         44.0592         1.58430
            1764         78.7226         90.7799         42.1776         1.43664
            1765         78.1061         90.0371         40.9301         1.13114
            1766         76.3361         88.0245         40.4817         1.08139
            1767         74.7254         86.2133         40.0511    -30.1085E-03
            1768         74.0456         85.3702         39.8093        -1.67563
            1769         74.2705         85.3603         39.3539        -3.66338
            1770         73.6731         84.2534         39.2676        -5.64446
            1771         73.2145         83.0592         39.0661        -7.74977
            1772         73.2835         81.6257         38.1193        -11.0477
            1773         71.5698         77.7307         38.1133        -14.0252
            1774         81.7899         94.3710         50.2830     441.035E-03
            1775         81.7114         94.3401         46.7879     723.087E-03
            1776         81.1901         93.6841         44.2250     903.882E-03
            1777         81.0431         93.4132         42.0308     730.231E-03
            1778         79.7808         91.9207         40.8106     681.551E-03
            1779         79.4441         91.4229         39.2066    -384.044E-03
            1780         79.1229         91.0032         38.7188        -1.03892
            1781         78.7322         90.3424         37.9099        -2.87063
            1782         78.6504         89.9379         37.4400        -4.56723
            1783         77.6605         88.4139         37.4453        -6.39465
            1784         77.8568         87.8475         36.8226        -8.62874
            1785         79.7669         88.6590         34.9929        -11.2588
            1786         80.6248         87.1496         32.4628        -15.0620
            1787         83.3911         96.2266         51.1601     202.297E-03
            1788         83.3863         96.2838         48.2385     336.164E-03
            1789         82.8264         95.5473         44.2343     490.180E-03
            1790         82.9475         95.5442         41.9818     281.202E-03
            1791         82.3446         94.7290         40.2622     12.5021E-03
            1792         82.2903         94.4887         38.6443    -739.080E-03
            1793         81.8962         93.8551         37.4510        -1.87942
            1794         82.5573         94.3035         36.4100        -3.18619
            1795         82.6889         94.1479         35.8208        -4.58074
            1796         83.7221         94.8396         35.0093        -6.04030
            1797         83.6488         93.6779         34.1802        -9.22347
            1798         86.7718         96.2071         32.1158        -10.5179
            1799         84.6270         97.6788         51.2578     84.8672E-03
            1800         84.4176         97.4731         48.0452     181.355E-03
            1801         84.6901         97.6257         43.8844     115.945E-03
            1802         84.5223         97.3057         42.1173     29.6275E-03
            1803         84.7322         97.3120         39.8798    -322.659E-03
            1804         84.0923         96.4091         38.2869    -840.084E-03
            1805         85.2639         97.3730         36.4511        -1.74182
            1806         85.1598         97.0533         35.6325        -2.67250
            1807         86.0015         97.6504         34.6460        -3.80844
            1808         86.8191         98.0829         33.8162        -5.49417
            1809         89.1911         100.034         32.6268        -7.01094
            1810         91.1062         101.543         31.5889        -8.14686
            1811         85.5969         98.8222         50.9774     17.9555E-03
            1812         85.8535         99.0929         47.0399     16.2789E-03
            1813         86.0598         99.1863         44.3163    -26.6049E-03
            1814         86.1769         99.0070         40.8692    -207.431E-03
            1815         86.1628         98.8153         39.3981    -400.842E-03
            1816         86.9826         99.4103         37.3554    -739.698E-03
            1817         87.7502         99.9513         35.7167        -1.16561
            1818         88.3632         100.256         34.1759        -2.24286
            1819         89.6019         101.338         33.2071        -2.68111
            1820         90.0602         101.535         32.6640        -4.12885
            1821         92.9277         104.182         31.6441        -5.06626
            1822         94.4664         105.405         31.1971        -6.55337
            1823         86.2691         99.6046         51.0503    -12.2998E-03
            1824         86.4745         99.7964         47.0099    -15.1407E-03
            1825         86.7593         99.9113         43.5952    -42.2120E-03
            1826         86.9903         99.9282         41.1292    -113.635E-03
            1827         87.3473         100.059         39.0507    -228.054E-03
            1828         88.1372         100.557         36.7167    -367.908E-03
            1829         88.8539         101.021         35.0379    -751.805E-03
            1830         90.1331         102.081         33.5442    -905.922E-03
            1831         91.5248         103.279         32.3778        -1.39028
            1832         95.5756         107.160         31.1188        -2.42537
            1833         86.6240         100.012         51.4138    -515.718E-06
            1834         86.8686         100.057         43.9001     10.9745E-03
            1835         87.1448         100.140         41.5129     1.94521E-03
            1836         87.5875         100.319         39.0382    -52.4985E-03
            1837         88.2177         100.686         36.9604    -13.6256E-03
            1838         89.1130         101.321         35.1126     20.5592E-03
            1839         90.4355         102.390         33.4268     66.5265E-03
            1840         92.0850         103.847         32.1389     156.269E-03
            1841         94.1416         105.788         31.2311     175.493E-03
            1842         96.4312         108.123         31.0168     112.826E-03
            1843         86.4600         99.8220         51.3307     11.3586E-03
            1844         86.3215         99.6462         47.7344     10.0098E-03
            1845         86.5379         99.7246         44.3797     37.5824E-03
            1846         86.8469         99.8588         41.9598     90.8870E-03
            1847         86.9379         99.7375         40.0007     224.314E-03
            1848         87.5149         99.9929         37.3838     531.797E-03
            1849         88.8679         101.046         35.0826     689.113E-03
            1850         89.8926         101.847         33.6778         1.10615
            1851         91.3653         103.105         32.4203         1.69997
            1852         93.3078         104.886         31.4961         2.35967
            1853         95.5711         107.137         31.1565         2.75675
            1854         85.9751         99.2630         50.9981     1.70603E-03
            1855         85.8118         99.0542         47.3190    -18.8899E-03
            1856         86.1237         99.2233         43.8376     39.6685E-03
            1857         86.1120         99.0328         41.7963     133.417E-03
            1858         86.5262         99.2401         39.6203     334.482E-03
            1859         86.6681         99.1308         37.7462     705.018E-03
            1860         87.8555         100.035         35.5619         1.20032
            1861         88.5116         100.460         34.2910         1.92331
            1862         89.4597         101.166         33.2127         2.91194
            1863         90.5863         102.023         32.4239         4.23404
            1864         95.8237         107.159         31.4556         5.17549
            1865         84.9912         98.1330         50.0258    -76.0658E-03
            1866         84.8788         97.9837         47.0551    -126.005E-03
            1867         84.5440         97.4666         43.9556    -141.197E-03
            1868         85.2316         97.7855         39.2860     462.567E-03
            1869         85.0101         97.3551         37.9212     915.066E-03
            1870         85.2398         97.3266         36.3575         1.82934
            1871         84.9186         96.7703         35.6150         2.87071
            1872         84.8124         96.3851         35.0426         4.19014
            1873         86.5967         97.8586         33.9100         5.51303
            1874         87.1877         97.8455         33.2445         7.65013
            1875         90.7111         101.160         31.7506         8.14347
            1876         83.6798         96.5783         50.8725    -185.321E-03
            1877         83.2037         96.0386         45.8391    -425.597E-03
            1878         82.1974         94.8095         43.7125    -618.404E-03
            1879         82.7799         95.3596         42.0130    -319.590E-03
            1880         82.9247         95.3183         39.7738     221.215E-03
            1881         81.7140         93.8931         38.9280     560.989E-03
            1882         81.6197         93.5839         37.6228         1.75563
            1883         81.5051         93.2013         36.7761         3.25096
            1884         82.8078         94.2563         35.7512         4.63707
            1885         84.3401         95.4823         34.7720         5.98310
            1886         84.5965         94.9423         34.0500         8.48342
            1887         82.1786         94.8077         50.8067    -350.323E-03
            1888         81.6509         94.2709         47.5746    -687.828E-03
            1889         81.0917         93.5904         44.8268    -935.658E-03
            1890         80.8331         93.1935         42.3443    -843.862E-03
            1891         80.5861         92.8222         40.8104    -511.317E-03
            1892         79.7192         91.7597         39.5348     83.5467E-03
            1893         79.1948         91.0833         38.7145         1.01462
            1894         78.1389         89.8067         38.3697         2.16478
            1895         77.7405         89.0207         37.8591         4.31366
            1896         77.1107         87.8894         37.7199         6.16177
            1897         77.4321         87.3552         36.9789         8.71128
            1898         78.1884         86.7382         35.5301         11.6810
            1899         83.3223         90.6786         31.5341         13.9650
            1900         80.4055         92.7253         50.2993    -592.423E-03
            1901         79.8070         92.1189         47.0604        -1.11605
            1902         79.3882         91.6102         44.3629        -1.42480
            1903         78.2176         90.1981         42.1918        -1.60815
            1904         77.2533         89.0679         41.0050        -1.39114
            1905         76.4775         88.1840         40.2855    -816.643E-03
            1906         75.7611         87.3626         39.7582     253.319E-03
            1907         74.9902         86.4403         39.5642         1.43977
            1908         73.0495         84.1597         40.0120         2.56980
            1909         74.1741         84.9840         39.1707         4.96844
            1910         73.3148         83.2441         39.0655         7.55716
            1911         73.3922         81.9212         38.1755         10.7291
            1912         74.7675         80.9251         35.9591         14.8127
            1913         78.0017         89.9288         48.8810        -1.08485
            1914         77.6612         89.5900         46.7479        -1.59953
            1915         77.4690         89.3518         43.6128        -2.04182
            1916         75.6929         87.2396         42.3075        -2.55764
            1917         74.7694         86.1810         41.3813        -2.39152
            1918         73.7660         85.0747         40.9126        -1.87187
            1919         71.9675         83.0541         41.0130        -1.36232
            1920         70.9686         81.9473         41.1059     70.7175E-03
            1921         69.4326         80.1001         41.5997         1.46879
            1922         68.2464         78.4714         42.0158         3.24169
            1923         67.3994         76.8476         42.2001         5.75199
            1924         66.7206         74.7188         42.0964         8.98204
            1925         66.9883         72.4704         41.2290         13.2102
            1926         66.3420         69.1911         41.6177         15.9310
            1927         75.5778         87.0365         48.5776        -1.27583
            1928         74.7951         86.1788         44.7402        -2.67579
            1929         73.7281         84.8654         43.2637        -3.34413
            1930         73.0481         84.0341         42.2365        -3.63633
            1931         72.1910         83.0738         41.5610        -3.44462
            1932         70.9866         81.6823         41.5125        -3.39836
            1933         68.6314         78.9905         41.9983        -2.85000
            1934         66.4019         76.4656         43.0199    -594.417E-03
            1935         64.7409         74.2169         43.9264         2.14460
            1936         63.1979         71.9631         44.8408         3.23838
            1937         61.9121         69.2599         45.6055         6.18983
            1938         61.3571         66.4423         45.9898         9.84427
            1939         62.0331         61.2197         46.8297         16.0637
            1940         73.0516         84.0621         47.4023        -1.61892
            1941         72.8842         83.8944         44.9966        -2.83451
            1942         71.5356         82.1726         42.9254        -4.07018
            1943         70.5260         80.8679         42.0331        -4.71328
            1944         68.6776         78.5847         41.7413        -5.13008
            1945         68.1221         77.9957         41.9138        -4.81768
            1946         66.3459         75.8757         42.5680        -4.56413
            1947         65.2361         74.7869         43.4200        -2.86413
            1948         63.1281         72.0713         44.7288        -2.15154
            1949         61.7214         70.1739         45.8689    -47.5995E-03
            1950         59.7531         67.0700         47.5298     511.820E-03
            1951         58.9060         64.6670         48.4506         4.95980
            1952         58.1841         61.2905         49.8262         8.16678
            1953         58.0230         57.9700         51.5418         10.6061
            1954         60.8731         52.4103         53.8906         17.1165
            1955         69.8971         80.3588         45.0931        -2.47002
            1956         69.4220         79.7001         43.4057        -3.77210
            1957         67.7254         77.3871         41.7710        -5.34419
            1958         67.6964         77.1901         41.5261        -5.92940
            1959         65.6101         74.3740         41.7702        -6.70969
            1960         65.1839         73.8897         42.2096        -6.49253
            1961         63.4261         71.5149         43.1422        -6.64709
            1962         61.7801         69.5171         44.9088        -5.45526
            1963         60.6908         68.1940         46.2123        -4.03209
            1964         59.7312         66.8868         47.3373        -2.54243
            1965         58.2635         64.3225         49.0642        -1.39986
            1966         56.8870         61.0722         51.3060         1.56892
            1967         56.3234         57.8475         53.4187         4.56699
            1968         56.6703         53.7541         56.4777         7.48784
            1969         58.1378         50.1368         59.5384         10.1087
            1970         64.1790         43.4122         64.2739         17.2574
            1971         71.7112         36.0630         73.1656         19.3849
            1972         2.94610     38.6741E-03         2.95939    -61.9676E-03
            1973         9.42481    -92.3145E-03         9.37827     15.4451E-03
            1974         15.0233         1.28760         15.6256    -2.99360E-03
            1975         20.1281         3.92166         21.8003    -15.9724E-03
            1976         25.0107         7.43355         27.8848    -21.0731E-03
            1977         29.8237         11.5454         33.8704    -27.8120E-03
            1978         32.2107         13.7800         36.8082    -56.4470E-03
            1979         36.9924         18.3681         42.5816    -25.9435E-03
            1980         41.7367         23.0382         48.1781    -19.7970E-03
            1981         46.4164         27.6566         53.5878    -17.2727E-03
            1982         50.9872         32.1050         58.7918    -21.0160E-03
            1983         55.3850         36.2866         63.7499    -24.7624E-03
            1984         59.5871         40.1520         68.4649    -16.9448E-03
            1985         63.5469         43.6099         72.9111    -12.9934E-03
            1986         67.2269         46.6248         77.0623    -14.4684E-03
            1987         70.6153         49.1961         80.9126    -8.67007E-03
            1988         73.6908         51.2966         84.4430    -4.11976E-03
            1989         76.4489         52.9434         87.6450    -502.087E-06
            1990         78.8763         54.1612         90.4950     2.59786E-03
            1991         80.9819         55.0395         92.9878    -7.98440E-03
            1992         81.9146         55.3651         94.0982    -2.10414E-03
            1993         83.5341         55.8158         96.0357     230.106E-06
            1994         84.8341         56.0710         97.5973     1.61569E-03
            1995         85.8121         56.2077         98.7738     2.17087E-03
            1996         86.4676         56.2903         99.5608     1.88370E-03
            1997         86.7987         56.3636         99.9548    -113.961E-06
            1998         86.8060         56.4504         99.9559     775.954E-06
            1999         86.4851         56.5384         99.5590     1.24201E-03
            2000         85.8475         56.6182         98.7760    -4.96935E-03
            2001         84.8850         56.6341         97.5983    -1.68988E-03
            2002         83.6028         56.5036         96.0378     1.19438E-03
            2003         81.9981         56.1553         94.0975     6.10092E-03
            2004         80.0758         55.5128         91.7945    -4.49935E-03
            2005         78.9852         55.0764         90.4954    -816.701E-06
            2006         76.5634         53.9024         87.6377     1.41924E-03
            2007         73.8175         52.2784         84.4423     6.14256E-03
            2008         70.7444         50.1819         80.9130     10.4892E-03
            2009         67.3525         47.6027         77.0634     15.6555E-03
            2010         63.6602         44.5599         72.9104     15.4091E-03
            2011         59.6856         41.0686         68.4655     19.6099E-03
            2012         55.4662         37.1688         63.7547     30.6398E-03
            2013         51.0327         32.9227         58.7863     22.4604E-03
            2014         46.4367         28.4069         53.5882     20.7580E-03
            2015         41.7249         23.7102         48.1778     24.5390E-03
            2016         36.9482         18.9505         42.5784     40.5836E-03
            2017         32.1463         14.2521         36.8084     31.0259E-03
            2018         29.7447         11.9894         33.8682     27.0133E-03
            2019         24.9327         7.75761         27.8893     21.0750E-03
            2020         20.0566         4.12807         21.7995     13.5653E-03
            2021         14.9672         1.40777         15.6213     1.24809E-03
            2022         9.39306    -40.1041E-03         9.37287    -20.7688E-03
            2023         2.92955     93.3655E-03         2.97084     52.3245E-03
            2024         3.25215         3.23718    -12.5444E-03     75.9931E-03
            2025         10.3667         10.3221    -88.6071E-03    -13.5720E-03
            2026         16.5440         17.1913         1.38122     2.84532E-03
            2027         22.2079         23.9823         4.12797     17.2386E-03
            2028         27.6227         30.6757         7.77044     24.6431E-03
            2029         32.9386         37.2567         12.0022     22.3963E-03
            2030         35.5749         40.4903         14.2478     30.8429E-03
            2031         40.8100         46.8367         18.9240     25.7522E-03
            2032         45.9851         52.9969         23.6480     23.1968E-03
            2033         51.0670         58.9509         28.2785     23.1569E-03
            2034         56.0022         64.6644         32.6913     24.6329E-03
            2035         60.7612         70.1322         36.8047     20.4976E-03
            2036         65.2840         75.3110         40.5179     20.8011E-03
            2037         69.5524         80.1984         43.8002     13.3560E-03
            2038         73.5317         84.7682         46.5868     9.13135E-03
            2039         77.2036         89.0044         48.8679     5.31505E-03
            2040         80.5531         92.8880         50.6484     2.13109E-03
            2041         83.5744         96.4065         51.9459    -1.07236E-03
            2042         86.2629         99.5463         52.8027    -2.05137E-03
            2043         88.6097         102.287         53.3017    -1.11152E-03
            2044         89.6554         103.507         53.4355    -1.86100E-03
            2045         91.4893         105.640         53.5248    -2.65794E-03
            2046         92.9744         107.357         53.4529    -2.72350E-03
            2047         94.0996         108.650         53.3056    -2.43323E-03
            2048         94.8569         109.516         53.1599    -2.14403E-03
            2049         95.2370         109.948         53.0718     124.100E-06
            2050         95.2373         109.949         53.0723     431.065E-06
            2051         94.8566         109.515         53.1569     2.07563E-03
            2052         94.0994         108.650         53.3046     2.96279E-03
            2053         92.9740         107.357         53.4535     2.02170E-03
            2054         91.4892         105.639         53.5252     605.851E-06
            2055         89.6561         103.508         53.4326    -940.386E-06
            2056         87.4771         100.965         53.0975    -759.058E-06
            2057         86.2602         99.5429         52.8101    -1.37728E-03
            2058         83.5742         96.4063         51.9472    -4.08061E-03
            2059         80.5538         92.8888         50.6486    -6.84644E-03
            2060         77.2043         89.0051         48.8693    -10.0861E-03
            2061         73.5330         84.7701         46.5823    -14.6503E-03
            2062         69.5546         80.2011         43.7989    -14.1205E-03
            2063         65.2854         75.3120         40.5302    -18.6945E-03
            2064         60.7595         70.1300         36.8115    -29.4331E-03
            2065         56.0029         64.6651         32.7074    -22.0704E-03
            2066         51.0633         58.9471         28.2939    -20.8158E-03
            2067         45.9834         52.9961         23.6650    -24.9773E-03
            2068         40.8083         46.8372         18.9435    -42.0789E-03
            2069         35.5724         40.4901         14.2614    -31.6898E-03
            2070         32.9382         37.2560         12.0009    -27.5250E-03
            2071         27.6279         30.6795         7.76498    -21.4140E-03
            2072         22.2080         23.9814         4.12535    -13.8946E-03
            2073         16.5340         17.1864         1.39301    -2.32539E-03
            2074         10.3514         10.3150    -72.2988E-03     16.0001E-03
            2075         3.25222         3.23976    -7.51701E-03    -78.1984E-03
            2076         2.93208     93.4350E-03         2.97315    -56.6946E-03
            2077         9.38861    -32.0901E-03         9.37245     21.2060E-03
            2078         14.9701         1.40222         15.6219     246.111E-06
            2079         20.0546         4.13363         21.7993    -17.1278E-03
            2080         24.9274         7.76067         27.8845    -23.5170E-03
            2081         29.7439         11.9895         33.8674    -26.7415E-03
            2082         32.1466         14.2504         36.8085    -28.8573E-03
            2083         36.9487         18.9432         42.5785    -38.4451E-03
            2084         41.7253         23.7058         48.1782    -26.9516E-03
            2085         46.4368         28.4025         53.5885    -25.4059E-03
            2086         51.0345         32.9254         58.7883    -33.3132E-03
            2087         55.4634         37.1713         63.7509    -20.3221E-03
            2088         59.6849         41.0695         68.4645    -17.0591E-03
            2089         63.6580         44.5619         72.9073    -13.2809E-03
            2090         67.3528         47.6032         77.0637    -10.8028E-03
            2091         70.7484         50.1699         80.9202    -9.89028E-03
            2092         73.8184         52.2598         84.4466    -12.5452E-03
            2093         76.5668         53.8965         87.6430    -7.26344E-03
            2094         78.9851         55.0848         90.4940    -3.64581E-03
            2095         81.0769         55.8814         92.9901    -1.05393E-03
            2096         81.9999         56.1542         94.0999    -3.34052E-03
            2097         83.6026         56.5006         96.0378    -1.10493E-03
            2098         84.8847         56.6301         97.5984     993.743E-06
            2099         85.8469         56.6198         98.7750     484.961E-06
            2100         86.4873         56.5460         99.5609     582.777E-06
            2101         86.8049         56.4512         99.9545     50.6090E-06
            2102         86.7985         56.3651         99.9545    -327.528E-06
            2103         86.4673         56.2903         99.5604    -584.773E-06
            2104         85.8124         56.2037         98.7745    -1.21997E-03
            2105         84.8353         56.0663         97.5994    -3.48794E-03
            2106         83.5350         55.8130         96.0370    -2.09881E-03
            2107         81.9139         55.3663         94.0972    -232.054E-06
            2108         79.9706         54.6478         91.7871     1.94452E-03
            2109         78.8786         54.1708         90.4965     2.52749E-03
            2110         76.4464         52.9409         87.6423     1.99946E-03
            2111         73.6910         51.2912         84.4442     5.90586E-03
            2112         70.6171         49.1849         80.9166     12.8811E-03
            2113         67.2280         46.6216         77.0642     10.3732E-03
            2114         63.5447         43.6110         72.9082     16.9600E-03
            2115         59.5869         40.1476         68.4651     19.8101E-03
            2116         55.3892         36.2900         63.7546     32.4065E-03
            2117         50.9824         32.1013         58.7862     21.3030E-03
            2118         46.4161         27.6541         53.5875     19.3066E-03
            2119         41.7366         23.0338         48.1779     20.8821E-03
            2120         36.9897         18.3581         42.5777     23.1429E-03
            2121         32.2129         13.7686         36.8090     24.0069E-03
            2122         29.8194         11.5589         33.8684     23.3371E-03
            2123         25.0146         7.43655         27.8896     20.3753E-03
            2124         20.1296         3.91658         21.8000     16.2694E-03
            2125         15.0247         1.27941         15.6235     11.3986E-03
            2126         9.43626    -101.762E-03         9.38491    -17.3307E-03
            2127         2.94820     32.2649E-03         2.95810     61.6458E-03
            2128         2.94470         2.95798     38.5861E-03     60.9706E-03
            2129         9.42272         9.37733    -90.0450E-03    -17.1880E-03
            2130         15.0214         15.6245         1.28934     3.02507E-03
            2131         20.1256         21.7992         3.92548     17.0908E-03
            2132         25.0070         27.8833         7.44240     23.1592E-03
            2133         29.8172         33.8672         11.5650     25.9621E-03
            2134         32.2114         36.8083         13.7744     28.0984E-03
            2135         36.9895         42.5784         18.3693     37.5440E-03
            2136         41.7367         48.1782         23.0411     26.1593E-03
            2137         46.4168         53.5883         27.6531     24.3238E-03
            2138         50.9838         58.7883         32.0955     32.7735E-03
            2139         55.3836         63.7504         36.2637     18.7295E-03
            2140         59.5795         68.4638         40.0844     14.6171E-03
            2141         63.5315         72.9072         43.5003     11.4166E-03
            2142         67.2094         77.0640         46.4661     9.24962E-03
            2143         70.5928         80.9206         48.9593     8.03117E-03
            2144         73.6554         84.4468         50.9799     11.0888E-03
            2145         76.4018         87.6430         52.5543     5.82562E-03
            2146         78.8239         90.4948         53.6875     2.78774E-03
            2147         80.9238         92.9908         54.4447     4.86351E-03
            2148         81.8501         94.0977         54.7077     2.37580E-03
            2149         83.4665         96.0368         55.0437     371.650E-06
            2150         84.7625         97.5975         55.1800    -1.22481E-03
            2151         85.7380         98.7739         55.1999    -1.54059E-03
            2152         86.3900         99.5602         55.1715    -1.20308E-03
            2153         86.7171         99.9543         55.1457    -61.3178E-06
            2154         86.7171         99.9542         55.1461     222.683E-06
            2155         86.3901         99.5602         55.1719     606.352E-06
            2156         85.7382         98.7744         55.1963     1.42377E-03
            2157         84.7638         97.5995         55.1764     3.75691E-03
            2158         83.4668         96.0373         55.0427     2.45125E-03
            2159         81.8504         94.0973         54.7142     745.212E-06
            2160         79.9133         91.7870         54.1085    -1.52999E-03
            2161         78.8250         90.4964         53.6854    -2.05836E-03
            2162         76.4013         87.6424         52.5537    -1.81392E-03
            2163         73.6549         84.4444         50.9917    -5.73394E-03
            2164         70.5898         80.9167         48.9609    -12.5822E-03
            2165         67.2097         77.0652         46.4604    -10.4412E-03
            2166         63.5327         72.9090         43.4985    -20.7627E-03
            2167         59.5795         68.4647         40.0769    -18.0025E-03
            2168         55.3858         63.7542         36.2519    -31.6921E-03
            2169         50.9814         58.7863         32.0814    -21.5854E-03
            2170         46.4161         53.5876         27.6469    -19.4764E-03
            2171         41.7367         48.1779         23.0339    -21.0463E-03
            2172         36.9895         42.5778         18.3613    -23.3728E-03
            2173         32.2123         36.8089         13.7722    -24.2452E-03
            2174         29.8188         33.8684         11.5621    -23.5681E-03
            2175         25.0141         27.8896         7.43853    -20.4777E-03
            2176         20.1295         21.8001         3.91704    -16.1612E-03
            2177         15.0250         15.6239         1.27971    -11.5246E-03
            2178         9.43598         9.38476    -101.513E-03     17.1003E-03
            2179         2.94893         2.95940     33.4193E-03    -62.6981E-03
            2180         99.0124         111.351         33.2904         1.01637
            2181         98.6488         110.842         32.9653         2.07417
            2182         97.1763         108.772         31.7999         4.45411
            2183         96.0564         107.189         31.0613         5.83169
            2184         93.0371         102.863         29.6191         9.02862
            2185         91.1460         100.102         29.0791         10.8400
            2186         86.6928         93.3823         28.7833         14.7734
            2187         84.2065         89.4519         29.1846         16.8123
            2188         79.0267         80.6078         31.4030         20.7587
            2189         76.5110         75.8001         33.3052         22.5357
            2190         72.1238         65.6794         38.7562         25.3739
            2191         70.6462         60.6624         42.2292         26.3905
            2192         69.2356         50.9083         50.4500         27.2338
            2193         69.4825         46.4101         55.0860         27.0555
            2194         71.8123         38.5642         64.9514         25.5338
            2195         73.7350         35.3490         69.9930         24.2381
            2196         78.5287         30.5339         79.8371         20.8023
            2197         81.1589         28.9557         84.4763         18.7807
            2198         86.3628         27.3587         92.8651         14.4543
            2199         88.7794         27.2429         96.5262         12.2742
            2200         92.9933         28.0322         102.673         8.13303
            2201         94.6890         28.7858         105.097         6.25150
            2202         97.3467         30.5448         108.822         2.89459
            2203         98.2280         31.4369         110.064         1.45753
            2204         99.2501         32.8491         111.490        -1.11978
            2205         99.2446         33.5442         111.487        -3.40046
            2206         98.8795         33.5899         110.971        -4.53792
            2207         97.4187         33.1672         108.874        -7.01893
            2208         96.3290         32.7838         107.291        -8.37856
            2209         93.3885         32.0732         102.953        -11.4798
            2210         91.5835         31.8588         100.198        -13.2304
            2211         87.4066         32.1563         93.5058        -17.0231
            2212         85.1173         32.8267         89.5913        -18.9891
            2213         80.4874         35.5360         80.7828        -22.8053
            2214         78.3594         37.6352         76.0200        -24.5341
            2215         74.9635         43.4558         66.0527        -27.3163
            2216         73.9241         47.1547         61.0204        -28.2555
            2217         73.5550         55.8966         51.3390        -28.9821
            2218         74.2661         60.8053         46.8495        -28.7054
            2219         77.6980         71.2752         39.0906        -27.1719
            2220         80.0613         76.6080         35.9531        -25.8373
            2221         85.5908         87.0617         31.3719        -22.3094
            2222         88.5229         92.0066         29.9530        -20.2468
            2223         94.2284         100.999         28.7578        -15.8711
            2224         96.8508         104.950         28.8808        -13.6931
            2225         101.401         111.636         30.1942        -9.63902
            2226         103.281         114.356         31.2046        -7.84278
            2227         106.215         118.574         33.4623        -4.82683
            2228         107.273         120.097         34.5329        -3.60634
            2229         108.648         122.079         36.1591        -1.61174
            2230         108.984         122.565         36.6034    -780.906E-03
            2231         108.989         122.567         36.5914     782.720E-03
            2232         108.659         122.086         36.1418         1.61680
            2233         107.286         120.107         34.5182         3.59858
            2234         106.217         118.576         33.4596         4.81904
            2235         103.286         114.361         31.2006         7.83715
            2236         101.407         111.642         30.1896         9.63363
            2237         96.8527         104.954         28.8798         13.6891
            2238         94.2282         101.003         28.7599         15.8650
            2239         88.5064         92.0075         29.9699         20.2260
            2240         85.5649         87.1015         31.4415         22.2464
            2241         80.0022         76.4693         36.0009         25.8824
            2242         77.6854         71.2127         39.1538         27.1968
            2243         74.3904         60.7870         46.8602         28.8183
            2244         73.6000         55.8855         51.3268         29.0274
            2245         73.9142         47.1455         61.0251         28.2466
            2246         74.9572         43.4469         66.0629         27.3061
            2247         78.3774         37.6041         76.0489         24.5307
            2248         80.5253         35.4908         80.8277         22.8053
            2249         85.1371         32.8058         89.6082         18.9925
            2250         87.4154         32.1458         93.5113         17.0269
            2251         91.5799         31.8615         100.190         13.2394
            2252         93.3839         32.0765         102.945         11.4914
            2253         96.3187         32.7970         107.281         8.38553
            2254         97.4037         33.1836         108.862         7.01973
            2255         98.8781         33.5982         110.971         4.53979
            2256         99.3707         33.2949         111.661         2.27847
            2257         99.2531         32.8405         111.491         1.12207
            2258         98.2516         31.4101         110.082        -1.45660
            2259         97.3647         30.5177         108.834        -2.88916
            2260         94.7210         28.7673         105.135        -6.20654
            2261         92.9943         28.0244         102.681        -8.09965
            2262         88.7785         27.2477         96.5362        -12.2520
            2263         86.3459         27.3752         92.8602        -14.4368
            2264         81.1151         28.9968         84.4438        -18.7678
            2265         78.5006         30.5634         79.8175        -20.7918
            2266         73.7253         35.3610         69.9896        -24.2307
            2267         71.8017         38.5748         64.9511        -25.5232
            2268         69.4308         46.4294         55.0932        -27.0039
            2269         69.1223         50.9543         50.3974        -27.1392
            2270         70.6782         60.7170         42.1568        -26.4026
            2271         72.2329         65.7667         38.6797        -25.4300
            2272         76.5268         75.7975         33.2888        -22.5548
            2273         79.0229         80.5905         31.4383        -20.7771
            2274         84.1645         89.4170         29.2022        -16.7994
            2275         86.6958         93.3969         28.7969        -14.7586
            2276         91.1489         100.110         29.0802        -10.8267
            2277         93.0403         102.870         29.6195        -9.01556
            2278         96.0590         107.193         31.0606        -5.82444
            2279         97.1826         108.778         31.7937        -4.45302
            2280         98.6520         110.843         32.9584        -2.07882
            2281         99.0131         111.350         33.2860        -1.01890
            2282         98.3989         31.9750         110.398    -857.859E-03
            2283         98.1291         32.6290         109.980         4.38131
            2284         98.6337         32.2858         110.673         1.89779
            2285         98.5060         32.5589         110.481        -3.38546
            2286         90.5266         98.1546         31.7757        -14.9441
            2287         87.7725         94.3613         32.3349         16.3867
            2288         80.5919         86.8395         32.2661         15.4362
            2289         76.3882         81.9277         34.5947        -15.9214
            2290         95.1136         30.6569         106.388        -4.07799
            2291         94.2408         32.9513         104.927        -9.00778
            2292         76.2468         33.2173         81.5472        -16.0106
            2293         86.3740         94.7563         30.9340        -12.3287
            2294         74.4395         40.6740         74.5376         21.3132
            2295         72.3452         73.9183         36.6363        -19.4575
            2296         96.8356         108.446         31.6214        -3.90890
            2297         92.3543         29.8514         102.775        -6.91479
            2298         81.8225         35.6069         87.2325         17.5466
            2299         64.7694         57.0660         47.5911        -21.5210
            2300         63.8523         48.5630         56.0492        -20.8099
            2301         74.2812         77.8641         35.3622        -17.8684
            2302         88.0720         29.6613         97.2433        -10.0829
            2303         76.8073         38.5778         78.9483         20.1985
            2304         84.3289         34.6394         91.0310         16.1049
            2305         90.6322         100.475         30.8870         9.45652
            2306         86.7240         33.9694         94.5336         14.6262
            2307         69.5266         49.1520         61.3248         23.6046
            2308         79.3946         31.7949         85.9155        -14.6377
            2309         67.0736         41.4944         64.4094        -20.8257
            2310         92.7663         33.0950         102.963         10.2708
            2311         108.153         121.077         34.3113        -2.19525
            2312         88.8102         97.9804         30.7189        -10.8521
            2313         96.3952         31.0995         108.028         2.18884
            2314         85.4131         30.0153         93.8175        -11.6721
            2315         90.3936         29.6327         100.238        -8.47638
            2316         82.4978         30.7296         90.0380        -13.1853
            2317         95.6801         32.7013         106.888         7.20090
            2318         89.6102         30.0433         99.4676         8.60067
            2319         88.9466         33.5402         97.6981         13.1459
            2320         70.7961         64.8467         45.8484         23.6505
            2321         65.2962         44.7789         60.1698        -21.0743
            2322         97.7303         109.573         31.8300        -2.54554
            2323         74.2886         34.0490         77.5240         18.1576
            2324         62.6893         53.1292         51.9767        -19.7242
            2325         85.9352         94.2477         31.0946         12.4626
            2326         84.5605         89.7104         33.3107        -18.0853
            2327         83.6856         91.1826         31.4546        -13.7565
            2328         72.3674         43.1394         70.0965         22.2593
            2329         69.1077         38.6817         68.7203        -20.1274
            2330         66.5179         61.1736         44.0626        -21.8813
            2331         79.3048         36.8937         83.2025         18.9305
            2332         74.9467         78.4751         34.8590         18.0655
            2333         98.5742         108.859         31.7350        -10.2313
            2334         69.3848         38.4729         68.8040         20.3894
            2335         107.096         119.703         33.7031         3.62140
            2336         68.3289         57.0372         52.9107        -23.3376
            2337         91.2183         33.1169         100.728        -11.7442
            2338         97.5861         31.4242         109.414    -872.811E-03
            2339         93.8260         30.4419         104.804         5.26484
            2340         108.581         121.600         34.4193         1.14545
            2341         78.5601         37.5323         82.7509        -18.4493
            2342         98.7039         108.972         31.6351         10.2327
            2343         86.8715         33.8944         94.6979        -14.6042
            2344         64.7053         55.6100         48.6964         21.8401
            2345         69.2015         56.4692         52.9679         24.3962
            2346         75.6571         39.5377         78.1429        -19.5281
            2347         98.2961         110.291         32.0331         1.26049
            2348         64.3547         51.6694         52.3374         21.8849
            2349         68.9472         52.9136         56.8031        -24.0342
            2350         67.3688         41.2937         64.4606         21.1347
            2351         70.5857         46.2744         65.1945        -23.1484
            2352         100.905         111.849         32.0553        -8.74525
            2353         87.5920         94.0571         32.3384        -16.5481
            2354         70.5237         66.6374         45.0249        -22.4065
            2355         73.1049         71.2423         41.6560        -22.3704
            2356         84.2731         34.7350         91.0610        -15.9825
            2357         87.3384         30.0195         96.4886         10.2194
            2358         108.771         121.858         34.5810     23.0104E-03
            2359         79.6271         31.3966         85.7975         15.1357
            2360         84.6025         90.0723         33.4663         17.6913
            2361         97.0799         32.6433         108.616        -5.97388
            2362         82.2511         30.6934         89.6014         13.4773
            2363         81.2155         85.7103         35.1806         18.5055
            2364         93.4902         102.147         31.4849         13.3073
            2365         84.7806         30.2828         93.1082         11.8482
            2366         96.1788         105.690         31.4565         11.7620
            2367         96.0680         105.598         31.5449        -11.7481
            2368         69.0517         52.6403         57.0671         24.1144
            2369         64.7209         47.9996         56.1314         21.8203
            2370         69.6322         49.3590         60.9323        -23.8547
            2371         77.7768         82.7522         33.3606         16.8231
            2372         65.3973         59.7731         45.4913         21.2421
            2373         73.0212         73.3147         41.1921         20.6578
            2374         97.8017         109.665         31.8944         2.52638
            2375         108.013         120.864         34.0837         2.35445
            2376         71.8980         69.0881         43.1557         22.4743
            2377         89.1998         33.3787         97.9324        -13.1727
            2378         76.9540         32.4991         81.7577         16.7179
            2379         81.4766         35.9433         87.0820        -17.2555
            2380         69.8295         60.5483         49.2020         24.2784
            2381         108.627         121.683         34.5453        -1.07190
            2382         88.3891         97.5246         30.8928         10.9546
            2383         65.7692         44.4955         60.2050         21.6021
            2384         67.7746         61.9290         49.2875        -21.4574
            2385         98.2779         110.265         31.9995        -1.23265
            2386         98.4549         110.492         32.0716     21.4376E-03
            2387         22.1984         9.46055         25.1205        -1.81489
            2388         61.5537         40.9802         70.7028        -1.63397
            2389         24.4777         27.6033         9.60629         1.83479
            2390         67.4367         77.7640         41.0539         1.58773
            2391         86.6824         54.4158         99.9610     44.6683E-03
            2392         86.6271         99.9602         53.1782    -5.36241E-03
            2393         59.7544         40.5129         68.5365        -1.69855
            2394         59.5639         68.4483         39.3462         1.60722
            2395         27.3883         31.1743         12.7680         2.10511
            2396         22.2233         25.1529         9.62834         1.88695
            2397         27.3496         13.3977         31.1871        -2.13714
            2398         22.2379         10.1423         25.2360        -1.89312
            2399         19.5840         8.31052         22.1660        -1.56514
            2400         24.8063         11.7265         28.2155        -2.04910
            2401         29.8597         15.2162         34.1269        -2.21413
            2402         32.3799         17.2137         37.0689        -2.31939
            2403         19.5892         22.1020         7.86401         1.54989
            2404         24.8230         28.1711         11.1552         2.03207
            2405         29.8993         34.1255         14.5384         2.17458
            2406         32.4116         37.0725         16.4858         2.27552
            2407         5.93332         6.81147         3.99947     132.563E-03
            2408         6.00184         4.38551         6.83272    -147.865E-03
            2409         3.77675         3.91316         3.55726     246.846E-03
            2410         3.61411         3.56389         3.60778    -239.564E-03
            2411         16.9290         19.0342         6.29134         1.21921
            2412         11.5020         12.9816         4.39216     706.819E-03
            2413         16.9613         6.76240         19.1482        -1.26344
            2414         11.5618         5.02556         13.1364    -789.946E-03
            2415         8.78832         4.84345         10.0909    -524.031E-03
            2416         14.3332         5.63512         16.1784        -1.01841
            2417         8.68026         9.93188         4.08917     445.699E-03
            2418         14.2448         15.9938         5.10231     946.001E-03
            2419         5.94989         6.85441         3.77116    -120.895E-03
            2420         11.5073         12.8970         3.89179    -613.017E-03
            2421         16.8250         18.9233         6.30609        -1.23194
            2422         22.1767         25.0782         9.06043        -1.63480
            2423         27.3077         31.0907         12.4534        -1.93047
            2424         34.7273         39.8174         18.1631        -2.15017
            2425         39.4991         45.4080         22.1147        -2.11488
            2426         44.1467         50.8062         26.1264        -2.03802
            2427         48.6789         56.0065         30.1076        -2.05365
            2428         53.1637         61.1001         33.9447        -2.23092
            2429         57.4090         65.9626         37.4787        -2.02256
            2430         61.4441         70.5859         40.7239        -1.74260
            2431         65.0959         74.7713         43.5419        -1.47400
            2432         68.5252         78.7270         45.8232        -1.35666
            2433         71.7948         82.5077         48.0084        -1.03649
            2434         74.6909         85.8678         49.7977    -743.078E-03
            2435         77.2406         88.8756         50.8291    -606.543E-03
            2436         80.6292         92.8623         52.1946    -308.597E-03
            2437         82.4305         94.9889         52.7409    -170.048E-03
            2438         83.9219         96.7663         52.8624    -83.3227E-03
            2439         85.1210         98.2038         52.6512    -24.7845E-03
            2440         86.0016         99.2298         52.9875     8.35773E-03
            2441         86.5022         99.8119         53.1954     9.54494E-03
            2442         86.6683         100.007         53.2276     113.967E-06
            2443         86.5056         99.8195         53.1129    -9.49992E-03
            2444         86.0163         99.2428         53.0793    -7.88112E-03
            2445         85.2118         98.2868         53.1231     15.8517E-03
            2446         84.0897         96.9504         53.1152     66.1323E-03
            2447         82.6342         95.2354         52.7158     162.318E-03
            2448         79.7728         91.8697         51.6914     417.906E-03
            2449         77.4833         89.1498         51.0525     557.359E-03
            2450         74.8834         86.1090         49.7289     796.415E-03
            2451         71.8665         82.6139         47.7679         1.19062
            2452         68.5934         78.8013         45.9434         1.29288
            2453         65.1530         74.8359         43.6607         1.37000
            2454         61.4832         70.6385         40.8897         1.50663
            2455         57.5965         66.2031         37.7267         1.71514
            2456         53.5188         61.5279         34.2774         2.05399
            2457         49.2107         56.5850         30.5901         2.23725
            2458         44.5815         51.2807         26.5624         2.18878
            2459         39.9067         45.8195         22.6576         2.44332
            2460         34.9672         40.0496         18.5980         2.42870
            2461         5.98295         3.80407         6.89131     126.215E-03
            2462         8.62985         3.98076         9.86696    -427.548E-03
            2463         16.8432         6.35950         18.9496         1.24789
            2464         11.5206         3.92060         12.9167     619.300E-03
            2465         14.2392         5.01138         15.9728    -922.874E-03
            2466         22.1853         9.07852         25.0891         1.64113
            2467         19.5632         7.74431         22.0636        -1.50665
            2468         27.3163         12.4581         31.1008         1.92997
            2469         24.7788         10.9110         28.1227        -1.90600
            2470         34.7329         18.1638         39.8246         2.14598
            2471         32.2972         16.2184         36.9619         2.10959
            2472         29.6896         14.3626         33.8831        -2.14222
            2473         39.4977         22.1143         45.4068         2.11254
            2474         37.4405         20.4907         42.9750        -2.28422
            2475         44.1420         26.1302         50.8007         2.03764
            2476         42.0406         24.2791         48.3756        -2.02082
            2477         48.6743         30.1230         55.9999         2.05653
            2478         46.4827         28.1794         53.5025        -1.97574
            2479         53.1521         33.9706         61.0803         2.25673
            2480         51.0070         32.1517         58.6322        -2.26349
            2481         57.4442         37.5487         65.9886         2.09912
            2482         55.4285         35.8906         63.6855        -2.16369
            2483         61.5121         40.9003         70.6530         1.71116
            2484         59.6081         39.4075         68.4826        -1.73621
            2485         65.1818         43.8033         74.8511         1.41216
            2486         63.4713         42.4313         72.8940        -1.59565
            2487         67.1066         45.1058         77.0637        -1.41093
            2488         70.4166         47.5682         80.8645        -1.04492
            2489         73.3960         49.5295         84.3060    -804.770E-03
            2490         76.0979         50.8652         87.4730    -689.647E-03
            2491         78.4912         51.7922         90.3016    -570.704E-03
            2492         80.8598         52.5147         93.1114    -405.325E-03
            2493         81.8133         53.1484         94.2100    -285.202E-03
            2494         83.4071         53.8733         96.0736    -153.670E-03
            2495         84.6753         54.0968         97.5823    -92.0516E-03
            2496         59.8470         40.5587         68.6360         1.78311
            2497         55.8388         37.1989         64.0547         2.15820
            2498         53.6379         35.3596         61.5654        -2.10924
            2499         57.7756         38.8671         66.2841        -1.83042
            2500         85.6402         54.1037         98.7375    -59.0008E-03
            2501         86.3078         54.0487         99.5369    -45.8846E-03
            2502         86.6597         54.1376         99.9505    -44.9855E-03
            2503         86.6765         54.3003         99.9609    -47.2140E-03
            2504         86.3629         54.2301         99.5918    -46.9058E-03
            2505         85.6260         54.1977         98.7143    -18.0858E-03
            2506         84.6733         54.6456         97.5365     30.8982E-03
            2507         83.3921         54.4564         96.0038     109.061E-03
            2508         81.7951         53.8046         94.1261     251.479E-03
            2509         79.5382         52.7876         91.4756     511.049E-03
            2510         78.4282         52.6321         90.1317     557.123E-03
            2511         75.8730         50.9139         87.1784         1.00196
            2512         73.6424         50.7341         84.4524     745.256E-03
            2513         70.6520         48.7195         81.0016         1.03395
            2514         67.3186         46.2924         77.1725         1.37930
            2515         63.6899         43.6039         73.0157         1.59041
            2516         51.4595         33.4743         59.1035         2.06297
            2517         49.2539         31.5702         56.5616        -2.28896
            2518         46.9649         29.4943         54.0032         2.01885
            2519         44.6024         27.4695         51.2623        -2.24503
            2520         42.3635         25.4932         48.6938         2.23927
            2521         39.9018         23.5068         45.7995        -2.48929
            2522         37.6794         21.7666         43.1791         2.66961
            2523         34.9477         19.3784         40.0426        -2.47443
            2524         32.4553         17.3475         37.1442         2.38621
            2525         29.8862         15.2313         34.1588         2.20994
            2526         24.8027         11.4011         28.2200         1.87605
            2527         19.6607         8.19444         22.2451         1.50944
            2528         14.3270         5.88673         16.2020         1.07725
            2529         8.75817         4.75338         10.0559     512.964E-03
            2530         3.84992         4.00615         3.60869    -239.815E-03
            2531         89.5402         103.390         51.1268     117.555E-03
            2532         86.2498         99.5866         50.5408    -342.343E-03
            2533         32.9668         37.5412         14.8726        -2.20706
            2534         6.46837         7.46250         3.84362    -139.742E-03
            2535         61.7043         42.1090         70.7549        -1.57213
            2536         65.3849         44.9577         74.9522        -1.39463
            2537         68.8194         47.3147         78.9024        -1.30294
            2538         72.0841         49.2073         82.7050        -1.20126
            2539         75.0895         51.1759         86.1869    -811.731E-03
            2540         77.6664         52.5555         89.2028    -560.402E-03
            2541         79.8789         53.3384         91.8337    -401.552E-03
            2542         80.8908         53.5515         93.0492    -333.193E-03
            2543         82.7027         54.0256         95.2078    -179.802E-03
            2544         84.1709         54.4373         96.9479    -64.5577E-03
            2545         85.2949         54.3575         98.3066     396.556E-06
            2546         86.0949         54.3568         99.2639     36.3907E-03
            2547         86.5686         54.4041         99.8262     45.7292E-03
            2548         86.7197         54.4197         100.005     41.8246E-03
            2549         86.5487         54.3298         99.8070     38.9025E-03
            2550         86.0394         54.0393         99.2179     50.1360E-03
            2551         85.1587         53.5964         98.1953     94.2956E-03
            2552         83.9731         53.6948         96.7693     143.498E-03
            2553         82.4926         53.4523         95.0051     224.927E-03
            2554         80.6815         52.7559         92.8739     369.259E-03
            2555         79.6165         52.2324         91.6291     477.863E-03
            2556         77.2837         51.2459         88.8830     663.876E-03
            2557         74.7251         50.1416         85.8684     785.049E-03
            2558         71.8214         48.2730         82.5071         1.07694
            2559         68.5689         46.0567         78.7520         1.37343
            2560         80.8170         93.1127         51.8997     343.836E-03
            2561         79.5731         91.6237         51.7443    -411.078E-03
            2562         32.2897         36.9525         16.2179        -2.11429
            2563         9.73817         11.0273         3.76497     436.755E-03
            2564         15.8093         17.6046         4.93150     914.566E-03
            2565         21.5836         24.2269         7.76019         1.49401
            2566         27.3503         30.9463         11.3134         2.03983
            2567         32.7754         37.3206         14.5456         2.05548
            2568         40.6474         46.6064         20.4171         2.21813
            2569         45.8158         52.6775         24.4732         2.19189
            2570         50.9333         58.6261         28.5940         2.30347
            2571         55.9150         64.4100         32.5057         2.22991
            2572         60.7457         70.0066         36.1662         2.08154
            2573         65.2730         75.2518         39.4727         1.82774
            2574         69.4930         80.1454         42.5005         1.40506
            2575         73.3549         84.6153         44.9797         1.15348
            2576         76.8836         88.7064         46.9509     951.435E-03
            2577         80.1665         92.5175         48.6167     707.951E-03
            2578         83.1970         96.0415         49.7227     537.592E-03
            2579         85.9060         99.1903         50.1491     412.275E-03
            2580         88.4450         102.126         50.8761     196.312E-03
            2581         91.4220         105.553         51.3785     11.0561E-03
            2582         92.9387         107.286         51.4254    -46.0314E-03
            2583         94.0977         108.600         51.3296    -65.3252E-03
            2584         94.8957         109.495         51.1045    -56.3640E-03
            2585         95.2999         109.952         51.0965    -21.9483E-03
            2586         95.3135         109.968         51.1173     19.4471E-03
            2587         94.9573         109.558         50.9537     57.6224E-03
            2588         94.1856         108.699         51.3002     65.5581E-03
            2589         93.0667         107.435         51.5427     46.7189E-03
            2590         91.6003         105.758         51.4555    -3.03222E-03
            2591         89.7513         103.631         50.9824    -115.338E-03
            2592         87.4820         101.014         50.7586    -261.967E-03
            2593         83.5680         96.4728         49.8307    -519.900E-03
            2594         80.5759         92.9948         48.7118    -717.835E-03
            2595         77.2578         89.1411         47.1124    -950.636E-03
            2596         73.5948         84.8925         44.9685        -1.26375
            2597         69.6357         80.3073         42.5281        -1.47781
            2598         65.4776         75.4991         39.6944        -1.67864
            2599         61.1413         70.4664         36.4690        -2.04916
            2600         56.4284         65.0347         32.9248        -1.98949
            2601         51.5807         59.4246         29.0676        -1.97353
            2602         46.5884         53.5783         25.1069        -2.21111
            2603         41.4480         47.4821         21.3463        -2.66356
            2604         35.7720         40.8371         16.9755        -2.38263
            2605         24.5892         27.7065         9.34264        -1.68734
            2606         18.8448         21.0995         6.51693        -1.28695
            2607         12.7750         14.3807         4.69989    -794.929E-03
            2608         5.87546         3.92430         6.75009    -121.846E-03
            2609         11.4820         4.26703         12.9403    -681.952E-03
            2610         16.9097         6.18410         18.9991        -1.18631
            2611         27.2493         12.4443         31.0205        -1.95110
            2612         32.5196         17.3137         37.0445        -2.99122
            2613         35.0995         18.8251         40.1743        -2.57576
            2614         39.7579         22.3383         45.7106        -2.10809
            2615         44.2669         26.2260         50.9540        -1.98058
            2616         48.7407         30.1882         56.0707        -2.08758
            2617         53.2406         34.0315         61.1646        -2.36879
            2618         57.5592         37.6916         66.1373        -1.92185
            2619         65.3274         43.7497         75.0216        -1.58819
            2620         68.8162         46.3979         79.0261        -1.21470
            2621         71.9401         48.6156         82.6199    -908.413E-03
            2622         74.7873         50.2839         85.9298    -735.383E-03
            2623         77.3149         51.3173         88.9141    -644.248E-03
            2624         79.6617         51.5509         91.7430    -619.072E-03
            2625         82.6533         53.5879         95.1876    -206.016E-03
            2626         84.0802         54.0317         96.8719    -117.803E-03
            2627         85.1943         54.1154         98.2033    -72.8340E-03
            2628         86.0080         54.0874         99.1775    -51.3972E-03
            2629         86.5181         53.9724         99.7915    -46.0343E-03
            2630         86.7123         54.2691         100.005    -44.9666E-03
            2631         86.5564         54.2518         99.8209    -47.9413E-03
            2632         86.0150         53.5746         99.2159    -46.5890E-03
            2633         85.1850         54.5096         98.1632     4.22725E-03
            2634         84.0812         54.6314         96.8225     62.0445E-03
            2635         82.6401         54.1440         95.1206     175.918E-03
            2636         80.6552         52.7039         92.8451     462.465E-03
            2637         77.3100         52.4167         88.7799     577.099E-03
            2638         74.8296         50.1903         85.9705         1.20591
            2639         72.1886         49.7777         82.7723     881.823E-03
            2640         69.0273         47.5598         79.1336         1.19594
            2641         65.5502         44.9550         75.1454         1.54959
            2642         61.7821         42.1303         70.8402         1.65829
            2643         57.8487         38.8954         66.3528         1.97905
            2644         53.6850         35.3887         61.6169         2.13035
            2645         49.2243         31.5024         56.5742         2.01733
            2646         44.6745         27.4754         51.3747         2.08910
            2647         40.0356         23.6174         45.9571         2.47620
            2648         35.0889         19.5886         40.1839         2.57653
            2649         27.3427         13.2427         31.1898         2.04033
            2650         22.2495         9.70175         25.2424         1.69648
            2651         17.0265         6.90011         19.2331         1.30199
            2652         11.5622         5.16464         13.1499     817.507E-03
            2653         6.06406         4.51005         6.88506     160.998E-03
            2654         6.60956         7.62593         3.83966     150.595E-03
            2655         12.8435         14.3370         4.09993     677.706E-03
            2656         18.6877         20.8745         6.16749         1.18172
            2657         30.1316         34.2041         13.0046         2.13591
            2658         35.3751         40.3827         16.5250         2.22744
            2659         38.0088         43.4916         18.4412         2.24446
            2660         43.2452         49.6646         22.4292         2.19354
            2661         48.3818         55.6680         26.5447         2.23139
            2662         53.4377         61.5222         30.5723         2.36744
            2663         58.3499         67.2372         34.3766         2.12162
            2664         63.0511         72.6679         37.8206         2.06237
            2665         71.4625         82.4245         43.8099         1.26292
            2666         75.1692         86.7178         46.0243         1.05283
            2667         78.5509         90.6415         47.8261     827.278E-03
            2668         81.7189         94.3218         49.2604     611.163E-03
            2669         84.5906         97.6631         49.9762     481.473E-03
            2670         87.2208         100.712         50.5177     300.100E-03
            2671         90.5301         104.529         51.2885     56.9878E-03
            2672         92.2254         106.472         51.4242    -22.7821E-03
            2673         93.5623         107.995         51.3948    -59.8733E-03
            2674         94.5435         109.102         51.2244    -64.0208E-03
            2675         95.1502         109.778         51.0066    -43.1289E-03
            2676         95.3529         110.014         51.1399    -1.33817E-03
            2677         95.1835         109.817         51.0201     39.3566E-03
            2678         94.6206         109.184         51.1041     66.1668E-03
            2679         93.6674         108.116         51.4508     59.5532E-03
            2680         92.3771         106.648         51.5500     26.7453E-03
            2681         90.7242         104.751         51.2455    -49.3455E-03
            2682         88.6564         102.370         50.8848    -186.352E-03
            2683         84.9451         98.0726         50.2386    -427.500E-03
            2684         82.1118         94.7801         49.3293    -615.175E-03
            2685         78.9595         91.1168         47.9778    -827.491E-03
            2686         75.4683         87.0650         46.1018        -1.09789
            2687         71.6630         82.6526         43.7437        -1.43194
            2688         67.5674         77.9165         41.1696        -1.55226
            2689         63.3196         72.9960         38.1061        -1.86872
            2690         58.8173         67.7873         34.7481        -2.03378
            2691         54.0189         62.2526         31.0228        -1.95746
            2692         49.1039         56.5351         27.0820        -2.05124
            2693         44.0364         50.5539         23.2160        -2.46204
            2694         38.6343         44.1861         19.1924        -2.57444
            2695         30.1868         34.2696         12.8964        -2.03907
            2696         27.4063         31.0013         11.0451        -1.86553
            2697         21.7498         24.4158         7.81902        -1.49329
            2698         15.8589         17.7591         5.47328        -1.05886
            2699         9.61266         10.9550         4.17826    -485.023E-03
            2700         37.4955         21.5674         42.9804        -2.60912
            2701         42.2546         25.4484         48.5478        -2.33894
            2702         46.9132         29.5082         53.9049        -2.23703
            2703         51.5096         33.5254         59.1211        -2.31211
            2704         55.7487         37.1546         63.9782        -1.94341
            2705         63.5825         43.5957         72.8940        -1.46874
            2706         67.1282         46.2017         76.9513        -1.33827
            2707         70.4833         48.3040         80.8360        -1.27235
            2708         73.6280         50.2282         84.4934        -1.00508
            2709         76.4318         51.9501         87.7518    -668.657E-03
            2710         78.8099         53.0161         90.5572    -473.672E-03
            2711         81.8372         53.7124         94.1864    -262.980E-03
            2712         83.4804         54.2898         96.1261    -113.156E-03
            2713         84.7685         54.4498         97.6672    -29.1117E-03
            2714         85.7320         54.2488         98.8376     22.3717E-03
            2715         86.3743         54.4072         99.5943     44.8276E-03
            2716         86.6751         54.3976         99.9535     39.3342E-03
            2717         86.3382         54.2161         99.5631     41.8560E-03
            2718         85.6442         53.8014         98.7615     68.6787E-03
            2719         84.6053         53.6415         97.5312     117.274E-03
            2720         83.2713         53.6342         95.9297     177.815E-03
            2721         81.6348         53.1679         93.9922     286.359E-03
            2722         78.4643         51.6445         90.2831     599.585E-03
            2723         76.0492         50.7848         87.4217     713.009E-03
            2724         73.3325         49.3028         84.2511     903.007E-03
            2725         70.2326         47.1249         80.6776         1.27983
            2726         66.8696         44.9075         76.7930         1.44539
            2727         63.4029         42.3867         72.8159         1.58826
            2728         59.5223         39.2767         68.3760         1.87577
            2729         55.3145         35.7513         63.5376         2.31437
            2730         50.9181         32.0792         58.5489         2.14490
            2731         46.4213         28.1379         53.4235         2.02891
            2732         41.8362         24.1185         48.1305         2.06991
            2733         37.1313         20.1244         42.6396         2.13706
            2734         29.8305         14.3111         34.0595         2.03537
            2735         24.7794         10.7141         28.1209         1.80101
            2736         19.5473         7.65007         22.0381         1.47064
            2737         14.1180         5.14831         15.8668     956.015E-03
            2738         8.72964         3.68128         9.93845     394.703E-03
            2739         37.5119         43.0019         20.7459         2.56254
            2740         42.2500         48.5700         24.5742         2.28766
            2741         46.8869         53.9327         28.5728         2.17949
            2742         51.4334         59.1207         32.4886         2.26385
            2743         55.5903         63.9097         36.0350         1.85260
            2744         63.3492         72.7700         42.3343         1.42784
            2745         66.8977         76.8418         44.8659         1.32483
            2746         70.2584         80.7374         46.8909         1.26519
            2747         73.4182         84.4119         48.7832     992.095E-03
            2748         76.2304         87.6785         50.4825     657.771E-03
            2749         78.6549         90.5375         51.4422     483.754E-03
            2750         81.7609         94.2160         52.3197     245.964E-03
            2751         83.4063         96.1418         52.9843     105.760E-03
            2752         84.6885         97.6627         53.1474     37.4999E-03
            2753         85.6511         98.8102         53.0815     1.29128E-03
            2754         86.3035         99.5822         53.0819    -11.0534E-03
            2755         86.6261         99.9565         53.2360     5.57168E-03
            2756         86.2959         99.5716         53.1188     11.0124E-03
            2757         85.6084         98.7733         52.8029    -3.77229E-03
            2758         84.5608         97.5340         52.7499    -51.7160E-03
            2759         83.2133         95.9195         52.8580    -121.546E-03
            2760         81.5746         93.9755         52.5297    -230.145E-03
            2761         78.4197         90.2733         51.2065    -530.952E-03
            2762         76.0117         87.4198         50.4027    -664.772E-03
            2763         73.3032         84.2525         49.0008    -862.272E-03
            2764         70.2043         80.6731         46.8853        -1.24458
            2765         66.7998         76.7360         44.6486        -1.46716
            2766         63.2882         72.6982         42.1096        -1.67662
            2767         59.4654         68.3235         39.1740        -1.82032
            2768         55.3207         63.5568         35.7171        -2.25607
            2769         50.9252         58.5603         32.0578        -2.13498
            2770         46.4261         53.4295         28.1293        -2.02857
            2771         41.8396         48.1341         24.1177        -2.07176
            2772         37.1295         42.6367         20.1253        -2.14138
            2773         29.8173         34.0437         14.3072        -2.03930
            2774         24.7669         28.1062         10.7017        -1.79814
            2775         19.5339         22.0194         7.60952        -1.45754
            2776         14.0989         15.8392         5.10247    -945.202E-03
            2777         8.71364         9.91826         3.65948    -391.018E-03
            2778         73.7071         34.5721         77.3803        -17.5594
            2779         73.5947         41.3997         73.8551        -20.8586
            2780         71.8895         76.9826         37.5073         15.5177
            2781         97.6562         31.9149         109.500         2.74438
            2782         97.6693         31.8047         109.533        -2.15552
            2783         87.7201         96.1913         34.1666         13.6775
            2784         78.6333         86.2657         34.5307        -13.2649
            2785         95.1774         32.4548         106.577         5.93735
            2786         96.1077         32.3474         107.600        -5.57286
            2787         95.6786         31.2644         107.372         1.30455
            2788         96.5255         31.2796         108.274    -872.268E-03
            2789         93.4834         31.1451         104.788         4.17649
            2790         93.1600         31.2970         104.512        -3.97949
            2791         92.1977         33.4336         102.875         8.92127
            2792         92.4687         33.3217         103.332        -8.28197
            2793         85.6088         31.5189         95.1747        -9.60910
            2794         84.5711         35.5728         92.8762        -13.7203
            2795         95.7770         107.101         31.4497        -5.22044
            2796         81.5855         85.2364         34.6677        -19.5283
            2797         107.295         119.979         33.8949        -3.41507
            2798         75.9946         77.2780         38.5964         20.7866
            2799         65.9318         64.2662         43.0293         19.4136
            2800         19.7651         10.9735         22.1461        -2.75747
            2801         21.5548         24.2415         10.7927         2.71459
            2802         86.6109         52.4258         99.9698     88.0917E-03
            2803         86.5886         99.9726         51.2837    -6.31281E-03
            2804         59.9458         40.2054         68.5815        -3.21174
            2805         59.6091         68.3532         38.8140         3.03418
            2806         59.7248         38.9269         68.4511        -3.20315
            2807         65.5058         75.3215         38.8657         3.39398
            2808         20.0434         11.9302         22.3946        -2.89029
            2809         19.8625         22.2293         11.1668         2.82296
            2810         67.9381         39.1947         71.5734        -15.9363
            2811         68.4593         38.7520         71.8591         16.3901
            2812         69.3454         45.2748         69.5661         18.8779
            2813         68.4868         46.2567         68.2104        -18.7376
            2814         70.0672         37.6780         75.3259        -14.7639
            2815         71.5377         42.9398         73.6113         18.4034
            2816         70.9611         36.8852         75.7268         15.6377
            2817         69.9246         44.3442         71.9889        -17.6345
            2818         97.3016         109.078         31.3167        -1.27439
            2819         97.3227         109.101         31.3398         1.39073
            2820         70.2630         75.0446         38.6178        -15.4047
            2821         82.7286         32.2862         91.7672        -10.6961
            2822         81.4879         87.9650         35.9334        -16.0428
            2823         81.6951         36.6564         89.0113         14.9467
            2824         96.6397         108.293         31.2904        -2.66254
            2825         65.8276         53.7200         57.9127         20.0385
            2826         96.7287         108.392         31.3416         2.73960
            2827         107.380         119.950         33.1148        -2.44894
            2828         62.1662         46.3675         60.7750        -16.7239
            2829         61.3797         49.2402         57.1285         17.2456
            2830         107.811         120.444         33.0562         1.30228
            2831         79.1211         37.8023         85.3951         15.9890
            2832         81.7483         36.7625         89.3097        -14.5869
            2833         78.6700         85.0539         37.6129         15.6971
            2834         84.1678         32.1875         93.6921         9.75855
            2835         79.5834         33.3576         88.0456        -11.6297
            2836         107.065         119.543         32.8684         2.66729
            2837         107.931         120.606         33.1850        -1.20938
            2838         81.2212         32.9234         90.1128         10.9460
            2839         78.6663         33.5146         86.7470         12.2123
            2840         108.076         120.771         33.1622     28.0581E-03
            2841         78.7022         38.2655         85.4314        -15.2789
            2842         61.3233         55.5901         50.7548         17.4710
            2843         97.5107         109.326         31.3331     62.8121E-03
            2844         67.2979         48.5532         64.4896        -19.5266
            2845         65.8061         41.2394         67.8727        -16.5537
            2846         84.2228         93.0736         32.6642        -11.6047
            2847         93.4617         103.280         33.2011         11.4746
            2848         83.3067         92.0317         32.9972         11.8061
            2849         93.2613         103.097         33.3152        -11.4530
            2850         88.4508         98.4023         32.0267         9.42189
            2851         98.7037         109.632         32.8678        -9.06044
            2852         98.8422         109.736         32.7603         9.11903
            2853         89.0894         99.0551         31.7667        -9.35497
            2854         90.1139         30.9310         100.598        -7.19754
            2855         89.1121         34.1442         98.6938        -11.6118
            2856         92.7283         31.1096         103.873        -4.92174
            2857         92.1178         31.1742         103.179         5.30377
            2858         91.9160         33.5078         102.447        -9.36712
            2859         90.4504         33.9378         100.669         10.1931
            2860         94.5038         32.6496         105.780        -6.56440
            2861         93.2710         33.0555         104.299         7.66188
            2862         95.0197         31.2338         106.629        -2.14804
            2863         94.2625         31.2283         105.760         3.04255
            2864         65.1428         56.9734         54.8456        -19.2728
            2865         60.7213         49.4224         57.4834        -16.1362
            2866         65.9596         56.9471         54.3547         20.4010
            2867         91.0141         31.8525         102.283        -4.66164
            2868         90.3075         34.0721         101.071        -8.61863
            2869         75.6234         79.7572         38.9497        -17.7681
            2870         67.1369         68.7310         41.0462        -17.5098
            2871         82.7918         36.8504         91.6483        -12.5751
            2872         81.8887         37.2389         90.5424         12.8167
            2873         81.7486         33.9347         91.7000         8.83515
            2874         83.7164         33.0166         93.6928        -8.82073
            2875         63.7380         65.6720         44.1296         15.2794
            2876         70.8973         74.4367         42.5357         16.7585
            2877         94.1702         105.337         31.4621        -5.67095
            2878         104.499         116.541         32.7754        -5.28253
            2879         79.9665         87.9496         37.7635         13.5979
            2880         79.0965         86.6492         37.9746        -14.1016
            2881         68.4627         75.2341         40.4676        -12.0261
            2882         69.6145         75.9402         39.5117         13.1482
            2883         75.5571         81.6163         39.4655         15.3965
            2884         69.0690         73.0413         39.3978         15.9266
            2885         66.0089         53.8097         57.6923        -20.3117
            2886         19.9273         13.3567         21.6343        -3.63379
            2887         20.1007         21.8072         13.4864         3.68335
            2888         20.9075         14.9334         22.4060        -3.94480
            2889         21.8141         24.0475         13.2855         3.67644
            2890         95.7295         107.201         31.3647         4.10897
            2891         105.529         117.735         32.6852         4.26925
            2892         106.365         118.734         32.9463        -3.75115
            2893         95.2044         106.624         31.3321        -4.25176
            2894         58.9726         49.8833         58.7231        -12.5210
            2895         62.2758         58.6852         55.1884        -14.4603
            2896         63.6845         57.3654         55.4175         17.0575
            2897         97.5187         31.9941         109.318        -3.33120
            2898         97.6589         31.7011         109.532         1.55676
            2899         87.5018         95.8537         34.1451        -13.8524
            2900         75.5346         82.7643         36.0848        -13.4160
            2901         97.1116         32.1884         108.797        -4.46178
            2902         97.3980         31.5066         109.249     396.050E-03
            2903         66.1916         40.9149         68.0453         16.9430
            2904         67.5455         47.8755         65.5929         19.2197
            2905         76.5200         39.2119         81.5862         16.9369
            2906         76.1050         34.2951         83.2060         13.4926
            2907         90.5647         99.7554         33.6440         12.5840
            2908         80.5234         88.4978         33.7450         12.9073
            2909         81.5028         89.7366         33.4516        -12.5548
            2910         90.4426         99.5821         33.6289        -12.6652
            2911         86.4521         96.5765         33.0686         9.07490
            2912         92.6359         103.077         31.0133         7.99057
            2913         102.939         114.457         32.5173        -7.31578
            2914         96.9499         107.982         33.5575        -8.88227
            2915         96.9096         107.866         33.4865         9.07618
            2916         100.992         111.922         31.9857         8.74627
            2917         90.9867         100.847         30.7411        -9.37403
            2918         87.3808         97.5058         32.6805        -9.06535
            2919         90.1233         31.5088         100.944         6.33163
            2920         88.5736         34.4452         98.2411         11.4226
            2921         71.7810         42.6885         76.7451         15.4545
            2922         70.7635         37.7562         77.6880         12.6454
            2923         67.6376         66.9599         46.5611         18.6280
            2924         62.5622         46.1749         60.6320         17.3719
            2925         86.5969         99.9924         49.5987    -5.81500E-03
            2926         59.8454         38.6451         68.3463        -4.39937
            2927         59.6952         68.2086         38.4804         4.28394
            2928         86.5875         50.6207         99.9796     131.879E-03
            2929         60.2729         40.1536         68.6919        -4.47836
            2930         66.0945         75.7597         38.7459         4.58537
            2931         67.2484         46.7447         69.4454         15.9250
            2932         66.0515         40.8529         70.9464         13.6481
            2933         91.6795         30.9672         102.532        -6.01562
            2934         90.7608         33.7674         100.863        -10.4850
            2935         60.2037         47.4551         61.4485        -13.0719
            2936         63.6283         54.6450         58.4485         16.7350
            2937         86.1558         32.3470         96.4546        -8.02112
            2938         85.2367         35.8272         94.5571        -11.9497
            2939         64.8634         50.3516         63.9070        -16.3879
            2940         63.4604         43.2102         67.3606        -13.3331
            2941         77.6572         84.7784         34.7213         13.9202
            2942         84.8583         92.5492         34.8960         14.6906
            2943         61.9851         58.6634         48.2154         17.3638
            2944         65.4416         41.3753         70.3680        -13.2982
            2945         65.8013         48.4648         66.9596        -15.7329
            2946         96.7264         31.3434         108.510     275.294E-03
            2947         96.4069         32.2278         107.979         5.03857
            2948         60.1362         58.1319         49.7916         14.7457
            2949         75.2922         83.1726         36.6573         12.3336
            2950         84.9845         93.9650         36.0154        -12.6494
            2951         77.2085         85.6810         36.0092        -11.6699
            2952         85.1282         94.2862         36.1244         12.3556
            2953         65.7025         67.7952         47.4974         15.1077
            2954         75.5197         35.8826         84.1918         10.7768
            2955         76.9010         39.5285         83.9533         14.3951
            2956         72.8336         75.6577         40.9992        -18.2721
            2957         65.3045         65.2479         43.1161        -17.9037
            2958         84.1562         36.3616         93.4637         11.8762
            2959         84.5757         33.1322         94.9275         7.94235
            2960         92.7884         103.625         31.5125        -6.92855
            2961         102.980         114.742         32.8600        -6.58184
            2962         64.5249         69.1684         43.1456         12.9352
            2963         72.6269         78.3392         41.3865         14.9106
            2964         59.2391         50.0317         58.1676         13.3274
            2965         17.6343         11.7947         19.3086        -2.98722
            2966         17.7771         19.4234         11.9721         3.05306
            2967         18.5887         13.5804         19.9375        -3.38462
            2968         19.3454         21.3544         12.1093         3.17204
            2969         104.794         116.919         32.2310         3.71300
            2970         63.2229         56.4081         56.7315        -16.2984
            2971         61.4818         60.7953         54.0148        -12.2502
            2972         58.3029         53.2382         55.1605         12.3677
            2973         57.9735         52.4638         56.3695        -11.3770
            2974         62.9023         63.5942         51.2155         13.4964
            2975         92.8752         103.326         30.9302        -7.93245
            2976         104.650         116.641         33.0083        -5.97601
            2977         73.1658         36.6653         80.9959         11.8081
            2978         74.3277         40.9843         80.3999         15.0098
            2979         83.8373         93.5040         33.7507         10.0401
            2980         88.8795         99.4089         32.5005         7.99954
            2981         93.4027         104.090         34.3722        -9.75729
            2982         99.3906         110.742         33.1804        -7.92035
            2983         99.2291         110.520         33.1680         8.11029
            2984         94.1936         104.778         33.9668         9.98688
            2985         89.3786         99.8690         32.2790        -8.09210
            2986         85.0541         94.7785         33.2545        -9.95314
            2987         88.2924         31.5436         98.6777         7.65770
            2988         86.4649         35.0298         95.4645         12.6455
            2989         86.6165         100.016         49.7504     2.53260E-03
            2990         61.3671         70.2055         39.6102         4.04158
            2991         61.5411         39.7026         70.3230        -4.38519
            2992         86.6082         50.7586         100.002     126.710E-03
            2993         61.9612         41.3080         70.7334        -4.14235
            2994         67.8473         77.9111         39.8053         4.07937
            2995         65.8301         47.7120         69.6275         13.3072
            2996         66.3853         40.9639         73.2622         10.9958
            2997         61.7030         45.2207         64.3869        -13.2703
            2998         63.7580         51.9966         62.1588         15.5966
            2999         66.9984         63.7360         48.5735         19.6893
            3000         88.1433         31.9494         98.7468        -7.12842
            3001         87.2448         35.0871         97.0019        -11.1758
            3002         63.9073         52.8834         60.6200        -16.5176
            3003         63.9259         42.7815         67.6164         13.8687
            3004         65.4010         49.1256         65.8532         15.9416
            3005         62.2920         53.8932         60.7027         13.6925
            3006         59.0076         48.2607         61.9969        -10.0199
            3007         64.8048         42.1719         71.4326        -10.5043
            3008         64.4833         49.0142         68.1419        -12.2788
            3009         90.6714         32.1514         102.069        -4.12686
            3010         90.0159         34.1702         101.003        -7.85244
            3011         62.2375         59.8413         54.2139         14.1139
            3012         57.1933         52.2416         57.6457        -8.76279
            3013         97.4133         31.5553         109.266    -910.119E-03
            3014         97.2508         32.0749         108.986         3.94270
            3015         68.5431         39.6652         76.1919         10.6737
            3016         67.8686         45.7806         72.8514         13.3931
            3017         69.7202         75.1545         43.4852         14.0220
            3018         62.3251         66.1781         45.1681         12.2999
            3019         60.2847         46.4142         64.5641        -10.1346
            3020         57.2867         55.0014         54.4615        -9.76413
            3021         62.1124         63.8323         51.6558         11.7244
            3022         61.3685         54.0582         61.4334         11.4123
            3023         60.4444         63.4868         47.2203         11.4172
            3024         72.4086         79.5432         37.9821         12.8382
            3025         82.0212         90.3250         36.9011        -13.4199
            3026         72.3341         79.7415         38.1740        -12.3869
            3027         82.4855         91.0273         36.8585         13.0956
            3028         64.9400         68.4574         47.8393         13.1295
            3029         75.8043         75.9254         38.8303        -21.7718
            3030         73.5231         79.3104         40.7560        -15.1309
            3031         68.2915         65.3914         41.1159        -21.4927
            3032         62.9779         65.1009         44.8364        -14.5679
            3033         81.9083         37.6268         91.5358         10.9331
            3034         68.9468         75.6852         44.2326         11.7847
            3035         63.3056         69.1677         44.2475         10.4258
            3036         20.1359         21.1591         14.9210         4.11580
            3037         15.6678         17.0875         11.0542         2.59417
            3038         15.5252         10.9301         16.9522        -2.54796
            3039         22.1775         17.0513         22.6786        -4.94889
            3040         23.1095         24.5412         16.1498         4.73619
            3041         16.7866         18.5525         10.9792         2.62956
            3042         14.4880         11.4403         15.4651        -2.36448
            3043         105.153         117.328         31.8750         2.23659
            3044         94.4011         105.946         31.2366         2.62742
            3045         63.1718         62.5905         51.6141        -14.6018
            3046         60.3783         59.1811         56.2031        -10.1737
            3047         59.1081         56.1170         51.9237         13.6916
            3048         58.6210         55.5681         52.7410        -12.8804
            3049         64.5844         65.3859         49.1799         15.1969
            3050         96.0023         107.234         34.0045        -8.31715
            3051         87.6963         98.2908         32.9981        -7.83350
            3052         86.6390         100.022         48.2626    -642.417E-06
            3053         61.2861         69.8612         39.2402         5.06534
            3054         62.9847         72.1228         40.6459         3.86335
            3055         59.8457         38.4478         68.1149        -5.24407
            3056         86.5734         99.9657         49.6888     7.39379E-03
            3057         62.9320         40.7433         72.0455        -3.88332
            3058         86.5999         49.3234         99.9934     165.293E-03
            3059         86.5597         50.7677         99.9460     128.606E-03
            3060         62.1450         41.2018         70.7000        -5.12817
            3061         63.5633         42.3540         72.6456        -3.91068
            3062         66.7014         76.2279         38.8062         5.49447
            3063         69.5772         79.9972         40.8241         3.68056
            3064         63.1236         51.7403         63.4198        -13.7456
            3065         60.9283         57.8971         56.9755         11.7287
            3066         70.1557         43.9800         76.1875         13.3389
            3067         70.6460         38.6496         79.0183         10.1192
            3068         88.9230         32.6778         100.240        -4.72536
            3069         88.2270         34.9324         99.0977        -8.26828
            3070         60.9293         59.6596         55.3464         11.4284
            3071         56.9720         51.8020         58.7027        -7.24023
            3072         73.8937         37.6676         83.5209         8.40082
            3073         75.0480         40.9029         82.7861         12.8038
            3074         62.2215         58.8222         47.9631        -17.6285
            3075         67.6549         67.9992         46.1245        -17.9095
            3076         62.0524         44.9420         64.3589         13.9173
            3077         81.6452         37.6974         91.0861        -11.2823
            3078         82.4791         34.1282         92.8605        -7.83517
            3079         57.3070         52.1134         57.6537         9.10795
            3080         65.2585         48.0086         70.2718        -11.3925
            3081         65.7118         41.7081         73.2147        -9.51715
            3082         91.1099         101.290         34.6519         10.8097
            3083         81.0623         90.2033         34.5627         10.9172
            3084         92.2348         103.301         31.7909        -6.04102
            3085         101.968         113.753         32.7683        -6.09160
            3086         62.8055         50.5794         66.7771        -10.0768
            3087         62.9899         43.7498         69.7676        -8.91591
            3088         87.0895         32.5254         97.7838         6.96324
            3089         86.1866         35.6283         96.0659         10.8438
            3090         64.8966         48.3192         69.9326         11.0354
            3091         66.8257         41.1673         75.0143         8.79239
            3092         94.2759         31.3992         105.899         2.04431
            3093         93.5422         32.8343         104.831         6.44536
            3094         97.5623         108.892         33.6182         7.99046
            3095         94.1421         32.5452         105.573        -5.58830
            3096         94.5625         31.4104         106.236        -1.44801
            3097         76.4453         50.2607         87.9367         1.24459
            3098         82.6449         95.3582         50.8456     299.112E-03
            3099         76.0966         87.6495         48.7684         1.21508
            3100         83.2696         52.6748         95.9988     208.968E-03
            3101         25.5244         14.7344         28.6294         3.49211
            3102         25.7579         28.7700         14.6034         3.77006
            3103         40.9584         46.4167         24.6241         4.46104
            3104         41.3893         25.9878         46.8300         4.53399
            3105         27.8970         31.3869         15.3011        -3.61652
            3106         76.7703         88.4554         48.8368        -1.17830
            3107         83.3098         52.0715         96.0833    -307.284E-03
            3108         25.6492         14.2004         28.7466        -3.56249
            3109         42.6532         25.6112         48.6259        -3.84079
            3110         75.6767         49.0287         87.1139        -1.34143
            3111         82.9617         95.7299         50.9135    -259.245E-03
            3112         42.2321         48.1149         25.3040        -3.90355
            3113         83.5167         96.4165         48.0010    -980.412E-03
            3114         82.6473         52.0173         95.2973    -321.854E-03
            3115         76.3429         50.3329         87.8058        -1.22486
            3116         90.9102         104.910         49.2842    -93.8359E-03
            3117         25.8442         15.4608         28.8201        -3.82419
            3118         40.9768         25.6838         46.3440        -4.54456
            3119         45.2795         51.5090         25.2144        -4.47449
            3120         27.9432         15.3217         31.4429         3.61347
            3121         76.7989         49.2184         88.4546         1.29147
            3122         91.3785         105.446         49.4235     48.6084E-03
            3123         45.8684         52.3280         25.4102         4.06926
            3124         84.0333         97.0112         47.8834     973.147E-03
            3125         27.9067         31.3054         14.5386         3.76484
            3126         83.0210         51.6907         95.7606     365.630E-03
            3127         42.2252         25.3025         48.1079         3.89976
            3128         87.0274         35.3691         97.3114        -9.91783
            3129         87.8034         32.5964         98.7530        -6.15770
            3130         61.0412         69.2792         38.9440         5.99412
            3131         86.6491         99.9630         46.2902    -13.3654E-03
            3132         59.9842         38.4199         67.8562        -6.44409
            3133         59.3289         39.5914         66.7981        -6.71036
            3134         67.2540         76.6691         38.9564         6.16735
            3135         86.5842         48.4136         99.9617     192.261E-03
            3136         80.3078         89.4888         38.4426         11.5966
            3137         69.5584         77.3367         40.1185        -10.8097
            3138         79.9723         88.9962         38.4951        -11.8221
            3139         70.6024         78.5293         39.5197         10.9467
            3140         59.8645         59.4173         56.4303         8.60040
            3141         56.4953         52.6699         58.2119        -5.62709
            3142         79.1258         88.6725         35.8701         9.86740
            3143         61.7058         54.4825         60.4266        -12.6501
            3144         62.0922         51.8954         64.5989        -10.6719
            3145         60.3994         56.6812         50.5402        -15.7659
            3146         65.3262         64.9116         48.9198        -16.6963
            3147         22.0788         18.5623         21.3913        -5.24081
            3148         21.9844         22.3399         17.1486         4.94190
            3149         25.2878         26.3779         18.1972         5.55406
            3150         89.3515         99.9321         35.7361         9.85536
            3151         81.9258         91.9002         34.9065         9.23122
            3152         59.7195         59.1448         49.5108        -13.4821
            3153         64.2404         66.7962         48.8482        -13.4390
            3154         76.0555         48.6040         87.5694         1.81791
            3155         82.7280         95.5063         49.2941     388.761E-03
            3156         75.9870         87.5814         47.3603         1.67323
            3157         83.2845         51.4279         96.0879     260.969E-03
            3158         26.7867         17.8139         29.0886         4.90663
            3159         27.6181         29.9031         17.8557         5.28124
            3160         42.4830         47.4135         26.6352         6.06077
            3161         43.3527         28.4407         48.2827         6.12532
            3162         83.4090         96.2525         46.4229        -1.38482
            3163         82.7218         50.3538         95.4677    -398.219E-03
            3164         76.2749         48.9805         87.8156        -1.67778
            3165         91.2110         105.166         47.6269    -107.332E-03
            3166         30.6904         34.5816         15.6774        -3.75865
            3167         27.8457         19.0294         29.9287        -5.38707
            3168         26.4412         28.8826         16.6320        -4.78476
            3169         76.1074         87.7319         47.1409        -1.72706
            3170         83.2288         50.4531         96.0595    -447.748E-03
            3171         25.7131         16.9899         27.6895        -5.04119
            3172         43.3252         26.8728         48.7534        -5.42114
            3173         75.9509         47.3498         87.5158        -1.94749
            3174         42.8357         48.1183         26.5772        -5.53849
            3175         82.6972         95.4725         49.1821    -399.653E-03
            3176         42.4830         27.8492         47.2336        -6.15445
            3177         47.1052         53.0569         27.2789        -5.97369
            3178         76.1115         47.5056         87.7039         1.88233
            3179         26.5848         16.7115         29.0445         4.80526
            3180         91.3483         105.321         47.6510     89.5156E-03
            3181         46.0821         51.9736         26.4508         5.69798
            3182         28.8207         31.6216         17.2344         5.12065
            3183         83.1107         95.9004         46.1674         1.47863
            3184         42.8216         26.5649         48.1072         5.52733
            3185         82.7711         49.9514         95.5363     550.985E-03
            3186         101.114         112.733         32.9611        -6.94458
            3187         90.9944         101.801         32.0042        -7.08017
            3188         84.5746         95.0853         34.1875        -8.03329
            3189         96.2006         107.640         34.0405         7.60641
            3190         85.0847         96.0309         34.3023         6.70581
            3191         95.5734         106.982         34.2143        -7.71915
            3192         102.325         114.227         32.5850        -5.25525
            3193         90.2950         101.346         32.3632        -6.18369
            3194         61.0025         62.7066         53.1047        -9.98487
            3195         57.1309         55.3654         54.2871         9.25814
            3196         59.9055         57.4627         58.3583        -8.84007
            3197         57.0063         51.5191         59.1513         6.92934
            3198         64.2377         48.7311         70.1957         9.03773
            3199         65.5840         42.2895         74.1639         7.04573
            3200         81.1210         38.1455         91.1307        -9.94924
            3201         81.8092         34.8977         92.5602        -6.77323
            3202         70.8626         75.7048         42.5676        -15.2847
            3203         61.7687         62.2371         46.5939        -14.9531
            3204         79.7735         38.5604         88.8499         11.6718
            3205         77.4196         36.3290         87.5888         7.83613
            3206         71.9022         80.1724         42.6065         10.6904
            3207         64.4691         71.8573         43.5519         8.67088
            3208         16.9454         13.5199         17.5836        -3.31142
            3209         16.5456         16.6397         14.0801         3.31239
            3210         17.4130         14.8502         17.5306        -3.44951
            3211         17.8136         18.8328         13.5705         3.36963
            3212         22.4041         23.8957         15.5392         4.50140
            3213         22.3800         15.3701         23.9510        -4.43858
            3214         23.8198         26.2447         14.2662         4.06112
            3215         22.7902         15.9397         24.4674        -4.34601
            3216         106.880         119.266         32.2409         1.26682
            3217         104.021         116.113         32.0259         3.22488
            3218         96.2132         107.872         31.0544         1.42864
            3219         92.1809         103.689         31.8650         3.39530
            3220         14.5510         8.16002         16.4275        -1.76351
            3221         15.0489         9.27333         16.8988        -1.96733
            3222         16.0007         18.0922         8.09407         1.79067
            3223         14.6236         16.4924         8.32273         1.81147
            3224         86.6029         99.9756         48.0591     8.40312E-03
            3225         62.6177         40.0825         71.4048        -5.09266
            3226         63.1752         72.5046         41.3861         2.71145
            3227         62.7399         71.6130         40.0850         4.88786
            3228         86.5805         99.9608         51.4149     7.26098E-03
            3229         63.2833         41.4762         72.5905        -2.93792
            3230         86.5544         49.1139         99.9390     172.490E-03
            3231         86.5986         52.5264         99.9520     82.6133E-03
            3232         69.6650         79.9269         40.3630         4.53941
            3233         69.5090         80.0712         41.5210         2.62946
            3234         63.5899         42.0475         72.4594        -4.90079
            3235         63.5596         42.8674         72.8015        -2.76635
            3236         57.9967         66.1515         37.2992         4.61042
            3237         86.4994         99.8730         48.8538    -12.5706E-03
            3238         58.2462         37.5110         66.3896        -4.77180
            3239         86.4794         49.9912         99.8573     143.481E-03
            3240         58.3487         38.8263         66.2664        -5.12273
            3241         65.2365         74.3310         38.0673         6.08731
            3242         79.9163         35.1240         90.1176        -8.10387
            3243         79.0924         38.9713         88.2727        -11.3267
            3244         89.7808         32.6266         101.287        -3.72460
            3245         89.1509         34.5222         100.334        -7.14077
            3246         60.4886         47.3332         61.2153         13.7675
            3247         67.7263         45.9241         72.4459        -13.6190
            3248         68.2249         39.7189         75.4832        -11.2167
            3249         63.5711         49.5036         68.7395        -9.45902
            3250         63.9258         43.1723         71.5060        -8.09569
            3251         88.0158         32.6058         99.0293         5.93760
            3252         85.1558         36.2772         95.6537         9.23570
            3253         93.4242         32.6969         104.890         5.37317
            3254         93.8993         31.5986         105.596         1.25704
            3255         85.5930         95.5986         36.7131        -10.7850
            3256         75.2253         84.3741         37.5675        -9.97095
            3257         63.3112         50.0788         67.2578         10.7238
            3258         63.0480         43.7305         69.9185         8.78765
            3259         85.5004         36.1073         95.9527        -9.38515
            3260         86.1692         33.4062         97.2258        -5.89446
            3261         59.2370         47.4946         64.4738        -7.27031
            3262         70.0234         78.1222         43.7614         10.0644
            3263         62.4728         69.1983         45.0441         8.21478
            3264         57.1276         57.4950         52.6902        -8.38755
            3265         61.2751         63.8440         52.2689         9.72279
            3266         88.5132         34.8373         99.9045        -6.33625
            3267         89.0681         33.1076         100.695        -3.22603
            3268         60.0476         61.7334         48.0677        -12.2689
            3269         65.3958         70.5182         47.1108        -11.6409
            3270         91.3131         102.924         32.2651         2.86077
            3271         103.250         115.344         32.0004         2.78921
            3272         62.0291         70.2220         39.4383         6.59627
            3273         86.7481         100.042         45.6617    -4.33265E-03
            3274         61.5930         39.2973         69.8127        -6.29947
            3275         86.6459         47.4369         100.005     223.790E-03
            3276         60.4144         40.3517         67.8766        -7.14944
            3277         67.6716         77.0026         39.1457         6.63279
            3278         80.1490         90.2267         39.1414         9.70501
            3279         70.8746         79.4855         39.6953        -9.74264
            3280         81.0494         91.0960         38.7152        -9.97420
            3281         71.8896         80.9679         39.3562         9.12850
            3282         61.7396         70.4306         36.2578         5.48736
            3283         56.4073         37.5018         64.0400        -5.02936
            3284         86.2761         50.5591         99.6190     118.352E-03
            3285         57.6186         37.0114         65.1031        -6.35612
            3286         56.3497         64.1584         36.1498         4.88172
            3287         86.2713         99.6147         49.1550    -7.98586E-03
            3288         57.4297         50.5232         60.2351        -7.31623
            3289         23.0829         21.9866         19.6586         5.63250
            3290         22.9082         18.3768         23.0900        -5.10719
            3291         23.6863         24.1195         18.2486         5.36728
            3292         74.8205         86.2030         46.7412         1.97037
            3293         83.3914         96.2758         49.5899     278.647E-03
            3294         74.7415         47.9993         86.0036         2.14917
            3295         83.7387         51.2135         96.6344     199.426E-03
            3296         24.3162         16.4471         26.3211         4.50462
            3297         44.2148         49.6431         27.6514         5.73324
            3298         45.2642         30.5383         49.7307         7.34418
            3299         81.9892         94.6063         46.0827        -1.62942
            3300         83.3924         50.7031         96.2457    -270.012E-03
            3301         91.4534         105.331         46.1334    -100.968E-03
            3302         75.0850         48.3831         86.4037        -1.97615
            3303         26.1209         28.7856         15.4135        -4.46470
            3304         25.4661         26.5764         18.2473        -5.60357
            3305         83.8137         50.5069         96.7454    -375.232E-03
            3306         75.1121         86.5439         47.0614        -1.83296
            3307         83.3937         96.2867         49.0935    -300.568E-03
            3308         45.5880         28.5931         51.2998        -5.65245
            3309         74.4264         46.2388         85.7079        -2.48003
            3310         44.8882         50.5645         28.0095        -5.47545
            3311         44.2073         28.8565         49.4616        -5.84301
            3312         48.7650         54.4917         28.9247        -7.02833
            3313         25.9341         18.5457         27.0545         5.72805
            3314         92.1832         106.262         47.7441    -2.99954E-03
            3315         75.1353         47.4245         86.5371         1.96071
            3316         50.4539         56.4027         30.0136         7.21947
            3317         82.0841         94.6547         44.8167         1.98848
            3318         44.8667         27.9935         50.5468         5.45862
            3319         83.4301         49.9003         96.3112     465.453E-03
            3320         81.9871         92.6046         35.3796        -7.54707
            3321         93.9610         105.251         34.6625         8.11726
            3322         98.0617         109.635         33.5548         7.04857
            3323         82.8403         93.4651         35.0136         7.60212
            3324         85.8037         96.6116         33.9088         7.17997
            3325         93.6428         105.002         34.8006        -7.88513
            3326         103.827         115.875         32.2749        -4.13198
            3327         91.2535         102.608         32.1441        -4.61167
            3328         91.4118         102.544         35.4193         8.53265
            3329         80.1686         90.4469         35.9468         8.27596
            3330         57.6732         50.0530         60.7173         7.60231
            3331         65.9418         47.1954         72.7820         9.28565
            3332         67.1357         41.4213         76.1632         6.96257
            3333         83.2633         37.1051         93.4088        -9.94530
            3334         83.8947         34.1043         94.7507        -6.55578
            3335         76.7392         85.0476         39.7518         12.3341
            3336         67.9552         75.2328         40.9934         10.9777
            3337         105.855         118.096         31.8149         1.11360
            3338         103.026         115.007         32.3868         4.60566
            3339         93.1832         104.609         31.5602         3.89637
            3340         95.0655         106.681         31.0661         1.38409
            3341         86.4597         99.8342         49.5669     11.1725E-03
            3342         63.8400         41.0477         73.0241        -4.30450
            3343         64.5618         73.9898         41.5970         3.70495
            3344         71.2406         81.9781         41.7299         3.38484
            3345         86.4423         50.7303         99.8100     130.616E-03
            3346         65.1017         43.3136         74.4768        -3.70715
            3347         91.0815         32.2500         102.649        -3.12771
            3348         90.5205         33.9096         101.793        -6.68313
            3349         88.8447         32.6053         100.088         5.03347
            3350         87.6741         35.1659         98.4065         8.69511
            3351         94.1527         32.2635         105.780         3.96450
            3352         94.2976         31.6561         106.052    -40.6400E-03
            3353         93.9571         32.4593         105.491        -4.83616
            3354         94.3195         31.5352         106.034    -869.496E-03
            3355         59.8378         55.9165         60.3572        -7.87149
            3356         58.5487         48.3136         64.3453        -4.55261
            3357         68.1033         75.8220         45.0178         9.58847
            3358         60.7034         66.6774         46.5956         7.63220
            3359         58.5784         60.7163         49.6886        -9.88117
            3360         62.2840         66.1053         50.5391         9.93463
            3361         76.2658         85.3342         36.9556         10.3666
            3362         85.3666         95.6844         37.0805         10.0832
            3363         68.1227         45.5300         74.2300        -12.0737
            3364         68.7181         39.8469         76.9485        -9.65205
            3365         60.4934         46.1011         66.7239        -7.25980
            3366         62.0241         51.8126         64.9099         10.2030
            3367         61.3147         45.2398         67.3740         8.59425
            3368         61.0519         64.6299         52.0829        -8.24206
            3369         61.0369         53.3682         63.0431         9.44115
            3370         83.5862         93.9850         37.8662        -9.63480
            3371         72.2775         81.5686         39.2594        -8.78684
            3372         58.9338         60.9165         49.2849         10.5771
            3373         74.6638         84.1947         38.1135         8.98619
            3374         85.4959         96.4122         37.4493         8.60938
            3375         72.5453         81.4843         42.4627         9.66255
            3376         63.7485         71.7359         44.2456         6.68717
            3377         71.3513         39.2438         81.1055         7.20467
            3378         71.1713         43.4072         78.8517         11.3477
            3379         56.5403         56.4352         54.0956         6.79290
            3380         78.5573         83.9210         37.2443        -16.9996
            3381         68.9934         72.1767         39.3904        -16.7540
            3382         88.0401         98.4677         36.0983        -10.1093
            3383         78.4315         87.8933         36.1463        -9.94532
            3384         68.8960         44.9488         75.8143         11.3463
            3385         70.1684         39.5910         79.4505         7.94337
            3386         78.8575         39.4123         89.2478        -8.51400
            3387         79.3704         36.2456         90.3016        -5.90424
            3388         64.5081         42.9587         72.7533        -7.02811
            3389         64.2167         48.7123         70.3766        -8.68396
            3390         15.2049         12.8997         15.5005        -2.85604
            3391         15.2325         15.9854         12.3540         2.66825
            3392         13.9722         14.9554         10.8817         2.30122
            3393         14.6355         12.9271         14.7584        -2.58545
            3394         59.2656         48.0330         61.9669         10.6740
            3395         85.9618         97.0603         34.0407         6.16335
            3396         97.3735         109.050         33.7397         6.59988
            3397         92.8499         32.8178         104.409        -4.80672
            3398         93.2515         31.8299         104.978        -1.11444
            3399         94.7233         32.1212         106.338        -4.02658
            3400         95.0209         31.4761         106.765     56.4380E-03
            3401         87.5912         98.6257         33.3403         6.37256
            3402         99.2914         111.037         33.2199         6.18134
            3403         86.2739         99.6196         49.4329     9.59138E-03
            3404         65.9808         42.1851         75.5564        -4.18181
            3405         66.0975         75.8091         42.4581         3.55337
            3406         86.2511         50.5837         99.5896     141.684E-03
            3407         72.8455         83.8763         42.5253         3.14617
            3408         66.5853         44.1891         76.2423        -3.51679
            3409         79.6851         90.1815         39.6016        -8.56452
            3410         70.9073         43.4420         77.1174        -13.4620
            3411         71.5394         37.9954         79.7975        -10.6226
            3412         59.2988         58.5293         57.7611        -6.70915
            3413         68.4346         45.2984         75.6460        -10.5777
            3414         69.0904         40.0630         78.0604        -8.21270
            3415         60.1290         54.2779         62.5618         7.09816
            3416         11.9637         10.3731         12.4258        -1.82783
            3417         12.3689         12.7024         10.8670         1.96505
            3418         12.3910         12.8846         10.7619         1.85844
            3419         10.9460         9.66637         11.4228        -1.45016
            3420         86.6045         35.7501         97.8905        -6.81449
            3421         87.4729         33.6067         99.0221        -3.85268
            3422         92.2706         103.920         31.9096         2.03110
            3423         103.362         115.504         31.8737         1.64653
            3424         86.8263         100.047         44.3891    -10.9333E-03
            3425         60.0978         38.5555         67.5905        -7.36503
            3426         63.1556         40.1439         71.8146        -5.85022
            3427         63.8010         72.6611         40.3767         5.61159
            3428         86.6689         99.9970         46.5439     9.43488E-03
            3429         60.3538         68.0717         38.5945         6.98784
            3430         86.6794         46.1548         99.9890     269.835E-03
            3431         59.7943         40.2280         66.8274        -7.73497
            3432         63.5330         41.8621         72.1278        -5.80232
            3433         65.8544         74.8340         38.3850         6.72721
            3434         86.5782         47.5473         99.9319     219.255E-03
            3435         68.5997         78.3955         39.5563         5.66846
            3436         81.7449         92.2735         38.7270         8.97264
            3437         63.7359         68.3205         48.7856        -10.7641
            3438         94.4542         105.925         31.3025        -3.53104
            3439         24.5690         20.3542         23.6630        -6.08399
            3440         25.6330         24.4968         21.2670         6.47145
            3441         19.1045         16.3211         18.7354        -4.21769
            3442         19.4241         19.4983         15.9379         4.23700
            3443         26.0456         21.7304         25.1347        -6.34020
            3444         21.4081         21.6973         17.0711         4.70844
            3445         21.1578         18.7405         20.0870        -4.80956
            3446         26.4016         26.1861         20.8207         6.40411
            3447         84.2605         51.1209         97.2526     125.449E-03
            3448         73.5793         84.7310         45.9132         2.36809
            3449         82.2726         94.9934         47.5358     567.830E-03
            3450         75.6275         47.3705         87.0972         2.27060
            3451         75.8771         87.4740         46.2231         2.03163
            3452         83.3905         49.5697         96.2751     292.925E-03
            3453         83.9920         96.9754         49.6578     197.370E-03
            3454         73.4731         48.2622         84.4565         2.01721
            3455         28.3345         20.6669         29.5558         6.13741
            3456         21.8665         15.2273         23.5627         4.07714
            3457         42.6384         46.4661         27.8478         7.69006
            3458         46.0251         51.8775         28.8595         5.51727
            3459         44.5189         30.4574         48.4141         7.85105
            3460         46.5022         30.2984         52.3962         5.37346
            3461         83.2368         95.9921         45.0771        -1.73008
            3462         80.5044         92.8774         45.6497        -1.88621
            3463         90.7585         104.533         45.8121    -205.547E-03
            3464         84.0128         50.8307         96.9713    -166.475E-03
            3465         82.1200         48.5262         94.8080    -582.306E-03
            3466         92.6206         106.776         48.1179     43.7952E-03
            3467         73.8286         47.5989         84.9110        -2.36708
            3468         75.1589         47.3715         86.5288        -2.35000
            3469         23.4078         25.7474         14.2028        -4.03994
            3470         30.0413         32.3098         19.2486        -6.05431
            3471         74.0422         47.2634         85.2325        -2.01781
            3472         46.9119         29.2996         53.1783        -4.91358
            3473         83.9978         96.9909         48.7502    -223.732E-03
            3474         84.3607         50.4365         97.3886    -312.275E-03
            3475         27.9332         29.4042         19.3836        -6.05234
            3476         76.3522         88.0436         45.7382        -2.07887
            3477         83.0611         95.9057         47.5184    -417.197E-03
            3478         75.1238         46.1428         86.5425        -2.45844
            3479         82.6205         48.3025         95.3887    -713.184E-03
            3480         42.0848         26.5496         46.7715        -6.33611
            3481         74.0387         85.2673         46.7601        -1.98473
            3482         21.2702         23.0224         14.2227        -3.98096
            3483         43.5632         48.1030         27.9228        -7.00828
            3484         46.8830         52.9229         29.4367        -5.43249
            3485         42.6867         29.2721         46.2198        -7.78838
            3486         46.0878         30.1346         51.7560        -5.68490
            3487         47.8431         53.0558         28.7657        -7.58860
            3488         50.7905         57.7039         29.3157        -5.23309
            3489         28.2685         19.5095         29.8147         6.08932
            3490         21.5399         14.4834         23.2621         4.08190
            3491         82.7440         95.4001         44.6003         1.92226
            3492         76.1897         46.0029         87.8172         2.35068
            3493         92.9295         107.100         47.7961    -69.3953E-03
            3494         74.0696         47.0950         85.2697         2.10029
            3495         50.5190         57.1403         29.3740         5.85277
            3496         80.8467         93.2874         46.0305         1.72194
            3497         48.4943         54.1211         28.7991         7.11466
            3498         46.8604         29.4251         52.9037         5.41468
            3499         84.0110         49.6214         96.9956     403.572E-03
            3500         91.3255         105.183         46.0539     118.359E-03
            3501         83.1050         48.2618         95.9525     631.942E-03
            3502         43.5425         27.8831         48.1053         6.96860
            3503         80.3013         90.4540         35.7896        -8.61773
            3504         91.0168         102.139         35.5486        -8.54111
            3505         102.642         114.630         32.3646        -4.38813
            3506         89.5071         100.735         32.7222        -5.46331
            3507         88.1381         99.4559         36.6777         7.73340
            3508         92.5478         103.393         34.8146         9.35494
            3509         78.4154         88.9604         36.9450         7.22813
            3510         56.9432         51.1523         60.0831         5.45802
            3511         65.2912         47.6352         72.7296         7.49934
            3512         64.8233         43.0379         73.7018         5.47145
            3513         106.120         118.387         31.8108    -57.5222E-03
            3514         95.2804         106.921         31.0073     155.261E-03
            3515         91.1633         32.1172         102.658         3.54282
            3516         86.7662         33.4215         98.0100         5.19795
            3517         86.0514         35.9325         96.8865         8.32852
            3518         89.5654         34.3408         100.685         7.36726
            3519         59.4556         55.7036         61.0595        -5.91752
            3520         63.9314         69.0062         48.4963         10.3283
            3521         59.6336         63.8435         47.8390         9.05190
            3522         57.4527         59.9177         51.0758        -7.35494
            3523         61.0820         65.4197         51.7446         7.27757
            3524         59.9184         46.7760         66.6906        -4.96987
            3525         61.6940         51.6907         65.7882         8.30197
            3526         60.6622         45.9806         67.4206         6.32962
            3527         94.9921         31.5701         106.749    -724.995E-03
            3528         94.9443         31.9756         106.614         3.39489
            3529         60.3187         54.6791         61.6762         8.50455
            3530         76.4696         40.0714         84.3405        -13.0153
            3531         77.2682         35.5238         86.5914        -9.77118
            3532         75.9413         86.2005         37.9361         7.47240
            3533         85.6494         96.9357         37.5911         7.53026
            3534         74.5390         37.7971         84.6800         7.24328
            3535         73.4961         42.0050         81.8249         11.2396
            3536         91.0756         102.324         32.1730         5.21057
            3537         101.135         112.946         32.8195         5.80738
            3538         85.7835         96.4969         37.2019        -9.18418
            3539         90.6712         100.822         34.7916        -10.8540
            3540         75.4368         85.3071         37.9361        -8.37633
            3541         82.4851         91.7932         34.0251        -10.6984
            3542         76.6845         40.5518         86.9902        -8.09082
            3543         81.1124         38.2675         91.5893        -8.77700
            3544         77.2734         37.1800         88.1414        -5.68685
            3545         81.4574         35.4381         92.5053        -5.78578
            3546         65.8481         74.4084         42.8898         7.09900
            3547         73.9847         83.5486         41.9213         8.91507
            3548         90.6271         102.037         35.8402         7.62085
            3549         80.4514         91.2498         36.1937         6.79650
            3550         86.1659         49.0326         99.4920     142.713E-03
            3551         55.9574         37.3477         63.0377        -6.24345
            3552         86.2572         99.5666         47.5076    -9.84695E-03
            3553         60.6142         68.7669         35.7011         6.47246
            3554         56.3462         63.5946         36.1807         6.38921
            3555         56.3574         36.3232         63.2941        -7.06344
            3556         66.4280         46.7912         73.5717        -9.18279
            3557         67.0064         41.4435         75.9297        -7.15931
            3558         62.9430         49.8527         69.0113        -7.17313
            3559         62.8377         44.2704         70.8845        -5.83614
            3560         56.0210         54.9069         56.2437        -4.01648
            3561         60.0772         63.4127         53.4403        -6.35143
            3562         86.0824         50.9297         99.3890     93.6535E-03
            3563         54.9404         36.4590         62.3746        -4.92310
            3564         60.2005         68.7331         35.3652         5.16125
            3565         85.9773         99.2768         49.2107     2.87251E-03
            3566         54.8881         62.4558         35.1489         4.89138
            3567         56.6404         36.3885         64.3411        -5.33882
            3568         103.834         115.991         31.7443     798.500E-03
            3569         93.9259         105.552         31.2999         1.27397
            3570         62.3150         66.2817         50.4557        -9.80486
            3571         69.2257         77.7960         40.6851         9.12591
            3572         78.0371         87.7064         39.8887         10.0791
            3573         81.1570         90.9001         35.0611        -9.68520
            3574         89.9339         100.728         35.6944        -9.36921
            3575         78.8520         89.7341         40.1562        -7.21770
            3576         71.3072         81.2061         40.1235        -6.79876
            3577         84.3767         36.7615         95.3699         7.71448
            3578         85.4261         34.2823         96.8708         4.44767
            3579         91.7638         31.6832         103.087         4.32271
            3580         90.1952         34.1140         100.952         8.64179
            3581         78.3203         88.6477         40.1261         8.61489
            3582         70.7148         80.2527         40.2704         7.53204
            3583         65.1009         71.6706         47.2745        -9.21534
            3584         57.6264         61.9239         50.2209        -4.96556
            3585         61.1511         66.8968         51.1797         4.78414
            3586         57.0310         58.7416         52.0818         7.04309
            3587         44.3506         48.0459         29.3314        -8.31646
            3588         82.6933         95.4631         46.1715    -529.759E-03
            3589         75.5961         45.7054         87.1068        -2.54533
            3590         43.0284         28.0310         46.9850        -7.64089
            3591         29.5819         29.9293         21.9778        -7.16669
            3592         75.8862         87.4852         44.7484        -2.41269
            3593         44.3377         29.2424         48.1116         8.22378
            3594         82.7632         46.8172         95.5473     786.875E-03
            3595         83.2763         95.9849         44.2128         1.89907
            3596         48.7898         53.7687         29.7863         8.24040
            3597         91.3041         105.033         44.6101     123.125E-03
            3598         75.4836         44.8968         86.9642         2.81030
            3599         30.1912         22.1359         30.7420         7.23292
            3600         43.9828         30.6202         47.2263         8.41914
            3601         43.7114         46.9311         29.2674         8.66277
            3602         30.0221         23.3776         29.9940         7.21949
            3603         47.2573         51.8717         29.0089        -8.28258
            3604         43.8064         30.8578         46.6390        -8.77078
            3605         82.7255         48.3761         95.5164     446.820E-03
            3606         75.0193         86.4489         44.8747         2.58896
            3607         82.1798         94.8691         45.9704     648.483E-03
            3608         76.0833         46.5397         87.6692         2.37653
            3609         31.3168         32.7495         21.5181        -7.06847
            3610         90.8611         104.540         44.5814    -196.786E-03
            3611         75.2356         46.5643         86.6392        -2.58918
            3612         82.1246         47.3796         94.8221    -586.710E-03
            3613         82.9949         95.6439         43.9323        -2.01702
            3614         96.2189         31.7996         107.917        -3.29158
            3615         96.4019         31.4597         108.180         1.16290
            3616         89.3729         100.337         32.6399         6.57362
            3617         100.660         112.363         32.9848         6.46220
            3618         86.2612         99.5924         51.2109     11.0540E-03
            3619         67.1413         43.9398         77.0951        -2.65446
            3620         66.5293         76.4112         43.5369         2.49834
            3621         74.8855         86.3596         44.4818         2.05379
            3622         86.2699         52.3084         99.5731     92.2387E-03
            3623         66.8753         45.0720         76.6651        -2.49872
            3624         70.1297         79.5854         40.5629        -7.46565
            3625         77.0739         87.2888         40.6573        -8.50420
            3626         95.0792         106.705         31.0504        -1.02896
            3627         105.974         118.227         31.8565        -1.21069
            3628         14.1250         13.5581         13.2318        -2.58253
            3629         13.6066         12.4798         13.3801         2.40468
            3630         16.2505         15.9813         14.5242         3.15383
            3631         15.8361         15.3215         14.5321        -3.02798
            3632         87.5851         35.3814         99.1869        -5.49696
            3633         87.7912         33.9266         99.5566        -2.73102
            3634         90.5406         102.262         32.7580         2.37003
            3635         102.522         114.646         32.1082         2.38346
            3636         94.4915         106.069         31.1895        -2.12165
            3637         105.439         117.640         31.9566        -2.34059
            3638         26.9840         21.0636         26.7234        -6.66360
            3639         20.4557         19.3931         17.9824         4.75076
            3640         26.7166         27.3030         19.8133         6.23745
            3641         27.0246         21.4472         26.9265        -6.39818
            3642         22.9029         21.2014         20.5042        -5.45704
            3643         26.6660         28.0403         18.5735         5.79220
            3644         22.6923         21.9564         19.2503         5.32131
            3645         84.0655         49.5765         97.0624     167.737E-03
            3646         72.8091         83.7851         44.2995         3.18373
            3647         82.0011         94.6671         48.7104     543.857E-03
            3648         77.1852         48.8869         88.9219         1.59573
            3649         83.9147         96.8946         48.2045     251.718E-03
            3650         73.3795         47.2974         84.3747         2.52438
            3651         77.0804         88.8752         47.7418         1.45744
            3652         82.8405         50.4967         95.6024     373.105E-03
            3653         84.0414         96.9886         51.2872     135.181E-03
            3654         73.5251         49.3836         84.4476         1.42839
            3655         20.4043         11.8657         22.8535         2.85383
            3656         23.6958         18.3084         24.3093         5.17743
            3657         29.2514         19.2746         31.8556         5.27129
            3658         45.3932         50.2698         29.1431         7.05178
            3659         45.2465         51.5795         27.7160         4.00843
            3660         46.3518         31.0263         51.2987         6.97408
            3661         41.0143         45.3642         25.9800         6.52848
            3662         42.2856         28.1773         46.5664         6.77739
            3663         92.1144         106.087         46.3951    -12.3768E-03
            3664         84.7641         97.8167         46.6926        -1.14908
            3665         90.5016         104.340         47.1481    -216.579E-03
            3666         82.0510         49.8580         94.6935    -552.489E-03
            3667         73.0334         46.1046         83.9582        -3.16835
            3668         77.3797         49.3959         89.1293        -1.44243
            3669         83.9265         49.3938         96.9031    -191.506E-03
            3670         84.0815         52.5193         96.9770    -123.608E-03
            3671         80.3822         92.6727         44.4564        -2.35182
            3672         80.5643         92.9865         47.0565        -1.34358
            3673         31.5614         34.9001         18.2207        -5.22847
            3674         25.0860         28.2099         12.5141        -3.15860
            3675         24.9093         26.5417         16.9473        -5.11903
            3676         23.0485         23.7165         17.3503        -5.13862
            3677         84.1570         48.7848         97.1721    -430.669E-03
            3678         74.5483         85.8896         45.7829        -2.35394
            3679         22.6891         25.4566         12.3010        -3.08667
            3680         73.6348         46.1446         84.7621        -2.54753
            3681         84.0773         97.0578         46.6249    -253.450E-03
            3682         47.8084         30.5110         53.4596        -6.52937
            3683         84.5239         52.2198         97.5171    -199.653E-03
            3684         77.0093         88.8098         47.0481        -1.63985
            3685         28.9782         31.7645         18.0109        -5.11419
            3686         74.3586         85.5961         48.1102        -1.40969
            3687         81.9507         49.7180         94.5769    -690.693E-03
            3688         76.6010         46.8022         88.3026        -2.05456
            3689         81.9172         94.5611         49.0838    -527.092E-03
            3690         39.8352         24.6001         44.5016        -5.65773
            3691         40.7083         45.5648         25.1467        -5.61123
            3692         46.6468         28.7470         53.3091        -3.65821
            3693         47.2891         52.6212         30.3166        -6.91534
            3694         50.1119         56.2667         29.5197        -6.70397
            3695         45.2987         28.8244         51.5315        -4.12292
            3696         45.2311         30.3612         49.8588        -7.11633
            3697         41.0680         27.2642         45.2123        -6.62742
            3698         45.7611         51.1065         26.8999        -6.66721
            3699         47.2481         30.2618         52.6136         6.84590
            3700         74.3884         48.4501         85.5962         1.49070
            3701         74.5586         46.1255         85.8664         2.51735
            3702         29.1108         18.0496         31.9362         5.10443
            3703         83.9458         96.8419         45.8014         1.44506
            3704         76.9819         47.3428         88.7481         1.84669
            3705         22.7558         12.3741         25.5247         3.11144
            3706         43.7668         49.2164         25.0291         5.73470
            3707         23.7111         17.8528         24.3233         5.35754
            3708         90.4257         104.278         47.5244     210.163E-03
            3709         82.0382         49.8322         94.6764     664.593E-03
            3710         40.7074         25.1394         45.5711         5.59798
            3711         84.0910         47.5688         97.0882     499.893E-03
            3712         92.9389         106.985         46.1892    -78.0558E-03
            3713         52.2679         58.4979         31.1784         7.34168
            3714         81.3225         93.7858         44.9440         2.05910
            3715         92.9266         107.200         49.5407    -62.8873E-03
            3716         50.8262         58.0700         29.0064         4.25082
            3717         79.8638         90.3818         36.2592        -7.56719
            3718         88.9322         100.159         36.3424        -8.09033
            3719         99.4722         111.160         33.2007        -6.49081
            3720         56.5080         52.7276         58.1042         5.78954
            3721         63.7155         49.0504         70.3377         7.22091
            3722         63.3217         44.0410         71.7745         5.14681
            3723         84.9790         34.1810         96.2336         5.21395
            3724         89.4646         32.6937         100.935         3.95902
            3725         83.1238         37.3109         93.8107         8.50818
            3726         88.0639         35.0278         99.2660         7.10930
            3727         59.9108         54.8132         61.9171        -6.95127
            3728         63.1402         69.7283         49.0405         6.81143
            3729         59.1626         64.2710         48.2288         6.90753
            3730         60.4149         63.4276         53.1714         7.57710
            3731         56.3965         57.0423         53.8155        -5.78496
            3732         59.2837         47.4146         65.1971         5.97332
            3733         94.7178         31.8054         106.462        -1.97606
            3734         94.8697         31.7732         106.612         2.00157
            3735         59.3076         57.5261         58.8368         6.60845
            3736         73.4535         41.9934         81.5947        -11.5574
            3737         74.2016         37.4125         83.7435        -8.68435
            3738         91.4586         33.4037         103.091        -4.64769
            3739         91.9111         32.3516         103.684        -1.29296
            3740         76.4916         40.5429         86.2292        -9.44713
            3741         77.2201         36.8382         87.7669        -6.73395
            3742         86.2819         46.7731         99.5680     230.951E-03
            3743         56.9961         38.4280         63.5698        -7.60662
            3744         86.4722         99.7193         45.4447    -24.0781E-03
            3745         61.5270         69.6354         36.3060         6.98895
            3746         57.7178         64.7765         37.1704         7.33664
            3747         57.4396         37.1260         64.2433        -7.72148
            3748         61.7210         51.2494         66.9446        -6.64004
            3749         65.2618         47.6171         73.0228        -6.74592
            3750         65.1205         42.7707         73.9360        -5.97532
            3751         85.1160         96.3869         34.5439         5.49497
            3752         59.5256         40.4110         66.1436        -8.33083
            3753         66.3336         75.2292         38.6975         7.17411
            3754         86.6998         44.9674         99.9433     325.346E-03
            3755         86.9248         100.056         43.1350    -23.2029E-03
            3756         59.6854         38.5652         66.6815        -8.16986
            3757         59.7181         66.6825         38.6523         8.22863
            3758         55.8723         55.0318         56.4023        -2.30333
            3759         69.5241         40.4050         79.3395         6.10966
            3760         67.9347         45.6542         75.5723         9.48392
            3761         73.8669         41.4526         80.6825        -13.8182
            3762         74.5691         36.3932         83.1914        -10.6906
            3763         59.1314         60.8287         55.8814        -4.92774
            3764         61.4070         66.4284         51.1200        -6.84734
            3765         56.1567         53.7863         57.3000         4.44484
            3766         85.9071         50.0274         99.1955     95.6402E-03
            3767         54.2027         36.0461         61.2035        -5.74131
            3768         59.7900         67.9545         35.1915         6.05542
            3769         86.0343         99.3226         47.8816     4.92522E-03
            3770         54.1762         61.2997         34.7023         5.78483
            3771         55.1068         35.3845         62.2479        -6.12406
            3772         74.9057         38.0121         85.4448         6.13921
            3773         74.1898         41.7708         83.5266         9.51504
            3774         58.8889         56.9393         59.9089        -3.99645
            3775         59.1563         62.9379         48.4634        -8.93996
            3776         59.1357         56.5686         60.1699         5.17449
            3777         60.7349         52.2842         65.7953         4.69473
            3778         62.7588         39.8522         70.9766        -6.86454
            3779         63.3533         71.8641         40.0548         6.41101
            3780         86.7592         100.025         45.1794     10.9850E-03
            3781         69.3471         79.1339         39.7409         6.11985
            3782         86.6742         46.1809         99.9845     262.043E-03
            3783         57.7571         49.4151         63.1493        -2.98513
            3784         12.9795         13.3765         11.3356        -2.05518
            3785         13.3344         12.6099         12.9236         2.21680
            3786         11.4898         10.7065         11.4410         1.73037
            3787         11.4667         11.3441         10.7757        -1.72440
            3788         15.4565         16.6131         11.7036        -2.60554
            3789         15.0686         12.8263         15.4735         2.68246
            3790         14.6184         12.3445         15.0247         2.64821
            3791         14.9304         15.2598         12.6718        -2.75969
            3792         58.1882         48.8302         63.1692         5.64789
            3793         59.4372         54.5816         62.7755        -3.61710
            3794         95.3943         31.7604         107.110        -2.62759
            3795         95.5568         31.5778         107.309         1.55869
            3796         97.3956         108.927         33.7281        -7.23512
            3797         87.3296         98.2622         33.3800        -6.75193
            3798         80.9258         91.9940         39.3544        -7.25021
            3799         73.7174         83.9852         39.0552        -6.72025
            3800         85.3930         36.3518         96.6848         6.76317
            3801         87.2327         33.7448         98.8038         3.77475
            3802         75.9045         86.0460         41.1902         8.27042
            3803         68.1955         77.2758         41.5522         7.38185
            3804         61.7834         45.1874         69.6886         4.75511
            3805         62.4593         50.3775         68.2171         6.98341
            3806         58.6677         63.4187         48.8355        -6.63674
            3807         46.7461         49.9907         31.6414        -9.42912
            3808         83.2239         95.9974         44.2417    -402.513E-03
            3809         74.5176         44.8499         85.8028        -3.02666
            3810         83.2397         47.1913         96.1023    -672.213E-03
            3811         44.9976         29.7992         48.7314        -8.44977
            3812         74.2333         85.4903         43.9234        -3.04148
            3813         28.8488         27.7407         23.2094        -7.48056
            3814         46.6933         31.3669         50.1820         9.16886
            3815         82.9527         45.5575         95.7351     797.126E-03
            3816         92.1691         105.995         44.6902    -4.97783E-03
            3817         50.6734         55.3244         31.6456         9.24358
            3818         81.7375         94.1800         43.6451         2.36237
            3819         73.8013         43.9943         84.9149         3.48160
            3820         30.4467         24.0480         29.4876         7.92248
            3821         46.5532         32.5466         50.0061         8.84749
            3822         46.2662         49.5391         31.2408         9.27523
            3823         27.8141         22.2154         27.5011         6.70164
            3824         49.4566         54.5409         30.2017        -8.29298
            3825         46.2615         32.7544         49.2171        -9.25621
            3826         83.1389         47.5334         95.9966     343.087E-03
            3827         74.1154         85.3578         44.4060         2.92393
            3828         83.3044         96.1817         47.0958     384.771E-03
            3829         74.1668         46.1601         85.3415         2.95319
            3830         28.8897         30.0264         20.3907        -6.57040
            3831         92.4002         106.143         43.6915     60.8138E-03
            3832         73.6226         45.1760         84.6764        -3.39891
            3833         81.6105         94.0396         43.7328        -2.37257
            3834         82.9710         46.8403         95.7962    -359.693E-03
            3835         59.5898         62.3191         54.4667         5.62636
            3836         56.0243         56.6925         54.6085        -3.58196
            3837         91.0302         101.924         32.0527         6.77151
            3838         101.111         112.692         32.9615         7.12001
            3839         96.2173         107.882         31.0331        -1.18002
            3840         107.019         119.434         32.3316        -1.24208
            3841         89.0640         34.6455         100.743        -4.93815
            3842         89.5625         33.3246         101.376        -2.01131
            3843         72.2866         83.1772         44.8806         2.92513
            3844         84.5441         49.4335         97.6203     83.2662E-03
            3845         84.5409         97.6152         49.5581     132.635E-03
            3846         72.0662         47.4402         82.7887         2.34621
            3847         19.4645         14.1820         20.8246         3.62444
            3848         47.8247         54.0116         30.1435         5.45923
            3849         48.3577         31.6334         54.6172         5.24361
            3850         93.2427         107.472         48.1290     89.1118E-03
            3851         72.5710         46.6646         83.4019        -2.88639
            3852         84.5382         50.7511         97.5901    -88.4119E-03
            3853         78.9537         91.0642         45.1123        -2.15988
            3854         20.7151         22.7222         13.1606        -3.58956
            3855         72.9432         83.9697         46.1426        -2.25395
            3856         18.7236         20.1319         13.2082        -3.49886
            3857         84.4983         97.5663         48.0847    -167.689E-03
            3858         72.7159         45.8209         83.6649        -2.69742
            3859         48.4716         30.5821         54.8161        -5.34842
            3860         48.8114         55.1735         30.8459        -5.44199
            3861         84.8711         50.2958         97.9877    -264.163E-03
            3862         52.8226         60.1363         30.6273        -5.08704
            3863         47.9627         31.5039         53.9542        -5.67552
            3864         72.9708         46.4377         83.9685         2.37132
            3865         48.7882         30.8397         55.1517         5.42687
            3866         19.0160         13.5522         20.3602         3.62100
            3867         84.4865         49.0300         97.5533     372.220E-03
            3868         93.5866         107.833         47.8032    -112.266E-03
            3869         79.4588         91.6650         45.4964         1.97684
            3870         52.3944         59.2408         30.6587         6.10937
            3871         60.8333         53.2598         63.5551        -8.36199
            3872         59.8048         46.8419         64.9197         8.34347
            3873         93.5984         31.9746         105.390    -593.812E-03
            3874         93.6202         32.3237         105.333         3.14751
            3875         92.0481         33.0684         103.785        -3.65347
            3876         92.4786         32.3109         104.298    -296.782E-03
            3877         74.1974         41.8180         83.8475        -8.80243
            3878         74.9594         37.9362         85.4561        -6.29540
            3879         86.5585         47.1752         99.8968     232.220E-03
            3880         58.5396         39.4209         65.3633        -7.68527
            3881         86.6932         99.9340         44.9068    -25.1850E-03
            3882         63.8047         72.4018         37.4292         6.78261
            3883         59.0528         66.7039         37.8360         6.58437
            3884         59.0628         38.0180         66.2799        -7.52430
            3885         75.6047         40.0054         81.2393        -15.9773
            3886         76.3610         34.5894         84.0740        -12.5726
            3887         61.7226         51.6264         65.9010        -8.23977
            3888         62.5377         50.0670         69.0848        -5.49006
            3889         60.3122         66.9352         46.9890         5.61220
            3890         66.6222         75.0411         46.1873         6.83188
            3891         86.6836         98.0958         34.0157         4.86470
            3892         96.9253         108.845         33.8851         5.39289
            3893         61.9200         41.8102         69.1268        -8.11737
            3894         86.8234         44.0652         100.017     356.829E-03
            3895         66.7918         75.6570         39.0346         7.45436
            3896         86.9946         100.094         42.6966     8.44336E-03
            3897         60.9861         39.2129         68.3231        -8.01568
            3898         61.6562         69.2281         39.5293         7.80869
            3899         55.9746         53.8890         57.6341        -2.10446
            3900         56.0094         55.8493         55.3275         3.94866
            3901         25.0707         21.1515         23.7288         6.32447
            3902         23.5749         22.4013         20.0522        -5.80410
            3903         23.6604         20.3129         22.6363         5.61565
            3904         24.3554         24.7462         18.7177        -5.58721
            3905         72.7817         39.1302         83.2997         5.37587
            3906         72.5897         42.7534         82.2190         8.09500
            3907         27.4345         20.2196         28.0709        -6.41421
            3908         29.9028         29.4934         23.0804         7.57912
            3909         31.6541         33.0096         21.8451         7.21658
            3910         31.0522         25.0720         30.1104        -7.83005
            3911         57.8840         61.9914         49.9319         6.04920
            3912         58.5861         57.6158         59.2710        -2.20929
            3913         59.5561         64.6146         47.8011        -7.65033
            3914         59.2099         55.1637         62.0607         3.40319
            3915         58.7901         48.0931         65.2753        -2.69276
            3916         59.4548         62.6934         54.3427        -4.40473
            3917         86.5715         99.8726         46.2311     17.5609E-03
            3918         64.1745         40.6057         72.9907        -5.93687
            3919         65.1122         74.2738         40.9909         5.39416
            3920         70.8617         81.1715         40.4645         5.15628
            3921         86.4483         47.6702         99.7879     218.714E-03
            3922         64.8940         42.5348         73.8160        -5.56675
            3923         87.2918         34.5881         99.2115        -2.01163
            3924         86.3963         36.2145         98.2147        -4.60132
            3925         65.4105         73.0745         47.0399        -7.37835
            3926         62.0986         68.2566         50.1112        -5.95986
            3927         62.4182         39.8361         70.2210        -7.64776
            3928         62.7179         70.8156         39.8277         7.13805
            3929         86.8215         99.9708         43.4772     37.3730E-03
            3930         68.6064         78.0211         39.5623         6.85704
            3931         86.7253         44.4864         99.9394     313.050E-03
            3932         62.2636         41.5464         69.9051        -7.48843
            3933         81.0211         49.6851         93.4808    -764.995E-03
            3934         86.0538         99.2981         46.8917    -926.237E-03
            3935         34.2655         37.9492         19.7796        -5.57879
            3936         38.3092         25.3683         42.0149        -6.44558
            3937         41.4170         46.4056         23.6583         5.77493
            3938         89.4115         103.126         47.3370     362.452E-03
            3939         78.4710         48.0156         90.5059         1.48048
            3940         31.5642         19.4435         34.7639         5.34325
            3941         81.2670         93.8209         47.8552     746.164E-03
            3942         78.1521         48.9008         90.0865         1.43615
            3943         31.7277         20.8497         34.6303         5.61881
            3944         38.1826         42.0956         24.0583         6.31959
            3945         38.4454         24.0652         42.5452        -6.12855
            3946         81.2168         49.0380         93.7310    -879.994E-03
            3947         31.4666         34.6288         19.4229        -5.36449
            3948         78.4427         90.4949         47.7898        -1.26448
            3949         86.0012         47.5720         99.2763     173.478E-03
            3950         86.1866         99.4270         45.9951    -8.47230E-03
            3951         55.2980         37.2527         61.6587        -7.42206
            3952         55.0023         61.4216         35.5836         7.57295
            3953         59.2148         66.8111         35.1153         7.20364
            3954         55.2480         35.8589         61.5260        -7.90123
            3955         61.2812         45.7292         69.2947        -3.22774
            3956         102.926         115.107         31.9591     733.393E-03
            3957         92.8510         104.528         31.6990         1.12014
            3958         60.3061         46.4577         67.5236         4.32300
            3959         84.1739         37.0308         95.5873        -6.23730
            3960         85.4132         34.6537         97.0561        -3.55906
            3961         89.8728         101.707         33.3158         1.93785
            3962         100.883         113.070         32.6608         2.49827
            3963         85.9889         97.5002         37.5618         6.81144
            3964         59.8499         46.9657         67.0539        -3.12220
            3965         56.9992         60.1532         51.4646         5.08774
            3966         68.0336         44.9543         77.9652        -3.36524
            3967         67.5820         77.5689         43.2050         3.41984
            3968         85.9879         50.2608         99.2871     166.975E-03
            3969         74.4518         85.7627         43.1887         2.97490
            3970         86.0156         99.3210         49.2349    -1.26791E-03
            3971         67.4271         43.2072         77.3400        -3.63875
            3972         75.5910         85.9302         38.1591        -7.13913
            3973         84.0622         95.0574         38.0506        -8.15840
            3974         85.3835         49.8554         98.5903     37.3368E-03
            3975         51.7273         34.3961         58.1203        -6.15803
            3976         56.5747         64.3758         33.1595         5.52470
            3977         85.5628         98.7957         48.6666     36.2385E-03
            3978         51.4894         58.0209         32.9005         6.08829
            3979         52.2201         33.4712         58.7478        -6.36854
            3980         88.5487         99.7876         33.0937         5.49128
            3981         99.1659         111.000         33.2119         5.66899
            3982         93.0627         104.753         31.6254     174.193E-03
            3983         103.936         116.098         31.7113    -122.470E-03
            3984         104.852         117.022         31.6891        -1.15409
            3985         93.9579         105.597         31.2876    -888.686E-03
            3986         91.3276         32.2217         102.931         2.85163
            3987         89.9810         34.1358         101.302         6.51349
            3988         78.4082         49.6746         90.3549        -1.24023
            3989         89.3343         103.015         46.9098    -397.275E-03
            3990         42.4785         47.0448         25.1975        -6.87270
            3991         78.1099         90.0958         47.9223         1.28527
            3992         81.7355         50.2524         94.3048     586.849E-03
            3993         85.7938         98.9604         46.0065         1.09989
            3994         81.2274         49.5887         93.7267     807.180E-03
            3995         38.5299         23.7198         42.9623         5.63384
            3996         39.3053         26.3737         42.8768         6.87330
            3997         77.6053         48.0954         89.4717        -1.57184
            3998         81.0707         93.5710         48.8889    -678.795E-03
            3999         38.5099         42.9305         23.7165        -5.64724
            4000         80.1862         92.3751         43.4637        -2.74009
            4001         83.3951         48.1693         96.2945    -294.826E-03
            4002         73.3532         45.5987         84.3436        -3.34516
            4003         92.8596         106.797         45.1129     81.4059E-03
            4004         26.5626         27.3566         19.4549        -6.08048
            4005         46.2028         31.7018         50.2638        -8.09728
            4006         51.0380         56.7801         30.7127        -7.77790
            4007         26.4321         21.0855         25.8687         6.59102
            4008         73.7567         45.0363         84.8928         3.06842
            4009         80.4715         92.7400         43.9255         2.52682
            4010         52.4535         58.0674         31.9427         8.44675
            4011         92.9508         106.861         44.7443    -99.2493E-03
            4012         83.7987         46.1090         96.7199     607.569E-03
            4013         47.7179         31.2132         52.3490         8.08900
            4014         83.8013         96.7477         46.8590     299.957E-03
            4015         73.2264         46.4575         84.1956         2.96789
            4016         73.2914         84.3560         44.0327         3.22664
            4017         83.9330         48.1863         96.9163     182.247E-03
            4018         25.6701         21.1713         25.0397         6.16077
            4019         46.6313         50.9698         30.6054         8.16113
            4020         48.0119         32.9002         52.4185         8.15676
            4021         73.7893         84.9724         44.7478        -2.85797
            4022         25.1485         24.6676         20.1938        -6.17252
            4023         83.6638         96.5450         45.3404    -333.436E-03
            4024         73.8077         45.2289         84.9591        -2.97074
            4025         47.2789         30.6988         52.1195        -7.66913
            4026         83.9360         47.5026         96.9089    -531.036E-03
            4027         47.7850         52.3093         31.3599        -8.24839
            4028         58.9333         38.5964         65.2774        -8.97750
            4029         58.5740         64.8648         38.4346         8.93132
            4030         63.7181         71.6000         38.0586         8.36616
            4031         86.8643         99.9110         42.2911    -72.5306E-03
            4032         59.4334         40.8520         65.6311        -8.89125
            4033         86.7052         43.8695         99.8702     395.336E-03
            4034         85.5362         34.3025         97.0194        -4.28240
            4035         84.2161         36.8918         95.3591        -7.21013
            4036         58.9075         56.9204         59.9028         4.14327
            4037         94.7935         106.563         34.5559         6.28373
            4038         65.6527         47.2349         74.0414        -5.60828
            4039         66.4644         42.3468         76.1419        -4.12520
            4040         57.7500         62.5543         49.9537         4.14202
            4041         96.2602         107.887         34.0662        -6.86172
            4042         85.5246         96.5717         34.1899        -6.35575
            4043         93.4196         105.029         31.4610        -1.88182
            4044         86.0901         99.3818         47.7025    -97.5395E-06
            4045         66.3969         41.9066         75.9026        -4.89857
            4046         86.0571         48.6864         99.3626     212.635E-03
            4047         73.7491         84.8257         42.1766         3.75596
            4048         66.9534         76.6938         42.2385         4.32664
            4049         67.5504         44.1872         77.2901        -4.16445
            4050         103.627         115.757         31.8591        -1.98790
            4051         92.9091         104.598         31.6854    -757.288E-03
            4052         68.9942         79.2432         43.7762         3.33286
            4053         69.3909         45.5177         79.5797        -3.29591
            4054         85.6729         98.9239         48.8404    -27.7439E-03
            4055         70.3061         45.0839         80.8011        -2.85201
            4056         85.6486         49.7482         98.8970     210.192E-03
            4057         76.1059         87.6896         43.6326         2.88497
            4058         65.2695         74.2417         43.4170         5.37269
            4059         73.5524         83.7688         42.4040         6.99497
            4060         61.7701         50.9924         67.5840        -5.59728
            4061         74.5234         41.7233         84.7380        -7.48184
            4062         75.2221         38.1577         86.0424        -5.23571
            4063         62.5671         49.9203         69.4799        -4.60462
            4064         50.7457         57.3926         32.2574        -5.53825
            4065         71.6220         45.9920         82.3665        -2.47711
            4066         50.2503         33.0481         56.8219         5.22937
            4067         85.1252         50.6479         98.2787     6.62728E-03
            4068         50.7031         32.2492         57.3393         5.54214
            4069         77.9280         89.8609         44.7042         2.34418
            4070         54.8839         62.5654         31.9859        -5.03073
            4071         93.8102         108.096         47.9910     120.019E-03
            4072         71.9502         43.1231         81.5111        -7.92012
            4073         72.7643         39.0671         83.2096        -5.63715
            4074         103.246         115.312         32.0777        -3.31101
            4075         92.6064         104.170         31.7337        -2.78357
            4076         86.4974         99.6489         43.9622    -49.0298E-03
            4077         56.4139         62.7460         36.6863         8.19549
            4078         86.1868         45.4712         99.3984     291.055E-03
            4079         56.4658         36.8299         62.6390        -8.47130
            4080         56.5656         38.7243         62.3903        -8.63257
            4081         60.0974         67.5840         35.8165         7.78668
            4082         85.6123         98.7684         45.7707     32.9244E-03
            4083         52.8714         34.4804         58.5233        -8.15314
            4084         57.6963         64.7320         34.4852         7.78244
            4085         84.5183         96.1741         38.1736         5.99890
            4086         76.3530         87.3396         38.2394         5.13589
            4087         83.3247         94.6662         38.5114         6.92626
            4088         74.7877         85.3417         38.6939         6.19077
            4089         58.8667         60.7940         56.0882        -3.33262
            4090         55.9319         54.7170         56.6308         2.94686
            4091         59.8887         64.4403         53.0607        -3.55519
            4092         56.3166         58.9578         52.8217         2.56028
            4093         17.7917         18.0880         14.7812        -3.57049
            4094         17.6691         16.1685         16.8219         3.64163
            4095         18.3113         15.4205         18.2545         3.90614
            4096         18.1464         18.3782         14.9222        -3.79012
            4097         59.6418         65.5622         47.6544        -6.11375
            4098         57.9329         49.1479         63.4118         3.47427
            4099         50.3717         32.0644         56.8354        -5.81138
            4100         71.7649         82.5685         45.4281        -2.57298
            4101         16.3947         17.4487         12.4014        -2.99549
            4102         49.6897         56.1421         31.5103         5.57626
            4103         17.1652         13.3633         18.1206         3.15495
            4104         71.7928         45.6855         82.5672         2.69644
            4105         16.4623         12.5810         17.4480         3.04445
            4106         85.0587         98.2171         49.2490     81.7103E-03
            4107         49.8382         32.9033         56.1208        -5.72233
            4108         18.0556         19.6911         12.3190        -3.11361
            4109         85.0041         50.5577         98.1392    -20.3665E-03
            4110         78.4213         89.6108         40.4537        -6.01084
            4111         71.6839         82.0757         40.1884        -5.33983
            4112         87.8413         35.1796         99.2563         6.28456
            4113         82.5207         37.8304         93.8521         6.34460
            4114         88.9788         33.0526         100.558         3.49041
            4115         84.4880         35.0270         96.1170         3.63041
            4116         57.6846         62.6870         50.0042        -3.26855
            4117         82.7330         95.4608         44.6740    -523.759E-03
            4118         74.7103         44.2489         86.0219        -3.17630
            4119         82.4347         46.1026         95.1554    -892.409E-03
            4120         43.6865         29.5567         46.5573        -9.00766
            4121         75.3444         86.8279         43.9315        -2.72002
            4122         43.4738         45.7754         29.9319        -9.46587
            4123         31.0706         30.2259         24.3137        -8.07306
            4124         48.1624         51.9646         30.6794         9.52746
            4125         91.2936         104.888         43.3158     91.9686E-03
            4126         43.6057         29.9004         46.0306         9.39743
            4127         82.4226         45.5513         95.1274     917.976E-03
            4128         32.1513         24.5512         31.7283         8.23064
            4129         83.5117         96.2114         43.5852         1.94036
            4130         74.8097         43.9901         86.1362         3.21769
            4131         43.8813         31.2929         46.3250         9.12804
            4132         44.8020         47.5101         30.6038         9.44121
            4133         31.7398         25.9792         30.3549         8.15829
            4134         47.2550         51.1677         29.8344        -9.15374
            4135         45.1110         32.4888         47.3409        -9.59819
            4136         82.6688         46.5496         95.4444     422.957E-03
            4137         82.3027         94.9673         44.5732     624.893E-03
            4138         74.6910         45.6565         85.9880         2.95592
            4139         75.4201         86.9212         44.1260         2.66367
            4140         32.4625         33.0522         23.4674        -7.88017
            4141         82.2666         46.4031         94.9794    -518.301E-03
            4142         91.7216         105.388         43.5884    -32.6216E-03
            4143         74.5342         45.5667         85.7964        -3.02556
            4144         82.6729         95.2071         42.9779        -2.24407
            4145         55.8626         56.3340         55.1901        -1.84783
            4146         92.7656         104.222         31.6718        -3.70042
            4147         104.590         116.708         32.0980        -3.37100
            4148         90.1536         34.1033         101.917        -4.21637
            4149         93.6963         32.2302         105.435        -2.69996
            4150         93.9869         31.8886         105.766         1.00157
            4151         90.6711         33.0345         102.532        -1.19589
            4152         88.6522         100.065         33.1857         4.67673
            4153         98.9835         110.912         33.2315         5.08846
            4154         93.1462         32.6597         104.747         4.41958
            4155         57.1138         50.4920         61.9401        -1.07289
            4156         28.1843         24.2695         25.7107         7.48977
            4157         26.0363         23.7745         22.7342        -6.74069
            4158         27.8854         25.6498         24.1930         7.18626
            4159         28.4687         27.0320         23.6215        -7.30969
            4160         75.2632         38.1714         86.1126         5.13653
            4161         70.1776         40.2929         80.3294         5.33146
            4162         74.4707         41.7323         84.5591         7.80824
            4163         69.4123         44.6671         78.3682         7.78516
            4164         28.4881         19.0331         30.4546        -5.81586
            4165         28.0672         28.9572         20.3016         6.45425
            4166         28.3239         30.0209         19.0896         6.04594
            4167         28.5540         21.8204         28.9955        -6.61199
            4168         85.6494         35.2926         97.5644        -2.21654
            4169         84.5358         37.3393         96.4332        -4.22200
            4170         64.0365         71.4297         48.1680        -6.29653
            4171         58.9354         47.9578         65.6505         1.99150
            4172         83.7925         37.5388         95.5617        -4.73466
            4173         83.9197         35.6518         95.7011        -2.86852
            4174         90.5723         102.416         33.0176         1.38232
            4175         101.453         113.686         32.5141         1.56512
            4176         10.7483         11.9708         7.92029        -1.19832
            4177         10.4941         8.88736         11.2213         1.28480
            4178         9.94256         7.00796         11.1737         1.03202
            4179         9.90193         11.1262         6.99642        -1.02447
            4180         88.4233         99.9867         33.4449         3.95074
            4181         100.481         112.513         32.7526         4.06443
            4182         72.2878         82.9630         41.1530         4.59203
            4183         66.1753         43.1799         75.4497        -5.16115
            4184         86.3718         99.6339         45.9560     18.7739E-03
            4185         66.6439         41.6853         76.0537        -5.47438
            4186         66.3497         75.8023         41.5316         5.15134
            4187         62.1551         45.1667         70.7272        -2.26572
            4188         57.6656         37.7412         63.8442        -8.83942
            4189         59.4451         65.8011         39.1589         9.07768
            4190         57.5874         63.8708         37.6252         8.64723
            4191         61.7318         69.1093         37.1586         8.60152
            4192         65.6217         74.0275         38.8216         8.01853
            4193         87.0482         100.076         41.9118    -43.4611E-03
            4194         86.6028         99.6417         42.4942    -88.6052E-03
            4195         58.0698         40.2035         63.7598        -9.19856
            4196         60.7431         41.3912         67.4624        -8.51786
            4197         86.8938         42.9706         100.004     431.315E-03
            4198         86.4113         43.7350         99.5323     419.024E-03
            4199         83.1297         35.2445         94.5532        -4.49215
            4200         81.7204         38.1669         92.8882        -6.79581
            4201         83.1143         94.3404         35.3700         5.58757
            4202         84.5419         95.9398         34.9244         4.96005
            4203         92.2050         103.961         35.4308         6.37441
            4204         94.7754         106.707         34.6163         5.52307
            4205         58.6226         58.3294         58.5194         2.77889
            4206         60.1054         67.1860         47.2131         3.72756
            4207         66.6139         75.6935         46.2505         4.81867
            4208         59.9490         53.6872         63.8425        -4.59070
            4209         75.6769         86.3621         38.3420        -6.04859
            4210         82.8419         94.0877         38.6558        -7.14256
            4211         62.0306         50.6274         68.2219         5.30185
            4212         86.6387         98.2035         34.2247         4.16369
            4213         98.7686         110.795         33.2986         4.48203
            4214         92.6045         31.9461         104.294         1.78663
            4215         91.9510         33.2471         103.406         5.62154
            4216         91.9551         33.1753         103.559         4.69789
            4217         92.3068         32.2105         104.075         1.11199
            4218         57.9395         49.1981         63.7800         1.47165
            4219         66.8495         76.5586         42.6420         4.23944
            4220         64.1031         48.4288         72.0598        -4.50977
            4221         50.6236         56.6217         32.5363        -6.84043
            4222         71.6758         45.1413         82.4154        -3.03945
            4223         85.2795         98.4642         48.1501    -70.0916E-03
            4224         49.0854         32.6787         54.8240         6.51640
            4225         84.9342         49.2822         98.0732     18.4983E-03
            4226         70.2099         80.6800         44.0310         3.35939
            4227         50.5482         32.4836         56.5485         6.80935
            4228         85.2474         48.9963         98.4333     279.635E-03
            4229         77.9622         89.8354         43.8117         2.83334
            4230         53.4564         60.3888         31.4342        -6.34926
            4231         93.3127         107.433         46.5893     105.756E-03
            4232         70.5492         45.7832         80.9583        -3.33558
            4233         69.3442         44.7032         78.1665        -8.05254
            4234         70.1625         40.1645         80.1593        -5.87767
            4235         102.736         114.845         32.0639        -2.55617
            4236         92.4168         104.089         31.8714        -1.63824
            4237         71.1183         81.7469         40.6279        -3.90862
            4238         78.2448         89.6717         40.5912        -4.94840
            4239         85.2579         98.4138         46.9856     77.0877E-03
            4240         50.7114         56.5096         32.7246         7.22645
            4241         85.1030         48.5378         98.2661     23.9097E-03
            4242         51.3449         33.2798         57.0476        -7.59064
            4243         51.1773         34.4560         56.8572        -7.26238
            4244         57.0818         64.4895         33.7509         6.75497
            4245         87.0285         98.7727         37.2779         6.06385
            4246         78.1455         89.2761         37.5195         5.11164
            4247         61.1826         67.1454         51.0818        -4.29579
            4248         56.9024         60.6870         51.4100         3.26074
            4249         20.3386         19.6612         17.7074        -4.53484
            4250         20.2522         19.2066         18.0850         4.52918
            4251         18.0889         16.9808         16.5233         3.93364
            4252         19.9580         18.6257         17.9616        -4.59462
            4253         60.9875         66.4592         46.3244        -8.85766
            4254         57.0280         50.6680         61.3387         3.18389
            4255         50.9198         32.2106         58.0730        -4.21882
            4256         85.4872         52.0778         98.6607    -136.859E-03
            4257         71.6362         82.4061         46.4404        -1.93566
            4258         14.1477         15.8611         8.80168        -1.89008
            4259         49.6458         56.6241         31.2002         4.14937
            4260         15.2928         9.81590         17.0759         2.12508
            4261         94.1191         108.538         49.4760    -105.506E-03
            4262         56.0745         64.2312         32.6555         4.07539
            4263         71.6584         46.6983         82.4011         2.01992
            4264         14.2093         8.87467         15.9208         1.91177
            4265         70.6211         47.5303         81.0524         1.92921
            4266         85.1475         98.2934         51.1182     45.9702E-03
            4267         49.7165         32.3703         56.5829        -4.23756
            4268         16.5358         18.6264         9.07690        -2.09537
            4269         85.1766         52.2479         98.2882    -8.43425E-03
            4270         77.3127         89.1948         45.6584        -1.76525
            4271         76.6123         87.6684         41.2017        -5.72145
            4272         69.9745         80.0279         40.9502        -5.54387
            4273         82.7644         37.6000         93.8433         7.26005
            4274         86.7201         35.8439         98.3377         5.48015
            4275         88.0263         33.6831         99.7307         3.00651
            4276         83.8948         35.0087         95.3795         4.26594
            4277         56.9853         61.1409         51.1752        -2.52372
            4278         60.9546         68.1048         46.4246        -5.28180
            4279         89.9993         101.580         32.7870         3.50989
            4280         101.976         114.032         32.3204         3.50098
            4281         75.9770         45.0752         87.5579        -2.64867
            4282         81.8602         94.4883         45.3857    -731.749E-03
            4283         42.5099         45.7267         28.3128        -8.35047
            4284         42.5555         28.2807         45.8360         8.29680
            4285         84.7423         97.6536         44.1639         1.56499
            4286         41.9467         29.6894         44.4160         8.64036
            4287         45.0183         48.7949         28.2559        -8.68060
            4288         82.1423         47.3011         94.8424     583.965E-03
            4289         76.3816         88.0787         45.2773         2.17753
            4290         90.0048         103.673         45.5545    -341.873E-03
            4291         76.0545         46.2944         87.6390        -2.43010
            4292         56.5134         59.9569         52.1562        -1.38842
            4293         57.5666         49.7737         62.0649        -4.95449
            4294         27.6426         25.1574         23.9396         7.31138
            4295         28.1395         23.7177         26.1647        -7.42241
            4296         28.6299         27.9719         22.7616         7.20741
            4297         28.7368         25.1916         26.1535        -7.43924
            4298         24.9192         17.8087         26.0848        -5.41409
            4299         31.7603         32.0357         23.5039         7.80933
            4300         25.8575         27.6322         17.4488         5.25224
            4301         32.9807         35.0829         21.6144         7.02451
            4302         26.7975         29.2345         16.5464         4.94617
            4303         32.4678         25.2519         32.2719        -7.95717
            4304         26.0953         18.5726         27.6471        -5.32730
            4305         86.8637         35.2636         98.9101        -1.47200
            4306         86.2203         36.6550         98.2368        -3.68525
            4307         65.9557         74.4134         46.6697        -5.98855
            4308         89.2988         101.249         33.9375         1.55624
            4309         91.8797         103.634         32.2175     946.021E-03
            4310         100.521         112.789         32.9090         1.99534
            4311         102.079         114.307         32.2817     777.528E-03
            4312         80.4815         36.2194         91.7692        -4.74960
            4313         81.2068         38.3185         92.0657        -7.70220
            4314         58.9374         60.8214         56.0177         3.80635
            4315         58.7807         65.2637         48.5457         1.57129
            4316         64.7935         73.4596         47.5076         3.40595
            4317         77.6817         88.1006         37.2011        -7.44391
            4318         85.8130         97.0170         37.4838        -7.81230
            4319         75.2221         41.4257         85.9015         6.37031
            4320         75.7726         38.2364         86.8774         4.22945
            4321         27.0937         25.5707         22.5925        -7.01166
            4322         29.1369         23.9602         27.5096         7.68609
            4323         27.6560         23.8586         25.7105         7.02401
            4324         28.3175         28.2282         21.8124        -6.95209
            4325         79.9552         91.0018         39.7515         7.04204
            4326         72.2654         82.5436         39.8193         6.05781
            4327         86.2741         99.2759         42.4681    -95.5058E-03
            4328         86.1665         44.3915         99.3082     357.178E-03
            4329         55.2207         60.7119         36.4598         9.08522
            4330         56.5693         39.4544         61.7142        -9.48138
            4331         55.5078         36.6999         60.9432        -9.25134
            4332         59.9564         66.9267         36.2840         8.70674
            4333         83.2774         37.6327         94.8859         5.36636
            4334         83.3825         35.5399         95.0229         3.52706
            4335         64.8063         43.3717         74.1821        -3.32524
            4336         58.6050         59.4799         57.3781        -2.40031
            4337         55.9089         54.1178         57.5103     809.839E-03
            4338         57.9802         63.6339         49.5355        -1.89780
            4339         70.6735         43.8997         80.4309         6.56561
            4340         70.8396         40.1936         81.3028         4.48839
            4341         62.8639         49.5195         70.2288         3.88614
            4342         55.8658         56.8818         54.7849     327.779E-03
            4343         92.3175         32.8667         104.126        -2.73088
            4344         92.7335         32.3651         104.572     615.601E-03
            4345         84.2505         97.2004         45.1283     221.050E-03
            4346         73.0406         45.7821         83.9629         3.32476
            4347         48.2022         52.0619         32.2528         9.16341
            4348         46.9709         31.6389         50.4047        -9.29809
            4349         83.5280         45.7987         96.4007    -668.812E-03
            4350         72.8900         83.8606         43.7211        -3.43040
            4351         83.5461         47.2874         96.4633    -241.630E-03
            4352         79.9037         91.9807         42.6434        -3.05861
            4353         47.5146         33.1652         51.1548        -8.89666
            4354         72.8254         43.9623         83.7324         3.68841
            4355         52.4938         57.4133         32.7802         9.43040
            4356         92.9641         106.733         43.4537    -140.713E-03
            4357         79.5741         39.2699         90.7328        -6.33873
            4358         80.3751         36.5776         91.8492        -3.89752
            4359         62.4232         70.0950         40.0204         7.89397
            4360         86.9690         100.029         42.3152     46.9566E-03
            4361         62.0635         39.9945         69.4532        -8.29283
            4362         86.8866         43.2749         100.023     367.501E-03
            4363         67.5416         76.5274         39.4173         7.48772
            4364         62.8334         42.1500         70.3956        -7.81132
            4365         91.9665         103.728         32.1918    -631.814E-03
            4366         63.3178         71.7513         44.6794         4.84593
            4367         71.8535         81.6640         43.1807         7.20301
            4368         67.8962         45.6328         77.1271        -5.72928
            4369         68.7935         41.2169         79.0047        -4.01256
            4370         75.9000         86.8655         38.4402        -5.05529
            4371         83.6288         95.2187         38.4888        -6.07299
            4372         55.8301         55.0301         56.5229        -1.19837
            4373         83.9892         36.0189         95.8955        -2.23095
            4374         83.1632         38.1840         95.1124        -3.80766
            4375         92.8071         103.991         31.6803         5.47251
            4376         102.468         114.271         32.7790         6.13876
            4377         56.5312         51.7467         60.3150    -649.215E-03
            4378         61.8016         45.5238         70.3392    -712.782E-03
            4379         59.4894         60.6225         55.7457         6.72697
            4380         59.6762         47.2156         66.9770        -1.67102
            4381         95.6064         107.416         34.2961        -6.05871
            4382         84.4658         95.7651         34.8518        -5.36818
            4383         44.7309         31.5501         46.3395         10.3298
            4384         82.2026         44.4413         94.8367     985.199E-03
            4385         83.5078         96.1109         42.2772         2.01438
            4386         48.4927         51.4068         32.0443         10.4776
            4387         91.2995         104.757         42.1242     13.3200E-03
            4388         74.1711         43.3073         85.3471         3.55234
            4389         32.5936         26.3753         30.7366         8.80592
            4390         47.4105         50.4810         30.9888        -10.0575
            4391         45.7467         34.2366         46.6750        -10.6467
            4392         33.1696         33.0367         24.8847        -8.39954
            4393         91.0531         104.518         42.3767    -74.6232E-03
            4394         75.0582         44.7482         86.4639        -2.85337
            4395         81.8224         45.0448         94.4412    -520.042E-03
            4396         82.2694         94.6880         42.2005        -2.40994
            4397         44.4002         45.7839         31.5313        -10.4021
            4398         81.6784         94.1776         42.8571    -680.943E-03
            4399         74.9601         43.6412         86.3117        -3.24019
            4400         82.0010         44.3973         94.6045        -1.03543
            4401         44.7891         30.9305         47.1052        -9.78869
            4402         74.6950         86.0377         43.2258        -3.02396
            4403         31.9963         29.9548         26.1905        -8.66147
            4404         44.8068         33.6567         45.5265         10.5591
            4405         45.3977         47.1163         32.0075         10.4020
            4406         33.4466         28.5351         30.6147         8.95837
            4407         82.1067         45.5963         94.7806     504.804E-03
            4408         74.8925         86.2749         43.0912         2.96442
            4409         81.9624         94.5430         43.7120     675.295E-03
            4410         74.1239         45.0559         85.3004         3.23788
            4411         59.0974         62.2427         54.8574         2.79821
            4412         92.3332         103.909         35.3210        -7.09177
            4413         79.7326         90.5466         36.5314        -6.62956
            4414         49.5070         54.4120         32.4161        -8.23204
            4415         84.3358         46.6174         97.3485    -496.175E-03
            4416         84.8706         97.8912         44.9488    -117.208E-03
            4417         72.4271         44.4069         83.2763        -3.50314
            4418         48.6208         32.4299         52.6452        -9.09303
            4419         71.9512         82.7371         43.8920        -3.48967
            4420         49.9173         34.3764         54.4451         8.51182
            4421         49.2625         54.2203         32.1919         8.08462
            4422         71.6775         82.3701         43.3030         3.85402
            4423         84.8768         47.9479         97.9997    -975.573E-06
            4424         84.6794         97.7464         46.6921     159.301E-03
            4425         71.9390         45.8612         82.6245         3.38747
            4426         49.3951         32.2655         54.3729         8.09872
            4427         85.0339         46.6042         98.1443     387.846E-03
            4428         93.6467         107.625         44.7452    -162.656E-03
            4429         79.3912         91.4314         43.1713         2.98338
            4430         53.9561         60.4829         32.1691         7.39156
            4431         71.9533         44.0741         82.6897         3.72583
            4432         51.2184         56.1670         31.7321        -9.01763
            4433         48.1821         32.9740         52.6580        -8.11805
            4434         93.8850         107.818         44.1233     197.572E-03
            4435         70.8142         44.7140         81.1808        -4.27827
            4436         84.0362         47.9117         97.0337    -153.617E-03
            4437         78.7301         90.6592         43.1170        -3.12069
            4438         94.7933         106.863         34.6916         4.82421
            4439         83.1333         94.7184         35.8127         4.04733
            4440         37.4613         24.3179         40.6522         7.02287
            4441         81.0677         48.1554         93.5737         1.01285
            4442         87.1490         100.447         45.1982     919.861E-03
            4443         42.0697         46.3114         25.3243         7.22491
            4444         89.3789         102.990         45.7745     445.296E-03
            4445         79.4342         47.4665         91.6591         1.42072
            4446         32.9667         21.8388         35.3102         6.68810
            4447         39.2985         26.1504         42.1458        -7.88221
            4448         80.7859         93.2631         47.3642    -878.583E-03
            4449         80.8103         47.0545         93.2801        -1.19027
            4450         37.3656         40.5183         24.2867        -7.03957
            4451         32.7692         35.0198         21.8080        -6.72204
            4452         79.2786         91.4909         47.4952        -1.16986
            4453         40.1804         43.6145         24.9563        -7.70015
            4454         37.0128         25.5049         39.6702        -7.24563
            4455         37.6317         26.4432         39.8969         7.74901
            4456         36.7972         39.7544         24.0500         7.10167
            4457         35.1668         38.0414         21.9660        -6.89615
            4458         33.0244         23.4105         34.8084         6.97165
            4459         88.1851         101.636         45.5428    -685.095E-03
            4460         78.1711         48.3545         90.1321        -1.53439
            4461         79.9324         48.4022         92.2330        -1.12130
            4462         85.8665         99.0110         45.4277        -1.16176
            4463         81.0444         48.8966         93.5353     820.671E-03
            4464         77.7266         89.6708         46.4990         1.63543
            4465         80.5206         92.9555         46.6708     995.422E-03
            4466         78.2910         47.4190         90.3052         1.64011
            4467         64.9661         72.8810         39.2878         8.73219
            4468         60.6786         41.9230         67.0396        -8.95447
            4469         86.9274         42.0115         99.9476     530.408E-03
            4470         58.8655         39.4317         64.5515        -9.81112
            4471         59.2686         65.1037         39.8945         9.66053
            4472         87.1949         100.110         40.7570    -72.9907E-03
            4473         84.8460         49.3427         97.9709    -34.9870E-03
            4474         49.8622         33.3229         55.6121        -6.73965
            4475         71.9733         45.0306         82.7642         3.13141
            4476         54.9118         62.2657         32.2172         5.95389
            4477         84.8756         97.9949         47.7415     120.112E-03
            4478         49.5547         55.5036         31.7243         6.56741
            4479         71.9375         82.7598         44.7823        -2.97431
            4480         49.6831         31.9953         55.3640        -7.09300
            4481         99.6021         111.812         33.1424         2.93774
            4482         88.9502         100.779         33.7236         2.38067
            4483         72.3218         45.0634         83.0621        -3.80714
            4484         93.0046         106.814         43.7689     132.385E-03
            4485         84.4269         45.6795         97.4197     507.038E-03
            4486         48.0979         32.1429         51.9744         9.11971
            4487         83.6587         46.9328         96.5871     203.955E-03
            4488         72.8504         83.8009         43.4166         3.55595
            4489         48.4628         33.9904         52.0656         9.16888
            4490         73.2296         44.2611         84.2338        -3.48672
            4491         84.1041         97.0149         44.7100    -239.730E-03
            4492         48.2234         51.8754         32.4595        -9.39274
            4493         89.4646         103.262         49.1029     247.707E-03
            4494         79.4104         50.2402         91.5320     897.893E-03
            4495         37.6834         21.9140         42.7686         3.99550
            4496         40.8926         46.4737         22.0036         4.11614
            4497         87.0490         100.484         48.3375     590.866E-03
            4498         81.4130         51.2563         93.8683     560.763E-03
            4499         32.9385         18.5840         37.2149         3.92569
            4500         37.6748         42.7549         21.9126        -4.00494
            4501         80.9917         50.5648         93.4043    -700.751E-03
            4502         32.9084         37.1737         18.5775        -3.93925
            4503         81.3272         93.8063         50.6115    -459.395E-03
            4504         78.6312         49.4886         90.6400        -1.12159
            4505         36.6245         21.6240         41.2718        -4.57729
            4506         79.3719         91.5166         49.8432    -762.476E-03
            4507         39.3288         44.4222         21.4912        -4.69885
            4508         35.6554         21.8013         40.1398        -4.46871
            4509         33.4877         37.7797         17.4416        -4.03512
            4510         36.0171         22.2710         40.4391         4.70927
            4511         35.6101         40.1661         20.7768         4.38212
            4512         80.6445         51.5390         92.9271    -628.328E-03
            4513         78.6213         51.2269         90.5042    -884.980E-03
            4514         86.1799         99.4945         48.5889    -651.074E-03
            4515         88.6112         102.281         48.8073    -364.352E-03
            4516         30.6345         18.1592         34.4142         4.05437
            4517         78.4252         90.4012         49.5314     906.886E-03
            4518         78.8388         50.5993         90.8158     994.513E-03
            4519         80.7055         93.1238         49.3828     680.624E-03
            4520         81.1612         51.1819         93.5715     604.349E-03
            4521         89.7098         33.7614         101.676    -962.280E-03
            4522         89.1415         34.8084         101.048        -3.70292
            4523         74.2511         85.2955         39.3208         3.90097
            4524         81.9529         93.6344         39.1715         5.23677
            4525         88.0301         34.8155         100.089        -1.15173
            4526         87.4252         35.9998         99.4492        -3.52086
            4527         68.8944         76.2789         44.3722        -10.7043
            4528         58.4215         58.9734         57.8347    -595.217E-03
            4529         33.1382         23.9226         33.8553        -7.94941
            4530         33.5127         34.3960         24.0074         7.94595
            4531         35.5001         37.2004         23.9471         8.03675
            4532         34.0237         25.6940         34.4461        -8.08194
            4533         94.3496         108.541         46.1523     167.494E-03
            4534         57.0423         64.6715         33.5912        -6.20343
            4535         85.4371         50.0386         98.6508    -42.9158E-03
            4536         52.1308         33.6249         58.2595         7.11316
            4537         52.3730         34.9941         58.6704         6.56358
            4538         52.2484         58.4070         33.6877        -7.10041
            4539         77.3462         89.1760         44.4611        -2.45929
            4540         70.6256         46.5782         81.0741         2.69112
            4541         70.5904         44.6711         81.1139         3.23907
            4542         94.1537         108.461         47.7467    -134.774E-03
            4543         70.5757         81.1341         44.4636        -3.09277
            4544         85.3383         50.1459         98.5340    -223.495E-03
            4545         85.8887         98.8155         42.0957    -104.605E-03
            4546         85.8754         44.0306         98.9578     371.116E-03
            4547         54.1516         58.7280         36.4767         9.91761
            4548         55.0004         38.7109         59.5197        -9.79752
            4549         54.5069         36.6931         59.0994        -10.0069
            4550         58.5649         64.6307         36.3401         9.67472
            4551         93.0353         104.770         35.1385        -6.46954
            4552         81.3019         92.4104         36.0620        -5.84103
            4553         77.2512         88.9008         42.6922        -3.51858
            4554         71.1519         44.2397         81.7459         3.62693
            4555         94.2453         108.274         44.6737    -198.899E-03
            4556         70.6461         45.2352         81.0305         3.83557
            4557         71.1448         81.7831         44.0508        -3.42748
            4558         85.1491         48.3357         98.3151    -315.161E-03
            4559         55.9082         54.2659         57.3613         1.06256
            4560         56.6325         51.5501         60.5777     992.019E-03
            4561         94.3461         108.395         44.7662     199.280E-03
            4562         69.5221         44.7888         79.6491        -4.11081
            4563         55.6451         62.5465         33.1143        -7.27862
            4564         78.0926         89.9255         43.1570         3.17573
            4565         85.4508         47.4385         98.6442     309.651E-03
            4566         51.5901         33.6461         57.0386         8.06636
            4567         85.3142         48.1728         98.5044    -67.5603E-03
            4568         69.2134         79.4063         43.0119         4.10406
            4569         51.1732         34.6542         56.6026         7.64736
            4570         70.4193         44.1248         80.8751        -3.63769
            4571         85.5151         98.6983         46.7387    -48.5859E-03
            4572         51.7645         57.2244         33.7801        -8.10112
            4573         102.915         114.638         32.8428         6.73161
            4574         92.6918         103.562         31.5702         6.81692
            4575         86.4885         99.3826         41.1766    -169.290E-03
            4576         56.4459         61.9278         37.4986         9.43657
            4577         86.2652         43.0087         99.3096     488.988E-03
            4578         56.7110         37.7101         62.1365        -9.59711
            4579         56.7324         40.3927         61.2673        -10.1336
            4580         60.9002         67.5335         37.6062         9.54839
            4581         58.9175         48.0649         65.6919         1.01271
            4582         57.9471         49.2573         63.8404     444.610E-03
            4583         92.6600         32.5408         104.508         1.40205
            4584         91.2231         33.5325         103.124        -2.62078
            4585         91.7059         32.9316         103.621     447.956E-03
            4586         91.8640         33.1764         103.585         3.87628
            4587         92.0041         32.5031         103.839     514.447E-03
            4588         83.9879         36.4867         96.0083        -1.64655
            4589         83.7176         38.0952         95.7582        -3.44853
            4590         59.0711         47.8780         66.0053     442.309E-03
            4591         57.1758         50.4216         62.1094    -521.625E-03
            4592         69.0406         79.1795         41.5166         4.50400
            4593         77.4346         88.5102         40.8453         6.02637
            4594         63.0638         49.2132         70.8155        -2.90552
            4595         71.0102         43.5721         79.1790        -10.4018
            4596         69.8485         44.3965         79.2817        -6.88009
            4597         71.7512         38.8651         81.3367        -7.81539
            4598         70.7142         40.1617         81.0714        -4.86279
            4599         101.490         113.598         32.4258        -3.04712
            4600         91.6179         103.262         32.1741        -2.44668
            4601         73.7292         84.5754         39.4202        -4.58368
            4602         81.3209         92.9443         39.3974        -5.29357
            4603         85.2201         98.2710         44.7131     64.3704E-03
            4604         51.1019         55.8288         33.8299         8.92140
            4605         84.7227         47.7008         97.8193    -20.4631E-03
            4606         50.6593         33.3499         55.5219        -8.62387
            4607         50.2869         34.2657         55.2965        -7.99392
            4608         56.0514         62.5549         33.7883         8.17754
            4609         60.4558         66.0969         51.9307        -2.69337
            4610         57.4045         50.1347         61.4162         5.44431
            4611         58.8351         65.2176         48.4986        -2.52186
            4612         32.0583         24.4739         31.6452        -8.20218
            4613         33.8230         33.2097         25.8647         8.77663
            4614         33.5502         34.2473         24.0167         8.13292
            4615         34.6249         27.7460         33.4601        -8.90412
            4616         77.2727         89.1367         45.2469         1.96569
            4617         80.9515         47.0136         93.4567     903.716E-03
            4618         40.6347         29.8381         41.8755         9.25198
            4619         77.5328         45.2932         89.4149        -2.21549
            4620         81.3662         93.9349         46.2153    -829.910E-03
            4621         40.5715         43.2875         27.2778        -8.34572
            4622         89.0734         102.533         44.3082    -543.803E-03
            4623         77.0544         47.0947         88.8293        -2.01828
            4624         42.9257         45.6389         27.9885        -9.19623
            4625         86.0269         99.0709         43.6680         1.28048
            4626         81.5774         47.0010         94.1750         1.02766
            4627         40.7003         27.3110         43.4763         8.32301
            4628         59.9763         67.3110         47.3388         1.98743
            4629         66.7502         76.1616         46.1570         3.64798
            4630         62.4563         70.0387         49.4495         2.12135
            4631         72.2724         43.0282         82.7745         5.22489
            4632         74.0286         39.0992         85.0888         3.57279
            4633         61.9564         40.7605         68.9175        -8.88187
            4634         62.9299         70.6294         40.4910         7.99997
            4635         87.1410         100.100         41.1893     57.2072E-03
            4636         87.0720         41.5586         100.061     420.859E-03
            4637         67.0466         75.6994         39.7994         8.03438
            4638         63.0483         42.5198         70.5385        -7.97393
            4639         85.2143         36.7857         96.9841         4.83008
            4640         86.2774         34.8712         98.1491         2.38925
            4641         58.7084         61.1180         55.8513        -1.34509
            4642         55.8925         54.3151         57.3246    -663.586E-03
            4643         64.5004         48.0732         72.7174         4.36658
            4644         63.5380         40.4799         71.4947        -7.76876
            4645         86.6835         99.7863         43.1078     62.6536E-03
            4646         63.8880         72.2337         40.3546         7.08129
            4647         69.6520         79.2950         39.9265         6.72197
            4648         63.5718         42.1964         71.5560        -7.30272
            4649         86.6165         43.3100         99.7273     324.545E-03
            4650         80.1212         39.1513         91.5687        -5.37855
            4651         80.5398         36.8098         92.1594        -3.19957
            4652         66.0539         46.8650         74.9727        -4.45264
            4653         66.9519         42.2549         76.9298        -3.13811
            4654         102.657         114.850         32.0466    -701.509E-03
            4655         91.1402         102.990         32.7730    -517.762E-03
            4656         82.8946         37.8430         94.5130        -5.27163
            4657         69.8113         79.7139         40.9657         5.96254
            4658         76.3822         87.0713         41.1921         6.89641
            4659         63.5476         44.3125         72.7432        -1.47878
            4660         93.7470         105.620         34.9453        -5.84853
            4661         82.6935         94.0073         35.6419        -5.19923
            4662         47.0047         33.2180         48.7732         10.7600
            4663         82.7804         43.2457         95.4330     819.189E-03
            4664         73.6060         42.8751         84.6498         3.80152
            4665         92.2170         105.765         42.1953    -120.540E-03
            4666         50.1898         53.3185         33.1430         10.7212
            4667         82.1212         94.5055         42.0161         2.45015
            4668         33.6882         28.4588         30.4952         9.36115
            4669         50.0224         53.3245         32.7766        -10.5234
            4670         48.6990         35.8384         50.5663        -10.6843
            4671         31.8869         30.1691         26.0433        -8.44688
            4672         91.9309         105.395         41.7382     126.758E-03
            4673         73.8781         44.8054         85.0026        -3.34589
            4674         80.9029         93.1037         42.1232        -2.85442
            4675         82.3590         44.2108         95.0222    -249.943E-03
            4676         46.6587         47.6827         33.6997        -11.1746
            4677         73.0214         83.9929         42.7362        -3.67294
            4678         82.7441         95.4034         43.2747    -460.091E-03
            4679         73.4240         43.0580         84.4268        -3.84955
            4680         83.0845         44.0176         95.8199    -775.474E-03
            4681         47.0702         32.4920         49.6523        -10.1296
            4682         46.0232         34.2691         47.1586         10.5816
            4683         47.0935         48.9914         33.1952         10.6771
            4684         33.0770         30.0229         28.3392         8.95223
            4685         82.7084         44.9323         95.4474     276.449E-03
            4686         73.6059         84.7098         42.8696         3.45178
            4687         82.8853         95.5650         43.3205     431.524E-03
            4688         73.3452         44.9980         84.3345         3.52506
            4689         59.9336         64.7562         52.8796         2.98313
            4690         68.0055         45.5753         77.0105         6.50119
            4691         68.1230         41.4776         78.1365         4.31869
            4692         42.9506         46.3494         27.1344         8.52210
            4693         89.3475         102.845         44.3953     485.960E-03
            4694         87.0917         100.466         46.6336     790.807E-03
            4695         39.1367         43.6866         22.3760         5.77377
            4696         88.3090         101.866         47.0545     551.718E-03
            4697         36.2882         22.2949         40.2994         5.60352
            4698         80.3539         49.2376         92.7042     979.144E-03
            4699         78.3119         46.4350         90.3410         1.82922
            4700         79.4351         48.7602         91.6298         1.18980
            4701         33.9689         20.8596         37.5730         5.50122
            4702         34.5360         24.1360         35.9407         7.87233
            4703         36.2399         40.2296         22.2821        -5.62207
            4704         80.4383         48.2140         92.8318        -1.12162
            4705         79.1453         48.4025         91.2968        -1.29877
            4706         80.2101         92.5617         48.6917    -838.509E-03
            4707         37.1877         23.8389         40.6014        -6.68458
            4708         41.2183         28.0332         43.6713        -8.75879
            4709         34.2219         35.4538         24.1088        -7.90957
            4710         81.2242         46.1327         93.7563        -1.17388
            4711         33.8891         37.4593         20.8415        -5.52591
            4712         79.3598         91.5621         48.4804    -996.475E-03
            4713         78.1329         90.1511         46.5577        -1.54159
            4714         39.7273         44.0609         23.2571        -6.34380
            4715         36.1851         23.6462         39.8073        -5.96892
            4716         36.7539         24.3787         40.1842         6.36123
            4717         36.0622         39.8625         22.4025         5.84843
            4718         36.1104         38.0497         24.0490        -8.01843
            4719         36.9687         40.9879         21.4472        -5.93785
            4720         34.4313         25.8880         34.9476         8.13872
            4721         34.2161         22.5417         37.3991         5.97099
            4722         88.3814         101.948         47.0545    -539.773E-03
            4723         79.3789         49.8314         91.5136        -1.05805
            4724         80.2694         49.8601         92.5781    -895.228E-03
            4725         85.6342         98.6654         44.1743        -1.34765
            4726         87.2641         100.681         47.0250    -721.005E-03
            4727         80.4133         49.6726         92.7584     888.169E-03
            4728         79.9563         92.2881         47.5745         1.02482
            4729         78.9715         48.6885         91.0784         1.30658
            4730         79.0875         91.2561         47.9112         1.13629
            4731         81.0826         93.6015         45.8313     917.830E-03
            4732         77.6331         46.4214         89.5398         1.92715
            4733         70.2288         44.1756         80.3386         5.01071
            4734         71.5284         40.0908         82.2653         3.63072
            4735         59.2986         63.3693         53.9737         1.60971
            4736         81.1433         36.0977         92.5457         4.36552
            4737         80.3062         38.8600         91.3898         6.78949
            4738         87.8350         34.1623         99.6939         2.22228
            4739         86.2182         36.2228         97.9646         4.93238
            4740         68.6527         78.2503         45.0046         5.36314
            4741         61.5967         69.4218         45.9515         4.21363
            4742         72.3946         83.3061         40.1531         3.35659
            4743         76.1026         87.2787         38.5325         4.17707
            4744         84.9028         96.8062         38.1356         4.98276
            4745         79.6617         91.3422         40.0721         4.36265
            4746         56.4601         51.9488         59.8803         2.17021
            4747         71.0618         78.9748         43.0022        -10.9494
            4748         58.4907         56.7753         60.0662     129.326E-03
            4749         83.7685         45.2578         96.6624     69.4090E-03
            4750         72.3650         83.1825         42.7213         3.91204
            4751         72.6344         44.7716         83.4480        -3.82067
            4752         93.1657         106.851         42.6131     206.438E-03
            4753         47.5850         34.7068         49.6388         10.3048
            4754         52.2587         56.4796         33.4465        -10.1883
            4755         71.7513         43.0149         82.3640        -4.35937
            4756         83.6951         96.4972         43.6821    -282.387E-03
            4757         47.4128         49.7733         33.0044        -10.3929
            4758         80.6648         92.8319         42.1915         2.92359
            4759         83.8870         44.2011         96.7369     614.977E-03
            4760         47.2855         32.4319         50.1185         9.96094
            4761         98.5276         110.652         33.4316         3.88756
            4762         86.5475         98.2550         34.5181         3.48819
            4763         69.5989         40.1464         79.1435        -6.97390
            4764         68.8524         45.0155         76.9537        -9.24663
            4765         57.7246         62.9860         49.9120         2.41146
            4766         31.0241         26.8564         27.7475         8.49514
            4767         31.1780         27.5726         27.2773        -8.56102
            4768         30.8726         28.1934         26.5330         8.21176
            4769         30.4497         28.2432         25.7373        -8.04158
            4770         56.2882         59.2285         52.7616     717.809E-03
            4771         65.6651         73.7345         39.8831         8.66465
            4772         60.6355         42.5846         66.6587        -9.28204
            4773         60.7408         40.1431         67.2397        -9.23785
            4774         87.1921         40.9287         100.121     565.132E-03
            4775         61.7866         68.9162         40.3815         8.57160
            4776         87.3331         100.208         40.3131    -12.5580E-03
            4777         84.8861         96.6048         35.2865         3.50583
            4778         96.7983         108.944         34.0602         4.14781
            4779         91.0199         102.870         32.8271     764.701E-03
            4780         101.230         113.525         32.7058     999.436E-03
            4781         74.8784         85.8144         41.9614        -5.25358
            4782         66.9462         76.6226         42.5749        -4.48512
            4783         62.8743         68.9437         44.6350        -9.74617
            4784         87.8063         99.6366         34.2460         2.69966
            4785         98.2283         110.455         33.6591         3.33258
            4786         85.4895         98.5870         44.9461    -35.0073E-03
            4787         70.0091         43.2397         80.2917        -4.34473
            4788         70.8364         81.3348         43.0584        -4.10540
            4789         85.0075         46.6546         98.1159    -390.848E-03
            4790         52.1656         56.8189         34.7543        -9.30420
            4791         51.5055         35.4622         56.2943         8.61236
            4792         70.6646         44.7962         81.0070         4.22114
            4793         69.1872         79.2926         42.5309         4.58443
            4794         84.8950         46.6516         97.9909    -56.5774E-03
            4795         70.8095         43.1522         81.2314         4.42139
            4796         85.2937         45.4030         98.3884     380.114E-03
            4797         77.1852         88.7587         42.1697         3.83330
            4798         94.2905         108.167         43.3412    -248.349E-03
            4799         51.8461         34.4910         56.4608         9.27289
            4800         55.9919         61.8985         34.4027        -9.12122
            4801         77.0837         88.6277         42.0685        -3.90293
            4802         94.2563         108.157         43.5596     236.819E-03
            4803         69.2948         44.2381         79.2685        -4.75924
            4804         89.8784         34.4349         101.834        -3.09942
            4805         90.4159         33.6044         102.405    -285.249E-03
            4806         61.5092         69.6957         46.0635         2.19642
            4807         67.9755         77.7840         45.4086         3.67146
            4808         91.2692         103.054         35.7698        -6.23567
            4809         81.1133         92.3908         36.3074        -5.14959
            4810         102.057         114.300         32.3058     178.066E-03
            4811         100.678         113.042         33.0728     880.341E-03
            4812         90.2720         102.230         33.5147     585.734E-03
            4813         31.9315         21.8376         33.6924        -6.91190
            4814         33.2959         35.5960         22.1505         6.81572
            4815         36.9404         40.2798         22.5850         6.87420
            4816         33.5612         23.5685         35.5574        -6.94233
            4817         85.5904         98.6003         43.4517    -14.7350E-03
            4818         85.2292         45.2706         98.3112     194.415E-03
            4819         52.7079         57.3253         35.2171         9.49596
            4820         52.7666         36.9164         57.1201        -9.44213
            4821         53.3404         35.5674         58.0988        -9.50634
            4822         57.0663         62.8064         35.5049         9.68247
            4823         90.5337         102.162         35.9649        -6.83302
            4824         79.6009         90.6477         36.7768        -5.78783
            4825         30.7674         26.7542         27.9399        -8.11826
            4826         31.9645         31.6075         24.4021         8.13468
            4827         31.0116         27.8408         26.7385         8.48685
            4828         32.8814         31.4416         26.1177         8.78747
            4829         33.8626         28.0033         31.8875        -8.91882
            4830         32.8651         26.4564         31.0973        -8.86663
            4831         35.3348         35.5167         25.8727         8.88115
            4832         57.2227         50.3833         62.0501         2.00301
            4833         104.390         116.408         32.8772         5.55874
            4834         94.3505         105.558         31.4436         5.47828
            4835         88.0222         101.357         44.2631    -775.635E-03
            4836         78.7861         47.3099         90.8986        -1.51358
            4837         78.3055         90.3567         45.2696         1.68323
            4838         80.3504         47.6824         92.7441         1.05930
            4839         40.7207         43.1911         26.6549        -8.82184
            4840         38.6589         28.5255         39.6792         8.91140
            4841         87.1717         100.382         43.9766     983.426E-03
            4842         80.1605         46.6439         92.5192         1.37973
            4843         38.7501         26.3001         41.0406         8.26465
            4844         78.6008         46.2629         90.6833        -1.79324
            4845         79.6246         91.9054         45.6629        -1.29750
            4846         38.5509         40.7701         26.2271        -8.27439
            4847         90.8490         33.7242         102.616         3.95214
            4848         92.4742         32.8122         104.257         2.95398
            4849         92.8916         32.1739         104.701     12.6403E-03
            4850         90.9747         32.9770         102.851     871.692E-03
            4851         85.3240         36.4637         97.4723        -1.14468
            4852         84.7423         37.8921         96.9053        -2.98658
            4853         56.5469         51.6903         60.3702     743.218E-03
            4854         70.3749         44.0870         80.3117        -5.76456
            4855         71.2634         40.1423         81.9121        -3.89934
            4856         101.425         113.460         32.4778        -3.82956
            4857         90.6103         102.219         32.5566        -3.13520
            4858         72.3604         83.3234         40.2186        -2.99166
            4859         79.6872         91.3863         40.0639        -4.27314
            4860         59.3834         63.5324         53.8478        -1.95965
            4861         61.0730         68.7380         46.3740        -3.74664
            4862         62.2356         69.0433         49.8405         4.59631
            4863         63.5049         71.8184         48.4312         1.59789
            4864         74.2332         42.0074         85.0741         5.23081
            4865         76.6978         38.1311         88.0357         3.42473
            4866         83.8442         37.5756         95.6592         4.53463
            4867         84.6626         35.6215         96.5436         2.39587
            4868         58.9926         62.5804         54.5727    -523.812E-03
            4869         55.8079         55.8048         55.8058    -309.802E-03
            4870         81.5058         38.6237         93.1747        -4.78308
            4871         82.2568         36.3822         94.0247        -2.74980
            4872         101.914         114.167         32.3777    -400.612E-03
            4873         91.2127         103.064         32.7420     123.622E-03
            4874         94.3536         106.360         34.8001        -5.17812
            4875         84.5561         96.0277         35.0097        -4.64192
            4876         73.9120         42.6419         85.0286         3.67780
            4877         46.0356         33.1997         47.0072         11.0755
            4878         81.8741         43.2949         94.4095         1.03453
            4879         92.9907         106.627         42.3506    -206.088E-03
            4880         52.1116         56.2651         33.4223         10.2196
            4881         82.0792         94.4295         41.5574         2.40085
            4882         50.1209         52.4184         34.1938         11.3662
            4883         91.3090         104.627         41.0360    -123.046E-03
            4884         48.9435         51.1052         33.3709        -11.1883
            4885         46.9981         36.3550         46.8168        -11.5087
            4886         35.0861         32.9925         28.4961        -9.49846
            4887         81.3504         43.8186         93.8628    -418.597E-03
            4888         91.3398         104.714         41.4366     69.4057E-03
            4889         75.2241         44.4517         86.6822        -2.71283
            4890         81.7776         94.0842         41.5915        -2.51590
            4891         79.5325         91.4954         41.9940        -3.30507
            4892         83.9075         45.4448         96.8273    -54.6833E-03
            4893         81.8272         94.2843         41.8706    -505.938E-03
            4894         46.3711         33.8424         46.9752        -11.3733
            4895         82.3282         43.4674         94.9338    -933.224E-03
            4896         75.2647         43.0653         86.6749        -3.17784
            4897         83.7374         44.6554         96.5916    -645.534E-03
            4898         47.9945         32.5831         51.2791        -9.71425
            4899         72.1737         82.9491         42.7946        -3.95382
            4900         73.9197         85.0949         42.6568        -3.32954
            4901         34.2685         30.8908         29.0039        -9.57105
            4902         45.2692         45.7808         33.0756        -11.1602
            4903         45.8092         35.3069         45.6576         11.2445
            4904         46.9384         47.8293         34.0589         11.3222
            4905         35.0554         30.9500         30.7750         9.59791
            4906         74.4629         85.7602         42.3763         3.07414
            4907         81.4299         44.7707         93.9847     591.489E-03
            4908         83.6756         96.4964         44.0458     301.179E-03
            4909         72.8621         45.2799         83.7355         3.58271
            4910         75.2313         44.7041         86.6780         2.77380
            4911         82.3342         94.8864         42.3736     467.865E-03
            4912         60.4921         66.1880         51.8762         2.63823
            4913         90.3635         103.984         44.5215     286.374E-03
            4914         46.0780         49.3060         29.7530         9.55444
            4915         76.9757         45.8000         88.7545         2.25113
            4916         32.3515         23.0692         33.3460         7.56616
            4917         81.9728         47.0219         94.6348    -939.289E-03
            4918         77.2660         89.1294         45.7616        -1.87706
            4919         42.0895         27.9635         45.3187        -8.22706
            4920         31.9908         32.6982         23.1556        -7.64205
            4921         41.6574         28.9037         44.6955        -8.04351
            4922         41.5312         44.8903         27.4040         7.93503
            4923         33.7034         35.3938         22.7301        -7.55080
            4924         32.2293         24.6064         32.4728         7.69871
            4925         81.4024         48.2661         93.9712    -767.191E-03
            4926         84.3370         97.1868         44.0803        -1.67356
            4927         81.6879         94.2834         45.1237     778.432E-03
            4928         76.8932         46.5433         88.6480         2.14343
            4929         58.7801         61.7664         55.2424     367.606E-03
            4930         80.7202         35.9312         91.8872         5.26165
            4931         79.8598         38.9380         90.4478         8.21531
            4932         70.3319         78.7728         43.6504        -9.56596
            4933         59.0051         54.9548         62.3163    -971.909E-03
            4934         57.0244         61.5686         51.0022    -24.0817E-03
            4935         55.8275         55.9376         55.6440         1.15958
            4936         64.3171         71.7524         40.0835         9.26792
            4937         59.3496         43.1250         64.2690        -10.0616
            4938         59.5623         40.1847         65.3141        -9.85805
            4939         87.1352         40.4752         100.002     704.028E-03
            4940         58.5007         63.6957         40.1927         10.1625
            4941         87.3319         100.134         39.7376    -129.698E-03
            4942         83.2257         94.9462         36.0398         3.40114
            4943         94.9041         107.087         34.7694         4.22559
            4944         64.4298         71.9755         43.6097        -8.32167
            4945         86.3752         98.3355         35.3088         2.32345
            4946         96.4391         108.785         34.5129         3.14122
            4947         85.7551         98.8283         44.0598     9.86143E-03
            4948         68.8660         42.1611         78.7150        -5.40446
            4949         69.6468         79.8088         42.3635        -4.74509
            4950         85.4996         45.2855         98.6146    -356.855E-03
            4951         51.7838         36.3309         55.8768         9.47759
            4952         69.5596         44.0941         79.5439         4.98091
            4953         69.9891         80.2092         42.2533         4.78617
            4954         85.4261         45.4340         98.5411    -210.678E-03
            4955         85.5790         44.3508         98.6485     358.480E-03
            4956         50.8593         34.2954         54.8046         9.77237
            4957         69.4980         42.4355         79.5408         5.09332
            4958         75.6192         86.8110         41.4262         4.55481
            4959         94.8737         108.614         41.9431    -337.769E-03
            4960         57.1448         63.0803         35.3126        -9.43306
            4961         75.4885         86.6380         41.3283        -4.65223
            4962         94.5653         108.271         41.8795     342.601E-03
            4963         68.5341         43.8850         78.2639        -5.17717
            4964         88.3916         35.4912         100.437        -3.18580
            4965         88.9602         34.5082         101.035    -705.444E-03
            4966         68.6891         43.7330         78.8347         3.57724
            4967         95.0919         109.320         45.7619    -168.144E-03
            4968         74.2287         85.3625         42.1725        -3.85424
            4969         85.7722         49.9221         99.0393    -195.836E-03
            4970         68.6933         78.8761         43.5551        -3.45157
            4971         67.9154         44.2847         77.7153         4.21483
            4972         36.6891         25.2282         38.5275         8.10843
            4973         79.2096         46.1719         91.4014         1.66227
            4974         40.6385         43.4077         26.1930         8.52766
            4975         88.2816         101.643         44.2179     718.180E-03
            4976         78.6946         90.8146         45.3990        -1.56807
            4977         36.4279         38.1707         25.1400        -8.11551
            4978         38.4420         26.4641         40.3408        -8.51741
            4979         79.9780         46.2456         92.3039        -1.46728
            4980         38.5760         28.0074         40.0551        -8.58517
            4981         38.2363         40.1832         26.2776         8.42072
            4982         38.4519         40.6581         25.3495        -8.43670
            4983         36.5804         27.2015         37.3559         8.54154
            4984         86.8696         100.063         44.2315        -1.04561
            4985         79.6688         47.0376         91.9500        -1.27628
            4986         79.5416         91.8057         45.3978         1.34083
            4987         78.9976         47.1038         91.1542         1.46883
            4988         54.3235         34.8749         61.2539         6.29713
            4989         58.9233         67.2403         34.5876        -5.16610
            4990         94.7644         109.103         47.2941     144.757E-03
            4991         54.4481         61.4467         34.9126        -6.19861
            4992         53.9769         35.8268         61.0605         5.45153
            4993         85.9263         50.1866         99.2167    -94.3285E-03
            4994         66.8130         42.3100         76.7457         3.21700
            4995         66.4763         46.6390         74.9984         6.24458
            4996         75.6795         86.9311         41.6973        -4.33973
            4997         68.8819         42.5366         78.8401         4.93886
            4998         94.8167         108.719         43.1717    -266.006E-03
            4999         69.4473         44.2879         79.4604         4.71515
            5000         85.4779         46.6736         98.6517    -327.619E-03
            5001         34.0536         22.1619         37.4092        -5.71867
            5002         37.2320         41.4405         21.3255         5.71182
            5003         33.9252         37.4453         20.9614         5.60647
            5004         33.7452         21.2134         36.9924        -5.91679
            5005         92.8800         32.3656         104.715        -1.01143
            5006         92.4321         32.7508         104.277         2.04636
            5007         56.4050         59.6211         52.4093        -1.26690
            5008         58.7042         61.6179         55.2359     802.757E-03
            5009         62.8627         70.0280         49.2099        -4.90776
            5010         64.8724         40.9106         73.2952        -7.32839
            5011         86.4381         99.4921         42.8522     79.7780E-03
            5012         65.4107         74.1497         40.9679         6.82590
            5013         86.4221         43.2999         99.5109     315.452E-03
            5014         71.9575         82.2545         40.4994         5.86322
            5015         65.6458         42.9552         74.3179        -6.66861
            5016         59.4233         47.5519         66.6085    -452.341E-03
            5017         73.1328         81.7198         41.9699        -10.6235
            5018         71.5211         80.6772         43.1558        -8.67419
            5019         80.5198         37.1212         92.2520        -2.55102
            5020         79.5450         39.5737         91.1293        -4.58672
            5021         89.8804         101.955         36.4294        -4.85585
            5022         80.8333         92.2475         36.5967        -4.51159
            5023         55.8554         55.1141         56.4198         1.69286
            5024         77.8704         88.8940         37.5524        -5.46643
            5025         86.8467         98.6808         37.3830        -5.65523
            5026         56.7652         51.3055         60.7446         2.35638
            5027         60.7937         68.7557         46.6090     503.790E-03
            5028         66.9387         76.6676         45.9762         2.15533
            5029         70.9314         43.7778         81.2822        -4.70206
            5030         71.8387         40.1031         82.7237        -2.98951
            5031         80.3943         45.3808         92.7798        -1.43323
            5032         40.8023         28.5926         42.3615        -9.38115
            5033         35.7142         35.9737         26.2144        -8.89253
            5034         78.2221         90.2506         44.4899        -1.77198
            5035         40.8247         42.2451         28.7511         9.48636
            5036         78.4421         45.2370         90.4907         1.97744
            5037         44.1012         46.6685         29.0489         9.64009
            5038         88.2382         101.494         43.0860     720.657E-03
            5039         36.1530         26.3380         36.5880         8.91293
            5040         37.9042         29.5006         37.3442         9.54862
            5041         80.4116         92.8054         44.7860         1.12224
            5042         78.3022         46.1662         90.3428         1.71945
            5043         41.2223         30.6829         42.0622        -9.64706
            5044         39.2953         40.4728         27.2870        -9.41414
            5045         80.1986         46.1585         92.5788        -1.10867
            5046         86.6421         99.7173         43.1227        -1.12761
            5047         34.9414         24.2145         36.5312        -7.84464
            5048         35.1375         36.5846         24.5292         7.99818
            5049         38.1775         40.4286         25.0783         8.32695
            5050         35.5237         26.1996         36.5084        -8.14756
            5051         91.6939         32.8205         103.588    -7.49882E-03
            5052         91.7419         33.2192         103.552         3.15863
            5053         100.217         112.617         33.3381         1.12715
            5054         89.3316         101.399         34.3744     868.284E-03
            5055         85.0801         97.9769         42.7417     4.54254E-03
            5056         84.7815         43.6599         97.7114     299.339E-03
            5057         51.7272         55.3351         35.3807         10.3236
            5058         53.4451         38.1588         57.1719        -10.2188
            5059         52.3854         35.4888         56.3890        -10.1033
            5060         56.0511         61.1665         35.4974         10.1910
            5061         62.7343         70.4144         49.2053        -2.64606
            5062         90.6780         33.7967         102.327         4.75337
            5063         90.9884         32.7419         102.788         1.52071
            5064         83.9845         37.0389         96.1127        -1.12258
            5065         86.5307         35.9551         98.6917        -1.03438
            5066         85.9679         37.1988         98.1309        -3.02255
            5067         83.1869         38.6906         95.3251        -2.85215
            5068         56.5652         51.6869         60.4084    -641.983E-03
            5069         69.3985         79.9587         41.5370        -2.49555
            5070         76.7378         88.2264         41.2219        -3.75978
            5071         81.5763         38.5868         93.2457         4.79699
            5072         83.1328         35.8920         94.8715         3.02008
            5073         55.9364         57.4646         54.2691     199.727E-03
            5074         55.9545         54.2387         57.2722        -2.26104
            5075         62.8122         49.4037         70.4966         2.42739
            5076         101.986         114.197         32.2959        -1.32353
            5077         90.4452         102.389         33.3855    -427.913E-03
            5078         96.4120         108.340         34.0567        -5.40142
            5079         86.4311         97.9155         34.2054        -4.55057
            5080         43.3015         31.1249         44.1889         10.4719
            5081         81.3527         44.4949         93.8649         1.20526
            5082         83.4278         95.9792         41.7089         1.97827
            5083         47.1721         49.3912         31.8578        -10.7128
            5084         90.1091         103.460         42.1646    -238.751E-03
            5085         76.0151         44.9949         87.6207        -2.50687
            5086         80.7773         93.1655         43.0617    -949.307E-03
            5087         76.7395         43.7604         88.4526        -2.63574
            5088         42.7826         43.5817         30.8396        -10.3915
            5089         44.3665         34.5892         43.7048         11.1592
            5090         76.1231         87.7526         43.2221         2.51120
            5091         80.8403         45.4557         93.3203     855.158E-03
            5092         58.4054         59.4322         57.3213    -43.6140E-03
            5093         79.1801         36.9119         90.5208         4.25325
            5094         82.4309         35.0472         93.5146         5.74413
            5095         78.4145         39.7505         89.2201         7.18906
            5096         81.6266         37.9731         91.9709         9.21448
            5097         58.8263         65.4482         48.4662     199.643E-03
            5098         64.9458         71.6425         43.0422        -10.2687
            5099         63.9873         72.1337         44.1052        -6.51438
            5100         87.3329         99.4003         35.2904         1.74043
            5101         97.1688         109.616         34.5229         2.48867
            5102         70.4151         80.7451         42.3325        -4.64123
            5103         85.0401         97.9603         43.0937    -28.0800E-03
            5104         69.7517         42.3315         79.8270        -5.17013
            5105         52.1081         55.6451         35.7903        -10.4800
            5106         85.0174         43.8969         97.9893    -425.113E-03
            5107         52.0627         37.3680         55.3542         10.3046
            5108         69.5221         79.5859         41.9341         5.10852
            5109         84.8404         44.3699         97.8238    -221.213E-03
            5110         69.7438         44.0052         79.7509         5.06571
            5111         85.2537         43.6410         98.2360     393.435E-03
            5112         94.9097         108.489         40.8347    -433.887E-03
            5113         70.0115         42.3071         80.1419         5.14989
            5114         77.3059         88.8490         41.7389         4.01546
            5115         51.5590         35.3616         54.9790         10.4776
            5116         56.7422         62.2041         35.6202        -9.95400
            5117         69.8346         44.0690         79.8778        -4.98213
            5118         76.4053         87.7233         41.2458        -4.44922
            5119         94.3837         107.923         40.8384     435.428E-03
            5120         67.5015         42.6718         77.3201         4.34205
            5121         95.4216         109.646         45.4152    -150.302E-03
            5122         72.7257         83.5290         41.4479        -4.32415
            5123         86.1306         47.3482         99.4165    -246.073E-03
            5124         67.5393         77.4077         42.5275        -4.20228
            5125         66.6086         43.5324         76.0745         4.69115
            5126         55.8897         36.0054         62.7922         6.95857
            5127         60.3381         68.4553         35.5621        -6.43693
            5128         95.2154         109.390         45.1462     179.964E-03
            5129         56.0153         63.0217         36.0301        -6.79435
            5130         55.4994         37.2075         62.2141         6.83168
            5131         91.3956         33.1586         103.342    -488.362E-03
            5132         92.1950         32.9276         104.031         2.49723
            5133         58.2951         58.7514         57.5682         2.21411
            5134         65.9246         41.2555         74.6852        -7.00769
            5135         86.5791         99.5212         41.5433     140.491E-03
            5136         65.5903         74.3228         41.1759         6.90568
            5137         71.9120         82.1080         40.5871         6.18679
            5138         86.4513         42.2989         99.4542     316.043E-03
            5139         65.6911         43.2702         74.2425        -6.91741
            5140         94.9398         107.094         34.7187        -4.36847
            5141         84.3495         95.9762         35.3423        -3.93091
            5142         85.8466         46.8149         99.0756    -284.565E-03
            5143         68.2886         78.2451         42.4996        -4.47952
            5144         68.2412         42.6296         78.1324         4.67857
            5145         95.2694         109.181         42.9438    -264.448E-03
            5146         68.2085         43.7929         77.8615         5.22663
            5147         74.2862         85.2271         41.2861        -4.79344
            5148         72.2153         39.9966         83.1792         2.79417
            5149         71.7156         43.3657         82.3774         4.03593
            5150         35.9162         33.7195         28.8866         9.87553
            5151         36.1950         30.3464         33.4496        -9.75314
            5152         35.9813         29.3661         33.3408        -9.99610
            5153         37.9740         37.5476         28.3734         9.87424
            5154         76.3823         87.5847         38.4237        -4.16828
            5155         84.1634         96.0107         38.3868        -5.08041
            5156         72.2297         83.0128         42.3398        -4.00354
            5157         48.1762         33.6636         50.4642        -10.6439
            5158         83.9243         43.8144         96.7566    -602.961E-03
            5159         49.0750         51.5651         34.2464         10.6849
            5160         83.4872         96.1820         42.4581     232.176E-03
            5161         71.4805         44.1921         82.0022         4.32119
            5162         51.7597         55.1165         34.1880         10.9048
            5163         93.0796         106.612         41.5191    -285.449E-03
            5164         71.5478         42.4407         82.0798         4.62976
            5165         50.4165         37.0290         52.5987        -10.8279
            5166         83.2999         44.2308         96.0857    -41.6875E-03
            5167         79.0781         90.9313         41.5055        -3.47832
            5168         33.4154         27.8086         30.6745        -9.22599
            5169         31.9777         29.6508         26.4724         8.70901
            5170         35.5325         34.6186         27.3515         9.36084
            5171         33.3393         28.5500         30.4160        -8.93776
            5172         66.2614         46.7400         75.1313         4.92850
            5173         79.6191         90.8797         36.9667         4.93501
            5174         88.9570         100.760         36.6009         6.02663
            5175         77.7896         37.4735         89.0630         4.17335
            5176         77.1537         40.4752         88.1379         6.15280
            5177         66.6301         73.8463         41.9052        -10.4048
            5178         84.1104         96.9249         43.1100     171.644E-03
            5179         70.9805         44.3105         81.3526         4.52192
            5180         84.4466         43.8519         97.3461    -510.142E-03
            5181         51.2762         35.2037         54.6299        -10.4674
            5182         71.3142         81.8675         42.3617        -4.35740
            5183         77.7371         89.3325         41.3961        -3.96410
            5184         84.0187         44.4468         96.9060     72.0954E-03
            5185         51.9274         37.6777         54.8064        -10.6157
            5186         93.6976         107.387         42.2898    -273.436E-03
            5187         53.7297         58.0587         34.5591         10.4593
            5188         83.8827         96.5481         41.5553     56.0670E-03
            5189         71.1171         44.0199         81.5738         4.33868
            5190         50.3438         51.7447         36.5317         11.7294
            5191         50.9628         36.1423         53.1625        -11.3446
            5192         83.6306         41.9965         96.3001    -553.388E-03
            5193         71.4684         82.0676         42.0707        -4.29493
            5194         83.3305         43.2691         96.0641     139.406E-03
            5195         78.5365         90.2865         41.1672        -3.57978
            5196         50.7200         38.5310         51.7227        -11.6272
            5197         53.7090         56.8934         36.2076         11.5004
            5198         93.3251         106.587         39.5875    -598.750E-03
            5199         71.5939         42.1782         82.1465         4.59831
            5200         89.6725         33.0544         101.392         2.55607
            5201         88.8566         34.7193         100.449         5.40344
            5202         77.2739         89.1165         43.2405         2.09816
            5203         88.9852         102.210         42.0171    -466.269E-03
            5204         76.9811         45.3151         88.7779        -2.16708
            5205         42.7861         33.7392         41.6706         10.9820
            5206         43.9524         44.8104         31.0714        -10.8124
            5207         80.1165         92.4340         43.6957        -1.19206
            5208         41.0439         41.0216         30.3249        -10.4276
            5209         41.6079         30.4383         41.8808         10.4165
            5210         80.5860         44.8208         92.9903         1.40366
            5211         85.8978         98.7836         41.9739         1.25943
            5212         81.7113         36.3572         93.3745         3.21061
            5213         79.0638         39.7935         90.6112         4.57900
            5214         64.6536         47.6880         73.5119         1.58982
            5215         67.8709         77.1512         45.4441        -5.62888
            5216         80.6736         37.4251         92.5154        -1.90557
            5217         78.9891         40.0535         90.7124        -3.63303
            5218         67.7316         77.9217         42.3020        -2.74235
            5219         75.4013         86.7683         41.7681        -3.47348
            5220         56.0971         53.1271         58.6572    -60.0360E-03
            5221         80.2397         35.9149         91.2293         5.83757
            5222         78.0266         39.8134         88.2573         8.70875
            5223         57.3202         50.2138         62.0625         3.09948
            5224         59.6731         66.9416         47.5587    -711.998E-03
            5225         62.5494         71.3217         45.3041         1.20310
            5226         68.3784         78.5755         45.0989         1.93702
            5227         64.6334         73.5745         47.4705         1.07041
            5228         72.8841         42.6908         83.4140        -5.55890
            5229         73.7036         39.2002         84.7094        -3.67443
            5230         99.6729         112.170         33.8311     982.923E-03
            5231         99.4423         111.849         33.6278         1.73347
            5232         88.8264         100.891         34.5955         1.23574
            5233         89.6404         101.714         34.2587     432.846E-03
            5234         58.4755         60.3571         56.3565    -786.960E-03
            5235         80.2624         36.8250         91.8314         3.39899
            5236         78.9497         39.6373         90.1924         5.83819
            5237         63.5593         68.3778         43.9743        -12.0746
            5238         65.6951         74.3171         43.0220        -6.81142
            5239         62.3830         70.0521         45.2584        -5.95731
            5240         86.3739         98.4454         35.7523         1.85999
            5241         96.0469         108.493         34.8982         2.74198
            5242         85.5879         98.5546         42.9118     40.3393E-03
            5243         68.4151         78.1964         41.8176        -5.39189
            5244         85.5511         43.9669         98.5914    -361.858E-03
            5245         53.8308         57.9350         36.7193        -10.3330
            5246         53.5937         38.2024         57.4119         10.1653
            5247         85.3812         44.2001         98.4179    -309.506E-03
            5248         68.2206         77.8941         41.6433         5.66183
            5249         68.4142         43.7337         77.9896         5.66477
            5250         85.8547         43.4597         98.8929     335.776E-03
            5251         74.6741         85.6057         41.0247         5.05980
            5252         68.0544         41.8331         77.6422         5.80510
            5253         95.4399         109.025         40.6062    -431.250E-03
            5254         54.1966         36.8011         58.4322         10.3117
            5255         68.4201         43.7333         78.0244        -5.57284
            5256         95.1568         108.829         41.3140     380.150E-03
            5257         75.1606         86.2004         41.0716        -4.90290
            5258         66.7762         42.7682         76.5451         3.85087
            5259         95.3277         109.696         46.9517    -115.009E-03
            5260         72.4377         83.3206         41.9182        -3.67013
            5261         86.2258         49.6357         99.5643    -171.893E-03
            5262         66.7787         76.5761         42.5838        -3.78669
            5263         66.2823         43.7700         75.8207         3.97616
            5264         55.0500         35.8030         61.1635         8.11385
            5265         56.8766         36.5296         64.4237         5.87355
            5266         60.6568         69.1932         35.6398        -5.39664
            5267         58.5437         66.0260         34.7363        -7.18385
            5268         95.2459         109.257         43.7309     228.584E-03
            5269         95.1305         109.457         46.7191     140.375E-03
            5270         57.1434         64.7895         36.6488        -5.74483
            5271         55.1551         61.3983         35.8002        -7.93188
            5272         55.6362         37.0351         62.8746         5.74831
            5273         54.0383         36.5361         60.0389         7.61959
            5274         86.3024         50.3673         99.6512    -120.528E-03
            5275         85.8994         47.2481         99.1511    -173.922E-03
            5276         89.1652         100.532         32.9391        -4.83996
            5277         100.986         112.938         32.6733        -4.67953
            5278         91.1129         33.5106         103.102        -1.08393
            5279         91.0398         33.6602         103.021         1.78614
            5280         64.7886         47.9519         72.6558         5.86765
            5281         58.3064         57.6828         58.6988         2.05661
            5282         67.1194         41.5043         76.3713        -6.31327
            5283         64.9283         41.2459         73.2424        -7.54892
            5284         86.0376         99.0621         43.0134     65.8439E-03
            5285         86.8603         99.7497         40.8124     160.923E-03
            5286         66.5886         75.7511         41.2589         6.29612
            5287         64.3791         72.6109         41.0399         7.48340
            5288         86.2248         43.3403         99.2950     318.778E-03
            5289         73.2768         83.8796         40.7682         5.51582
            5290         86.7092         41.2307         99.6293     315.186E-03
            5291         69.8995         79.4839         40.5230         7.00141
            5292         64.4212         43.1279         72.4083        -7.52626
            5293         67.1361         43.4100         76.3124        -6.10922
            5294         60.1699         46.8558         67.8032        -1.24416
            5295         57.6815         49.6421         63.1074        -2.08649
            5296         77.1945         85.6451         39.5821        -12.2089
            5297         92.4032         104.596         35.6555        -4.32645
            5298         82.5766         94.1836         36.1015        -3.88144
            5299         76.7591         88.1422         38.4673        -3.35515
            5300         84.4982         96.5414         38.3555        -4.14129
            5301         36.7791         36.0000         28.0397         9.65937
            5302         37.4497         30.2439         35.7659        -9.83675
            5303         37.6400         29.4181         36.0640        -10.1926
            5304         39.8821         39.9926         29.0289         10.1561
            5305         35.9963         30.9487         31.8050        -10.1763
            5306         35.0698         31.6902         29.5275         9.82314
            5307         37.4275         35.2483         30.1069         10.2171
            5308         35.9845         31.2986         32.0297        -9.86344
            5309         66.2417         46.6820         75.4169         3.72656
            5310         79.0345         90.0091         36.9756         5.93722
            5311         89.9009         101.542         36.1937         6.74756
            5312         71.1721         40.7275         82.1488         1.15692
            5313         72.7855         42.8730         83.8223         3.00933
            5314         86.4197         46.4164         99.7085    -258.795E-03
            5315         65.4386         74.5874         41.0256        -5.65158
            5316         95.5350         109.605         43.9927    -192.644E-03
            5317         66.8279         43.3852         76.1976         5.27455
            5318         72.8545         83.5584         41.0940        -4.85837
            5319         69.9529         44.3331         80.2777         3.76096
            5320         69.6922         41.0480         80.2819         2.72614
            5321         42.7249         31.2399         43.0492        -10.6630
            5322         40.1740         40.4843         29.3540         10.0281
            5323         44.1764         45.3765         30.8158         10.6649
            5324         40.7979         31.4882         40.4366        -10.1837
            5325         90.7571         33.5340         102.752    -172.323E-03
            5326         56.1491         52.8938         58.9045     549.181E-03
            5327         99.1318         111.099         33.1778        -4.80639
            5328         37.0501         36.6308         27.8637        -9.57739
            5329         78.3986         90.4347         43.2969        -1.71418
            5330         79.9487         43.9732         92.2284        -1.59778
            5331         37.6753         28.4438         37.0938         9.82373
            5332         77.9408         43.9870         89.8812         2.22756
            5333         88.1532         101.304         42.1264     672.976E-03
            5334         39.2930         31.8150         37.3622         10.4001
            5335         79.8138         92.0869         43.7423         1.28433
            5336         77.5875         45.4332         89.5023         1.94696
            5337         40.2414         40.3447         29.2870        -10.2555
            5338         86.3507         99.3072         42.1700        -1.15456
            5339         79.2773         45.5461         91.5006        -1.36484
            5340         86.3027         36.6550         98.5714    -677.108E-03
            5341         85.7810         37.7702         98.0691        -2.47172
            5342         61.9772         69.3313         49.8606        -1.31283
            5343         60.6613         66.9341         51.3368     335.881E-03
            5344         58.5789         59.5766         57.2833         2.11954
            5345         59.7505         53.5258         64.2161        -2.49123
            5346         63.5234         70.7575         39.3453         9.39011
            5347         57.7665         39.6864         62.5579        -10.5065
            5348         58.1547         41.8405         62.8242        -10.2154
            5349         57.5886         62.5133         39.4624         10.2984
            5350         86.8641         41.3135         99.8023     645.757E-03
            5351         86.9761         99.7698         39.9259    -223.669E-03
            5352         58.4194         58.4152         58.3992     688.544E-03
            5353         57.6759         49.6373         62.9590         2.82427
            5354         61.3979         45.8308         69.6011        -2.22157
            5355         69.6797         79.7271         39.9990        -5.41372
            5356         63.9999         42.1055         72.7100         5.71159
            5357         64.0453         40.6435         72.9557         5.55410
            5358         95.9035         110.079         44.5759    -84.2869E-03
            5359         64.4206         73.4225         40.6725        -5.51293
            5360         86.5352         46.6464         99.8493    -243.861E-03
            5361         79.9245         39.8211         91.8031        -3.16749
            5362         80.9082         37.7634         92.8507        -1.31157
            5363         68.3234         45.2445         78.4652         2.18810
            5364         61.4736         67.9916         38.4835         9.86092
            5365         56.9099         41.4268         60.8792        -10.6194
            5366         86.5727         42.1442         99.5688     577.694E-03
            5367         56.8048         38.8206         61.4393        -10.4893
            5368         56.5675         61.2861         38.6071         10.3193
            5369         86.6762         99.4838         40.2636    -236.907E-03
            5370         86.7030         37.2429         98.9933        -2.41584
            5371         86.1675         37.3526         98.5385    -394.443E-03
            5372         85.6632         38.3841         98.0664        -2.00173
            5373         77.6524         40.3872         89.0037         4.88947
            5374         79.6851         37.3728         91.3608         2.62033
            5375         82.9867         95.5129         41.0695     121.098E-03
            5376         72.3354         44.0373         83.1389         3.75381
            5377         49.9597         50.3177         37.3376         12.2305
            5378         49.7249         36.1489         50.8912        -11.7696
            5379         82.9310         41.7431         95.5001    -648.819E-03
            5380         72.1096         82.8855         41.9714        -3.95849
            5381         79.8358         91.8179         41.1672        -3.07582
            5382         82.5050         42.3556         95.0789     259.439E-03
            5383         49.7632         39.1087         49.3405        -12.1387
            5384         71.7184         41.9926         82.3313         4.43516
            5385         92.3077         105.541         39.8886    -465.615E-03
            5386         56.0353         57.3676         54.0292        -3.12434
            5387         77.8127         89.7645         44.1570         1.91854
            5388         89.0120         102.358         43.1508    -543.371E-03
            5389         77.7327         46.3483         89.6603        -1.90010
            5390         41.6419         31.7588         41.6878         10.1900
            5391         43.3516         45.1278         29.4780        -10.0692
            5392         80.4118         92.8121         45.0681        -1.11170
            5393         39.7626         40.9574         28.1731        -9.37597
            5394         40.1321         28.3140         41.4538         9.38456
            5395         80.8032         46.0992         93.2665         1.27696
            5396         85.9964         98.9616         42.7504         1.29393
            5397         68.7262         77.5986         41.1358        -8.19912
            5398         78.2822         87.9451         39.7620        -10.1592
            5399         66.5504         75.5830         46.2892        -4.90433
            5400         71.8698         81.8735         43.2240        -6.64785
            5401         66.0862         75.8550         43.1448        -2.86764
            5402         73.7572         84.8407         42.4801        -3.72641
            5403         81.2355         35.2987         92.0988         6.37658
            5404         79.8336         38.7896         89.7726         9.86394
            5405         60.3870         68.1242         46.9106    -523.296E-03
            5406         63.4503         72.4837         44.7076         2.14930
            5407         65.9082         75.4075         46.5182     703.146E-03
            5408         69.6715         79.9593         44.4637         3.60048
            5409         74.9135         41.5908         85.5731        -6.28572
            5410         75.6044         38.2849         86.6808        -4.29286
            5411         100.579         112.982         33.2153     509.280E-03
            5412         98.5606         111.070         34.2501         1.70640
            5413         88.4468         100.622         35.2673     975.301E-03
            5414         57.0917         50.6123         61.7611        -1.76066
            5415         58.9352         62.5379         54.4772    -704.444E-03
            5416         65.1319         74.0884         43.5078        -5.27784
            5417         67.9039         43.6579         77.9345         3.34635
            5418         95.0233         109.396         47.3602    -132.445E-03
            5419         74.0209         85.2326         42.8272        -3.19352
            5420         86.0801         50.5099         99.3918    -152.012E-03
            5421         67.8985         77.9586         43.4687        -3.26057
            5422         67.6807         44.7097         77.5364         3.48581
            5423         52.8153         34.6671         58.1482         8.60751
            5424         56.2701         62.8657         33.8589        -8.09041
            5425         94.8012         108.839         44.2826     220.577E-03
            5426         53.0547         58.4701         34.8086        -8.55719
            5427         52.9933         36.3976         58.1213         8.58083
            5428         85.4168         46.8589         98.5903    -127.985E-03
            5429         77.1416         37.2588         88.0224         5.60580
            5430         76.0812         40.7818         85.8904         9.14331
            5431         58.2707         57.4122         58.5358         3.34358
            5432         65.7102         41.0736         74.5929        -6.59500
            5433         86.3354         99.4711         43.9989     45.9999E-03
            5434         66.7619         41.5140         75.7951        -6.71793
            5435         86.5443         99.3602         40.4383     230.816E-03
            5436         66.6728         75.9441         41.2973         6.01591
            5437         65.8241         74.6269         41.4225         6.80800
            5438         71.7283         81.8861         40.8118         6.21638
            5439         86.3951         41.2414         99.2860     287.080E-03
            5440         86.3141         44.3954         99.4740     306.639E-03
            5441         72.8312         83.4273         40.8407         5.27664
            5442         66.5491         43.1674         75.6301        -6.06071
            5443         60.3178         46.7162         68.0949    -127.739E-03
            5444         58.2789         48.7880         64.1885        -3.03438
            5445         88.1522         100.218         34.9060         1.52796
            5446         98.0274         110.492         34.2856         2.13220
            5447         80.6861         92.2502         36.8879        -3.75648
            5448         90.0849         102.309         36.5073        -4.09727
            5449         35.3349         35.3860         26.1734         8.89774
            5450         38.0952         36.5267         29.7428         10.3088
            5451         35.9905         28.1311         35.4101        -9.05919
            5452         38.5698         32.2855         35.5584        -10.4705
            5453         39.5667         31.7700         36.9920        -11.0003
            5454         39.2459         40.4215         27.2515         9.40299
            5455         40.5389         39.8329         30.4846         10.6727
            5456         73.6357         39.8214         84.9296         1.34801
            5457         74.2442         42.2016         85.5207         2.97524
            5458         86.2233         45.8772         99.4611    -279.058E-03
            5459         67.2146         76.8348         41.8025        -5.12032
            5460         95.6565         109.565         42.6740    -245.714E-03
            5461         67.0955         41.8876         76.6235         5.34317
            5462         66.9663         43.3194         76.2334         5.73814
            5463         72.8882         83.4940         40.8504        -5.27384
            5464         84.1324         95.8934         35.7247        -3.27694
            5465         94.1421         106.467         35.2544        -3.56190
            5466         39.2828         29.8341         38.4411        -10.3635
            5467         39.5401         38.7861         29.9516         10.3870
            5468         41.8396         42.1818         30.1350         10.5558
            5469         38.8939         31.0250         37.5072        -10.1169
            5470         89.9981         33.8048         102.001     510.854E-03
            5471         90.2693         34.2526         102.277         2.44842
            5472         41.0774         39.7680         31.6277        -11.0049
            5473         79.1345         91.2753         42.8483        -1.42574
            5474         78.4567         43.9121         90.4869        -2.06346
            5475         78.7529         43.6134         90.8274         1.96345
            5476         87.0458         100.072         42.0706     951.844E-03
            5477         39.7274         29.5594         39.4889         10.2046
            5478         41.0873         32.8054         39.5489         10.7281
            5479         78.3164         90.3354         43.1270         1.72668
            5480         79.5002         45.3042         91.7615         1.26594
            5481         42.2416         42.6859         30.3003        -10.6075
            5482         87.7044         100.802         42.0665    -781.717E-03
            5483         78.2773         45.0675         90.3259        -1.65843
            5484         60.5466         66.6897         51.5045    -400.086E-03
            5485         63.5708         71.8734         48.3991        -1.96626
            5486         61.6355         68.8256         50.1021     147.609E-03
            5487         69.8709         80.4737         44.2641         1.70363
            5488         63.7318         72.9909         44.5347     673.828E-03
            5489         67.8835         42.0007         78.2342         1.77132
            5490         68.1951         45.3651         78.1335         3.27975
            5491         84.0735         96.2700         38.6397        -3.01377
            5492         74.9317         86.2126         39.2385        -2.90676
            5493         86.2692         46.5499         99.5445    -239.944E-03
            5494         95.6201         109.767         44.5630     156.391E-03
            5495         57.1005         38.3652         63.8711         7.29135
            5496         62.0497         70.3668         36.5234        -6.70195
            5497         57.3731         64.3598         36.9694        -7.35062
            5498         57.5969         37.1576         64.5433         7.50900
            5499         86.4357         98.2760         34.8940         2.86320
            5500         96.6856         108.932         34.2332         3.61356
            5501         58.8210         55.1662         61.8915     345.710E-03
            5502         60.2163         52.3389         65.7878    -789.631E-03
            5503         77.8309         38.3251         89.4878         1.86268
            5504         76.5589         41.0339         87.9846         3.93893
            5505         77.9492         40.4630         89.5570         3.74645
            5506         79.1121         37.9211         90.8602         1.88360
            5507         58.7336         55.0907         61.6645         1.75892
            5508         76.1889         38.3062         87.4751        -3.48034
            5509         75.3538         41.4495         86.3591        -5.22094
            5510         95.6586         109.628         43.1214     219.658E-03
            5511         59.5286         66.7455         35.6648        -8.10717
            5512         54.4222         37.2159         59.9662         8.41634
            5513         56.4443         36.8241         62.5956         8.50020
            5514         56.4228         62.7673         36.6898        -8.17680
            5515         95.9744         110.102         44.1306     88.6198E-03
            5516         86.5145         47.4568         99.8566    -221.684E-03
            5517         64.2273         72.8206         37.6666        -6.98666
            5518         59.5846         39.9198         66.7831         7.36486
            5519         59.4025         38.1223         66.9221         7.02410
            5520         58.3952         57.3311         59.3892    -552.604E-03
            5521         73.7220         84.9859         43.6979        -2.34757
            5522         67.4024         45.3159         77.2779         2.55544
            5523         68.1953         44.5760         78.3302         2.55588
            5524         94.9698         109.471         49.1417    -97.1024E-03
            5525         86.1834         52.0091         99.4813    -103.338E-03
            5526         68.1566         78.3110         44.3411        -2.51485
            5527         73.2080         84.3748         42.6976        -2.57057
            5528         65.2866         74.9945         43.6250        -1.48954
            5529         65.0152         74.2482         43.6735        -4.06131
            5530         98.9242         111.481         34.2933         1.28047
            5531         87.6551         99.9431         36.2118     932.062E-03
            5532         100.607         113.018         33.2331    -186.834E-03
            5533         89.7021         101.783         34.2619    -64.1193E-03
            5534         59.5690         64.4645         52.8289        -1.58101
            5535         58.4302         48.6258         64.6091         2.37696
            5536         60.2569         46.6757         67.6564        -3.30652
            5537         69.3199         79.4725         40.1217        -4.76781
            5538         63.5938         42.0165         72.4299         5.03134
            5539         63.3590         40.5976         72.3596         4.75809
            5540         95.7442         110.063         46.0045    -56.8326E-03
            5541         86.5964         48.7452         99.9818    -181.985E-03
            5542         63.2810         72.1557         40.2356        -5.23977
            5543         82.0755         38.9118         94.0794        -3.27173
            5544         68.5754         45.0563         78.8857         1.13422
            5545         71.6457         82.3598         43.4573        -3.67691
            5546         61.6036         45.6826         70.0604     247.469E-03
            5547         61.8898         68.2499         39.5434         10.1234
            5548         57.0530         42.5223         60.4744        -10.9734
            5549         86.7144         40.6544         99.5603     799.349E-03
            5550         56.8631         61.0145         39.9325         10.8397
            5551         58.4112         55.6431         59.9289         4.42968
            5552         72.8605         83.3824         40.7185        -5.57523
            5553         65.8548         41.1359         74.8266         6.42213
            5554         95.7789         109.524         41.4673    -315.183E-03
            5555         66.1874         75.3405         41.1492        -6.09727
            5556         86.3946         44.3007         99.5573    -304.123E-03
            5557         85.2644         37.7848         97.6245    -410.377E-03
            5558         84.6912         38.9547         97.0882        -1.91861
            5559         83.6965         96.2200         40.2787    -152.832E-03
            5560         69.7662         44.0085         79.8663         4.71687
            5561         73.9672         44.2804         85.1481         3.19252
            5562         81.9382         94.3851         41.5413     416.672E-03
            5563         48.5353         48.7067         36.2026         12.0556
            5564         51.0811         51.3926         38.5409         12.4284
            5565         50.3269         37.6517         50.6585        -12.3321
            5566         83.7312         41.3904         96.3614    -470.266E-03
            5567         73.8520         85.0298         42.0714        -3.23333
            5568         71.1909         81.7851         41.7173        -4.11767
            5569         81.5822         42.1319         94.0138    -990.894E-03
            5570         47.2940         35.7697         46.7764        -12.1436
            5571         77.8543         89.4983         40.9693        -3.63060
            5572         81.1910         93.3904         41.1310        -2.56226
            5573         81.5735         43.0952         94.0822    -156.531E-03
            5574         83.3694         42.2604         96.0336     402.543E-03
            5575         46.9942         37.3184         45.8041        -11.9319
            5576         51.8369         40.4453         52.1196        -12.1488
            5577         54.6870         57.1508         38.4565         12.1570
            5578         93.2634         106.390         38.8082    -798.832E-03
            5579         70.5581         41.8962         80.8676         4.88625
            5580         72.8747         42.1318         83.7677         3.99524
            5581         91.1563         104.328         40.0846    -294.520E-03
            5582         56.2988         58.8247         52.8032        -3.00899
            5583         80.6641         92.3856         37.2378        -2.89679
            5584         90.2308         102.587         36.6587        -3.38800
            5585         58.3039         59.1253         56.8300         3.36547
            5586         65.6439         41.5134         74.2330        -7.23152
            5587         64.5160         72.7705         41.4174         7.42368
            5588         86.6839         40.1939         99.4835     260.659E-03
            5589         70.2019         79.9036         40.8585         6.80814
            5590         64.4336         44.0355         72.3082        -7.48814
            5591         56.9965         50.8103         61.0565        -3.71115
            5592         86.3217         98.4919         36.2398         1.50362
            5593         96.5572         109.106         35.0475         2.21080
            5594         88.0936         100.218         37.1101        -4.42688
            5595         71.9376         40.5901         83.0537     481.972E-03
            5596         76.7614         38.4175         88.2489         2.50612
            5597         75.0599         41.7049         86.2757         4.05443
            5598         73.6076         42.6176         84.9206         1.77308
            5599         42.7642         32.5030         41.8257        -11.2902
            5600         45.5117         45.6450         33.1728         11.5699
            5601         43.0491         33.7607         42.1319        -10.9658
            5602         89.9231         33.5687         101.859         1.05296
            5603         90.0888         34.2777         102.021         3.15302
            5604         39.3227         36.9402         31.4199        -10.8804
            5605         77.4564         89.3209         42.5716        -1.95444
            5606         79.7121         42.8275         91.9168        -1.60134
            5607         38.8426         30.3472         37.1798         10.5477
            5608         88.0282         101.083         41.3404     582.647E-03
            5609         77.4380         43.2721         89.2758         2.39178
            5610         40.7343         34.1381         37.4427         11.1076
            5611         79.2707         91.4328         42.8623         1.38300
            5612         76.8363         44.8921         88.6144         2.16655
            5613         41.2066         40.2287         31.2874        -10.9450
            5614         85.9361         98.7724         41.3786        -1.13918
            5615         79.6634         44.8698         91.9498        -1.14841
            5616         68.7246         79.1296         44.7329     280.544E-03
            5617         62.8484         71.7886         45.0491    -552.529E-03
            5618         67.2271         42.2057         77.3542         2.53568
            5619         81.9710         93.9888         39.2835        -3.38410
            5620         85.8791         98.1503         38.0641        -3.10242
            5621         73.3173         84.4895         39.9481        -2.33020
            5622         77.0441         88.5604         38.5594        -2.63656
            5623         59.7822         52.5510         64.9173         1.78051
            5624         60.3803         53.0611         64.5674        -5.39659
            5625         64.3584         47.5777         73.1990    -985.187E-03
            5626         64.9569         74.2327         43.7295         3.77658
            5627         73.3826         84.0080         42.6068         5.52687
            5628         66.3971         76.1025         45.9536    -900.028E-03
            5629         60.8761         68.8567         46.4452        -1.36190
            5630         61.3888         68.3879         50.3443     146.546E-03
            5631         61.1334         67.9095         50.4382        -1.50661
            5632         66.9913         76.3933         46.0051        -4.07864
            5633         64.4771         74.0012         44.0762    -188.279E-03
            5634         72.9220         84.1348         42.7698        -1.64562
            5635         75.2011         86.2644         41.8339         4.91129
            5636         66.5466         76.4283         42.8934         2.92013
            5637         79.5918         91.7588         41.8040         1.07695
            5638         76.2233         44.2381         87.9017         2.22708
            5639         85.3612         98.0781         40.7655        -1.09677
            5640         78.9849         43.9035         91.1558        -1.12155
            5641         42.1916         36.3933         37.6387         11.6731
            5642         43.7792         41.8865         34.2988        -11.8658
            5643         39.7378         36.3821         32.6876        -11.1981
            5644         76.5421         88.2456         42.0351        -2.14964
            5645         79.9171         41.8413         92.1116        -1.36246
            5646         37.1689         30.6208         34.0924         10.4169
            5647         87.8557         100.825         40.7306     466.894E-03
            5648         77.4979         42.4855         89.3357         2.27365
            5649         68.7367         77.9579         41.0624         7.35561
            5650         87.3360         38.4119         99.9575     234.125E-03
            5651         64.5359         41.6629         72.6475        -7.70579
            5652         87.0399         99.7209         39.0238     332.972E-03
            5653         64.4434         44.3458         72.3262        -7.36385
            5654         63.0656         70.6372         41.8808         7.99987
            5655         97.1860         109.884         35.3946         1.55147
            5656         87.1315         99.3126         35.9072         1.36744
            5657         88.8657         35.0028         100.796         3.65824
            5658         89.1094         34.1355         101.111         1.03663
            5659         86.3810         41.4631         99.2861     699.183E-03
            5660         55.9224         42.2218         58.5685        -11.3612
            5661         60.1242         65.6551         39.1724         10.6726
            5662         86.4948         99.2358         39.8571    -303.434E-03
            5663         55.7325         59.5468         39.0366         10.9687
            5664         55.9422         39.2228         59.6760        -11.1136
            5665         86.4734         39.9089         99.2001         1.03914
            5666         56.1298         43.4323         58.2034        -11.6112
            5667         61.0937         66.7932         40.4129         10.6021
            5668         86.8810         99.5608         39.1184    -350.084E-03
            5669         56.3185         59.6987         40.6197         11.2964
            5670         56.8497         40.1574         60.7309        -11.1030
            5671         65.4174         74.2304         47.0583        -3.99865
            5672         62.8025         71.4655         45.1164        -2.92215
            5673         68.2723         78.0488         45.2384        -4.23391
            5674         60.0386         65.6351         52.0617         1.05173
            5675         62.2070         69.8455         49.2454         1.38693
            5676         60.2907         66.1963         51.5995        -1.43747
            5677         62.0513         69.5588         49.3451        -1.76803
            5678         42.3508         42.2357         31.3944         10.8026
            5679         44.3373         32.5237         44.6251        -11.0752
            5680         45.5487         46.4148         32.2931         11.2010
            5681         57.1433         50.4247         61.0010        -5.08405
            5682         44.0685         42.5985         34.0854         11.7979
            5683         44.1258         36.3061         41.3936        -11.8091
            5684         43.8908         34.5569         41.7804        -11.9781
            5685         47.0297         46.1640         35.6730         12.3143
            5686         95.7574         110.061         45.8422     61.6130E-03
            5687         86.5590         48.9085         99.9415    -176.985E-03
            5688         65.0488         74.2401         38.0078        -5.68218
            5689         59.8209         39.7888         67.6837         5.98228
            5690         60.4625         38.7440         68.6822         5.72694
            5691         59.6494         67.7582         38.1919        -5.65879
            5692         74.2202         85.4879         42.2659        -3.01537
            5693         66.7084         76.8065         42.8737        -1.36519
            5694         100.958         113.307         32.9334    -547.768E-03
            5695         89.9315         101.957         33.9251    -392.317E-03
            5696         59.1335         47.7576         65.7301        -3.39837
            5697         61.8456         45.3658         70.0179        -3.68474
            5698         68.1257         77.7124         39.3031        -6.09653
            5699         62.7702         41.4807         71.0582         6.26435
            5700         64.6770         41.6941         74.0701         3.94207
            5701         62.6751         39.8222         70.9167         6.76361
            5702         96.0695         110.191         44.0137    -40.5760E-03
            5703         64.5368         73.8893         41.3395        -4.12189
            5704         62.2984         70.6587         39.5640        -6.28943
            5705         86.6483         46.9495         99.9899    -238.338E-03
            5706         86.5490         48.6344         99.9257    -191.420E-03
            5707         72.6375         83.1083         42.9486        -5.59815
            5708         58.6998         54.8355         61.5029         3.09155
            5709         86.0999         38.0072         98.5628    -186.686E-03
            5710         84.0328         37.6738         96.2687    -667.489E-03
            5711         83.5060         39.0463         95.7773        -2.24339
            5712         85.5217         39.5853         98.1077        -1.35024
            5713         81.3996         93.7304         40.8249     349.010E-03
            5714         73.6067         43.9740         84.7426         3.13040
            5715         84.3177         96.9488         40.7201    -126.875E-03
            5716         69.8783         43.9713         79.9605         4.89163
            5717         47.5274         46.6150         36.4445         12.3363
            5718         51.7111         53.1909         37.7748         11.9319
            5719         51.2534         37.3596         52.6147        -11.9517
            5720         84.3304         41.9403         97.0740    -444.069E-03
            5721         70.0260         80.2400         41.8322        -4.89450
            5722         73.8665         85.0876         41.6073        -2.91323
            5723         48.7220         36.9638         48.2993        -12.3830
            5724         82.2247         41.3780         94.6839    -722.296E-03
            5725         76.6686         88.0698         40.9967        -4.14840
            5726         84.2159         42.3622         96.9817     470.287E-03
            5727         81.7397         42.5094         94.2346     83.8140E-03
            5728         80.5068         92.6061         40.8242        -2.54319
            5729         48.8420         39.2579         47.3880        -12.3705
            5730         53.0648         40.4852         54.4589        -11.7733
            5731         55.3321         58.7561         37.5124         11.6370
            5732         70.3947         41.9917         80.6212         5.09097
            5733         94.2192         107.360         38.5028    -868.714E-03
            5734         72.9426         41.9121         83.8803         3.81661
            5735         51.5494         53.1556         36.4545         12.1195
            5736         91.0014         104.043         39.3067    -523.039E-03
            5737         81.3863         93.2480         37.3159        -2.28831
            5738         92.1816         104.634         36.2084        -2.99035
            5739         69.3416         41.5684         80.0477     220.258E-03
            5740         75.8105         39.1124         87.3349         1.40770
            5741         75.7371         41.5462         87.2132         3.01421
            5742         71.0890         43.7388         81.9081         2.17434
            5743         80.4227         43.3851         92.7555        -1.43453
            5744         36.7586         35.4897         28.5182        -9.84021
            5745         76.6023         88.3194         42.8743        -2.31157
            5746         35.7143         27.4475         34.7960         9.42420
            5747         76.4018         43.2546         88.0439         2.75951
            5748         89.2389         102.503         42.1440     419.798E-03
            5749         37.4081         30.7713         35.1217         9.99511
            5750         80.6853         93.0715         43.3104     998.009E-03
            5751         76.3605         45.1024         88.0364         2.37728
            5752         37.9616         37.7663         28.0863        -9.77524
            5753         84.9976         97.7944         42.2236        -1.55389
            5754         70.2346         81.0041         43.9058     147.075E-03
            5755         64.0709         73.4419         44.2581    -997.406E-03
            5756         66.1020         42.9568         76.1003     807.985E-03
            5757         79.1763         40.0097         90.9371         3.50769
            5758         80.1498         37.9570         92.0413         1.32445
            5759         60.7502         51.2940         67.0741     596.792E-03
            5760         67.1507         45.7730         77.0860    -292.200E-03
            5761         60.6711         46.4350         68.6286     744.577E-03
            5762         62.0964         49.4281         69.5791        -1.89171
            5763         56.8888         61.0081         51.2203        -2.28622
            5764         59.1186         53.6204         63.0204         3.02600
            5765         58.3171         57.2224         59.0684        -2.41097
            5766         72.2708         83.4278         40.5776    -736.900E-03
            5767         81.2475         93.3396         39.6000        -2.37800
            5768         58.4903         60.4839         55.2934         4.07491
            5769         78.7146         90.1909         37.6642        -3.65011
            5770         85.7961         97.9345         37.9512        -3.92545
            5771         98.9388         111.615         34.7398     743.186E-03
            5772         88.1594         100.439         35.9227     767.037E-03
            5773         77.2750         43.1873         89.0814        -2.44761
            5774         42.7972         42.3044         32.1219        -11.0908
            5775         79.7412         91.9526         42.3434        -1.15471
            5776         43.9810         35.7282         41.7510         11.6386
            5777         77.8247         89.7482         42.4344         1.79571
            5778         80.0657         44.7586         92.4151     999.521E-03
            5779         43.0771         32.6102         42.2720         11.3106
            5780         80.0469         43.8695         92.3390         1.56536
            5781         85.7751         98.5882         41.3236         1.17002
            5782         44.6595         44.7756         32.5176        -11.3756
            5783         87.3785         100.348         41.1569    -701.702E-03
            5784         64.4480         43.8892         73.9891    -267.543E-03
            5785         78.0764         37.3796         89.3783        -4.12866
            5786         71.9335         82.9888         40.5695        -1.65433
            5787         79.7114         91.6579         40.1064        -2.60059
            5788         71.8182         82.9254         40.8349    -6.05311E-03
            5789         76.9107         38.9861         88.5763     969.043E-03
            5790         76.5711         41.3679         88.2411         2.28718
            5791         62.6225         71.3997         45.2574        -1.50476
            5792         70.1662         80.8969         44.0300    -863.150E-03
            5793         82.6048         95.0051         41.0571        -2.04400
            5794         80.3374         43.5369         92.7009    -602.038E-03
            5795         47.6828         38.7454         45.6505        -12.3453
            5796         74.0613         42.3086         85.2225         3.55131
            5797         49.4951         50.6848         35.1412         11.9308
            5798         89.9502         103.049         40.2700    -66.6007E-03
            5799         75.0384         44.0605         86.4848         2.60652
            5800         46.6666         46.3351         35.0786         11.9121
            5801         47.2843         36.7457         45.8335        -12.5037
            5802         81.6055         41.0632         93.9689    -772.087E-03
            5803         74.7612         86.1384         41.8873        -2.76701
            5804         67.5889         42.3648         77.9366    -615.460E-03
            5805         68.8782         41.8460         78.6362         5.77584
            5806         56.2484         60.5903         36.9102         11.0565
            5807         94.9738         108.261         39.0210    -700.310E-03
            5808         75.4894         86.6296         40.9837        -4.64379
            5809         84.9187         42.5847         97.7801     490.230E-03
            5810         84.9816         41.7684         97.7805    -356.627E-03
            5811         68.9287         78.8116         41.7064        -5.39813
            5812         52.4036         54.9766         37.1530         11.3418
            5813         68.6741         43.9498         78.3601         5.42084
            5814         79.8797         91.9066         40.6567        -2.42124
            5815         80.9906         42.1253         93.3710     157.218E-03
            5816         49.6741         41.0556         47.2370        -12.7797
            5817         72.9789         41.7428         83.9542         3.63450
            5818         51.4778         52.1019         37.8368         12.5845
            5819         91.0426         103.985         38.6804    -800.192E-03
            5820         72.5695         43.8408         83.4990         3.31164
            5821         48.6308         47.0891         38.1592         12.7583
            5822         48.7292         37.8192         47.5275        -12.6864
            5823         81.6756         40.3677         93.9933    -553.010E-03
            5824         73.1122         84.2143         41.4247        -2.93730
            5825         78.1600         90.1190         41.6714         1.46436
            5826         78.0810         43.7343         90.1073         1.34160
            5827         85.9936         98.7077         40.0505    -558.405E-03
            5828         77.8733         43.6998         89.8663        -1.38772
            5829         43.7198         37.0406         39.8124         11.9591
            5830         45.9474         45.1271         34.7076        -12.0602
            5831         41.7630         38.2369         34.3428        -11.7731
            5832         77.3356         89.1692         41.7030        -1.74480
            5833         78.1930         41.7801         90.1341        -1.84583
            5834         78.1189         42.0752         90.0538         1.96569
            5835         86.8258         99.6452         40.2819     522.499E-03
            5836         43.2626         34.3673         40.8506         11.9121
            5837         87.3689         39.1132         100.089     365.045E-03
            5838         86.4042         39.7581         99.1259     183.493E-03
            5839         67.3694         76.0949         41.4026         7.84347
            5840         71.6018         81.7674         41.0229         6.12003
            5841         62.1569         41.6954         69.0504        -8.87120
            5842         66.2836         41.7285         75.1475        -6.85299
            5843         87.3268         99.9002         38.1009     421.029E-03
            5844         65.1163         44.3903         73.3583        -6.94229
            5845         62.9788         44.3366         70.0224        -8.20605
            5846         61.8648         68.7642         41.8943         8.64944
            5847         64.5517         72.8625         41.8640         7.20422
            5848         97.2621         110.036         35.6848         1.31550
            5849         86.9005         99.2057         36.6752         1.03881
            5850         61.5162         50.2797         68.5684     850.793E-03
            5851         87.2687         39.4856         100.018     887.794E-03
            5852         58.1784         43.9268         61.8337        -10.7690
            5853         62.1495         68.3426         40.9524         10.2232
            5854         87.2716         99.8945         38.4685    -361.859E-03
            5855         57.3367         61.2197         41.3328         10.9792
            5856         58.3837         41.6195         62.8063        -10.7363
            5857         67.1851         77.4456         42.6556     38.0363E-03
            5858         75.7461         87.3375         41.5911        -2.02323
            5859         63.6488         72.1458         48.1875    -460.454E-03
            5860         63.7756         72.3691         47.9599    -481.927E-03
            5861         42.4347         39.6013         34.1609         11.8080
            5862         42.9854         36.1459         39.4082        -11.7283
            5863         42.4176         33.9991         39.7214        -11.7759
            5864         45.0526         43.4598         34.9445         12.0906
            5865         95.4704         109.836         46.7591     100.327E-03
            5866         95.9630         110.155         44.6729     38.2974E-03
            5867         86.5148         50.2237         99.8978    -139.112E-03
            5868         86.6261         47.4876         99.9844    -221.375E-03
            5869         65.8106         74.9119         38.3205        -6.36249
            5870         63.0566         72.0442         37.0247        -5.23887
            5871         57.8530         38.5204         65.5202         5.60059
            5872         60.7768         40.4085         68.5864         6.54118
            5873         60.9135         38.9308         68.9115         6.55334
            5874         58.3896         37.5489         66.4381         5.16665
            5875         59.8820         67.3836         38.3797        -7.26790
            5876         58.4249         66.5621         37.5413        -4.91356
            5877         58.4085         55.1038         59.8427         5.52361
            5878         86.9183         37.0510         99.3028    -281.116E-03
            5879         84.2227         38.3468         96.5706    -307.629E-03
            5880         83.7058         39.5280         96.0903        -1.74316
            5881         86.4172         38.5835         98.9402        -1.58600
            5882         82.7742         94.6447         36.6686        -2.57222
            5883         79.9790         91.8368         38.0530        -1.75835
            5884         93.7163         106.168         35.6897        -2.96875
            5885         90.4895         102.965         36.8399        -2.74281
            5886         65.2487         75.0070         43.6393     264.861E-03
            5887         66.8716         42.6404         77.0709     70.7019E-03
            5888         78.4253         40.5282         90.2291         2.80069
            5889         78.5869         38.8324         90.4370     571.017E-03
            5890         61.1555         51.1872         67.5947        -1.89827
            5891         65.7028         46.5053         75.0893        -1.60844
            5892         64.4347         73.0096         47.7619        -3.01665
            5893         60.8876         50.9507         67.3633        -1.38131
            5894         58.4635         56.3174         60.2632        -1.68730
            5895         58.3321         59.3184         57.0709        -2.01828
            5896         58.3337         59.3379         55.6890         5.32411
            5897         98.2316         110.927         35.0479         1.15335
            5898         99.3517         112.002         34.5009     256.590E-03
            5899         87.1134         99.5213         37.1650     761.645E-03
            5900         89.1008         101.288         35.0183     360.246E-03
            5901         77.1038         42.1617         88.8709        -2.33067
            5902         43.2004         41.7302         33.4016        -11.5910
            5903         78.9218         90.9935         41.7537        -1.26216
            5904         45.1783         37.6934         41.8935         12.1700
            5905         77.3953         89.2414         41.9365         1.80869
            5906         79.6708         43.6709         91.9424     834.507E-03
            5907         44.3415         34.5764         42.5767         11.9724
            5908         79.2452         42.7502         91.3758         1.73366
            5909         85.6866         98.4402         40.7786         1.01366
            5910         46.5372         46.8063         33.8173        -11.7491
            5911         77.5845         44.1917         89.5200        -1.69918
            5912         60.0667         65.6010         51.6605        -2.86881
            5913         100.411         112.808         33.2601    -914.624E-03
            5914         89.6278         101.674         34.1477    -691.158E-03
            5915         61.8326         45.2623         69.8498        -4.36511
            5916         73.7718         84.8346         42.4731         3.85546
            5917         66.6564         76.6931         42.8839         1.92386
            5918         85.6964         41.8552         98.5722     660.212E-03
            5919         54.7858         42.0164         56.5578        -11.7428
            5920         85.7797         98.5263         40.4655    -253.046E-03
            5921         58.3138         63.5829         37.4631         10.5869
            5922         54.5364         58.1930         37.9386         10.8969
            5923         54.4637         38.1105         57.8225        -11.1667
            5924         61.2812         69.3332         46.2341        -2.32790
            5925         61.5212         45.7629         69.8506         1.64131
            5926         86.6085         50.6350         100.004    -131.396E-03
            5927         62.0369         70.7901         39.6927        -4.88828
            5928         62.7590         40.5400         71.8041         4.09527
            5929         95.6186         110.076         47.5907    -6.85221E-03
            5930         62.0047         41.2733         70.7443         4.32784
            5931         67.6910         77.7282         39.7163        -4.08612
            5932         59.7165         46.9912         66.4260        -4.72267
            5933         59.9526         65.1832         51.5416        -4.02356
            5934         63.5362         71.4445         42.4073         7.39209
            5935         86.9969         99.5271         38.0025     549.650E-03
            5936         65.0761         41.9176         73.4646        -7.30798
            5937         64.9553         44.7911         73.1729        -6.73748
            5938         87.1735         37.7266         99.6825     25.1452E-03
            5939         70.7358         80.7271         41.3956         6.18702
            5940         59.4512         64.0538         52.7374        -3.07412
            5941         41.2323         33.8163         37.8272        -11.6166
            5942         41.8852         40.2762         32.5478         11.3099
            5943         39.6098         37.1858         31.6613         10.9706
            5944         41.1281         34.9356         37.2877        -11.3036
            5945         65.3989         74.1648         42.0937         6.49608
            5946         65.6933         44.5201         74.2498        -6.48453
            5947         86.4460         99.0839         39.0945     426.412E-03
            5948         66.8102         41.8861         75.9278        -6.44041
            5949         86.4379         38.6330         99.0167     24.3893E-03
            5950         72.8483         83.3952         41.0840         5.49046
            5951         79.2214         42.8226         91.4100     542.896E-03
            5952         76.3962         88.0781         41.5951         2.00755
            5953         46.3350         39.6214         42.0382         12.5894
            5954         76.2970         41.6685         87.9286        -2.40737
            5955         44.5781         42.2169         35.3991        -12.1968
            5956         78.0963         90.0366         41.3088        -1.33372
            5957         76.7080         43.5906         88.5068        -1.69115
            5958         87.1493         99.9279         39.6797    -120.456E-03
            5959         47.7602         46.8033         36.4341        -12.4938
            5960         45.2765         36.2031         42.6691         12.4284
            5961         78.9223         41.6042         90.9670         1.57438
            5962         85.7234         98.4362         40.3036     768.496E-03
            5963         89.2808         101.419         34.7067    -463.332E-03
            5964         100.076         112.557         33.6416    -543.840E-03
            5965         63.3587         44.4984         72.5324     528.828E-03
            5966         65.9657         43.1302         75.8725        -1.53022
            5967         82.3811         39.7257         94.6426        -1.91697
            5968         82.7637         38.2074         94.9603    -504.719E-03
            5969         89.1945         101.258         34.4208        -1.00386
            5970         99.7627         112.207         33.6282        -1.25669
            5971         83.8298         40.2144         96.3286        -1.26944
            5972         83.8150         39.5658         96.2736     109.380E-03
            5973         87.1031         37.9920         99.5984        -1.59792
            5974         74.9849         86.4307         39.5508        -1.48281
            5975         81.8593         94.0615         39.4781        -1.65667
            5976         62.5243         71.3289         45.2595     674.275E-03
            5977         70.2804         80.8712         44.1133        -2.62716
            5978         68.8319         79.2709         44.5616     468.171E-03
            5979         68.5298         41.8459         78.2015         5.83630
            5980         57.2907         62.4806         36.5337         10.4296
            5981         94.9334         108.362         39.8769    -553.267E-03
            5982         53.9170         39.4154         56.9430        -10.8841
            5983         75.8894         87.0939         41.0446        -4.61642
            5984         85.4481         42.8414         98.3891     483.606E-03
            5985         53.4053         36.6949         57.0981        -10.6556
            5986         85.5892         42.7237         98.5381    -345.907E-03
            5987         69.2046         79.1728         41.8501        -5.25673
            5988         53.2111         56.8091         36.7155         10.6754
            5989         85.4332         98.2645         41.5920    -117.067E-03
            5990         68.6021         43.8349         78.2337         5.58578
            5991         81.7202         41.0951         94.0967     836.301E-03
            5992         78.1227         89.8802         40.7956        -3.00807
            5993         50.9397         42.9356         47.9634        -13.0414
            5994         72.0189         41.6653         82.8048         3.83743
            5995         52.9765         53.9227         38.9837         12.6653
            5996         92.1944         105.180         38.4466    -926.752E-03
            5997         81.6985         93.9579         39.6634    -147.370E-03
            5998         71.1012         43.9270         81.6735         3.78174
            5999         50.2244         49.1929         39.2009         12.8354
            6000         50.2668         39.8078         48.6902        -13.0333
            6001         82.8174         39.5925         95.1818    -162.124E-03
            6002         70.3926         80.9015         41.6197        -3.87116
            6003         78.9343         90.9897         41.2854         1.09074
            6004         75.4045         43.4575         86.9818         1.95468
            6005         84.6949         97.3013         40.3102        -1.00080
            6006         78.1270         43.2582         90.1636        -1.06361
            6007         43.6124         38.5006         37.9588         12.1149
            6008         42.3617         39.2225         34.7121        -11.7285
            6009         41.0832         36.7449         34.6506        -11.6935
            6010         76.4670         88.1633         41.3503        -1.84118
            6011         79.2516         41.3448         91.3332        -1.39309
            6012         39.1662         32.9115         35.1741         11.1241
            6013         87.6648         100.569         40.3254     366.109E-03
            6014         76.6820         41.6227         88.3791         2.26420
            6015         66.9068         75.4071         40.9376         8.19347
            6016         87.2414         40.1740         100.087     418.841E-03
            6017         87.4265         100.128         38.9265     215.166E-03
            6018         61.4364         41.2659         67.9763        -9.23539
            6019         61.8109         43.5223         68.2646        -8.89520
            6020         62.0789         69.1307         41.3811         8.62248
            6021         61.0484         50.3868         67.5986         2.86269
            6022         86.7104         38.8464         99.3074         1.34462
            6023         87.3815         39.5509         100.152     790.474E-03
            6024         59.2750         44.0923         63.7742        -10.2339
            6025         57.1427         45.1092         59.2744        -11.4137
            6026         63.8610         70.9514         41.1462         9.49547
            6027         60.6506         65.8961         41.2618         10.8422
            6028         86.6532         99.2095         38.3793    -538.699E-03
            6029         87.6776         100.306         38.2674    -197.547E-03
            6030         55.9836         58.6458         41.5262         11.6296
            6031         59.3156         64.8331         40.7783         9.93186
            6032         59.2009         41.1752         64.3465        -10.3014
            6033         56.8994         41.6824         60.1112        -11.4359
            6034         66.3756         76.4060         43.0122         1.18193
            6035         75.8871         87.5720         41.4773    -789.220E-03
            6036         63.6443         72.1440         47.8584         1.64476
            6037         63.0698         71.2220         48.2889        -2.05289
            6038         56.5892         51.6885         60.3114        -1.87832
            6039         45.6272         43.0730         36.4779         12.4784
            6040         45.5657         38.4646         41.7941        -12.3498
            6041         44.7988         36.3582         41.6443        -12.4483
            6042         48.9532         48.6705         36.6265         12.4997
            6043         95.7428         110.095         46.3266     29.3106E-03
            6044         96.1740         110.198         43.1934     71.0478E-03
            6045         86.6817         45.6955         99.9672    -290.572E-03
            6046         86.5891         49.4731         99.9822    -163.751E-03
            6047         64.5458         72.9031         38.0547        -7.69059
            6048         66.2056         75.7372         38.6452        -5.17966
            6049         60.7854         40.3735         69.0146         5.42193
            6050         60.6963         40.7349         67.9276         7.69345
            6051         61.9368         39.6577         70.5540         5.27806
            6052         59.9360         38.5463         67.2337         7.69712
            6053         59.8297         66.8012         38.7187        -8.25671
            6054         60.6948         69.3019         39.0205        -4.57174
            6055         78.5147         90.2084         38.2459        -2.18798
            6056         83.0188         94.9962         36.9556        -2.06390
            6057         93.4088         105.968         36.1107        -2.49193
            6058         88.1054         100.472         37.4166        -3.01311
            6059         79.6493         40.1399         91.5872         2.63833
            6060         79.9346         38.3801         91.8724     824.132E-03
            6061         64.4639         47.3127         73.3051        -1.97705
            6062         61.2029         50.2969         67.9287        -2.47072
            6063         61.5958         50.4208         68.6463     472.972E-03
            6064         58.2446         56.2104         58.5143         5.71560
            6065         58.5294         60.4378         54.3533         5.87864
            6066         86.5768         50.3161         99.9692    -140.704E-03
            6067         63.2249         72.4812         41.0140        -3.38873
            6068         63.4944         41.4986         72.8165         3.10600
            6069         95.5669         110.021         47.6193    -42.7017E-03
            6070         63.4314         42.2178         72.4604         4.07456
            6071         69.2588         79.6012         40.5949        -3.82450
            6072         61.7207         45.1354         69.4510        -5.27570
            6073         62.2823         45.1843         70.8550         2.48744
            6074         58.7925         47.9933         64.7978        -4.62988
            6075         60.5339         45.9886         67.5108        -5.66905
            6076         77.6768         89.4972         40.8472        -1.92746
            6077         68.6613         79.2351         42.0032     111.558E-03
            6078         88.6503         100.948         35.7879     314.771E-03
            6079         98.9152         111.665         35.0465     325.854E-03
            6080         58.2621         58.1361         57.8625        -3.18856
            6081         75.2220         39.6891         86.7524     304.587E-03
            6082         76.3041         41.5920         87.9898         1.81568
            6083         68.8794         44.8338         79.3096     103.603E-03
            6084         57.7511         63.1636         49.7216        -2.15338
            6085         56.2775         58.3728         52.9258        -4.00268
            6086         61.4310         69.7012         46.1154        -1.02893
            6087         65.3014         43.3964         74.8502        -2.98341
            6088         60.4436         51.1516         66.3539        -3.06633
            6089         56.1231         57.3184         53.7312        -4.36431
            6090         58.8124         61.5063         53.0399         6.45322
            6091         66.4983         42.8804         76.4839        -2.09535
            6092         56.4679         58.9896         52.2313        -4.54028
            6093         88.6860         101.004         35.8784     73.6417E-03
            6094         88.2139         100.637         36.6964     284.163E-03
            6095         98.3953         111.292         35.8488     331.473E-03
            6096         67.1244         76.8258         45.8952        -2.77131
            6097         58.2746         56.8685         58.7325        -4.18034
            6098         95.0194         107.487         35.3000        -2.79433
            6099         84.1134         96.1117         36.5062        -2.12743
            6100         63.3825         48.1115         71.6534        -2.29216
            6101         56.0846         53.8273         57.2949        -4.05906
            6102         92.9966         105.650         36.5842        -2.09355
            6103         84.1402         96.2676         37.1023        -1.55734
            6104         60.4703         66.3701         50.7961        -3.77537
            6105         59.3819         38.6348         66.0512         8.61552
            6106         64.3709         72.3663         38.4325        -8.38426
            6107         96.3206         110.153         41.7605     159.941E-03
            6108         59.7383         40.6363         66.3193         8.44725
            6109         86.7622         44.1708         99.9570    -366.788E-03
            6110         40.5767         34.2054         36.3071        -11.5492
            6111         40.7589         37.7082         33.4228         11.2932
            6112         38.4713         34.3488         32.5492         10.9359
            6113         38.6020         34.0676         33.6457        -10.7038
            6114         86.0398         98.3854         38.1253        -2.62027
            6115         77.1776         88.7872         38.7272        -1.99163
            6116         66.6529         75.8693         41.8440         6.06126
            6117         66.6797         44.2164         75.6424        -6.16333
            6118         86.0065         98.6137         39.1587     458.683E-03
            6119         68.4221         41.8085         78.0732        -5.84048
            6120         85.5147         40.2363         98.2106     189.253E-03
            6121         74.2932         85.2341         41.0799         4.77774
            6122         53.2519         39.0130         54.9747        -12.0591
            6123         56.7261         60.4527         38.6098         11.6429
            6124         53.7214         56.3662         38.4267         11.5210
            6125         53.7059         41.9925         54.4769        -12.1222
            6126         85.2895         97.9501         40.1226    -294.406E-03
            6127         85.1614         41.5821         97.9541     715.065E-03
            6128         59.8670         52.6159         65.1124    -806.288E-03
            6129         80.1898         43.1696         92.5210     499.020E-03
            6130         76.5065         88.2041         42.0121         2.15257
            6131         46.5836         38.3077         43.9566         12.3051
            6132         75.1178         41.8601         86.5244        -2.93626
            6133         44.7725         43.8776         34.0775        -11.7373
            6134         80.2728         92.5339         41.8635    -901.274E-03
            6135         76.5695         43.9993         88.3255        -1.98446
            6136         88.0683         100.978         40.0700    -189.955E-03
            6137         48.4479         48.3967         35.8631        -12.3079
            6138         45.6746         35.2290         44.3361         12.1286
            6139         80.2660         41.5283         92.4923         1.19157
            6140         84.4898         97.1099         40.7830         1.33838
            6141         63.2484         44.4537         72.2783         2.09055
            6142         69.7254         44.4018         80.3624    -276.839E-03
            6143         75.6969         43.3335         87.3372        -1.73817
            6144         86.3653         99.0421         39.4238    -2.57070E-03
            6145         47.3143         45.4530         37.1885        -12.6492
            6146         45.7967         37.5724         42.2886         12.7307
            6147         84.5559         97.1217         39.9819     740.039E-03
            6148         78.9439         40.9642         90.9695         1.30724
            6149         79.1141         42.1122         91.2627     24.1287E-03
            6150         76.6447         88.3701         41.2250         1.70233
            6151         47.4181         41.5308         42.0977         12.9074
            6152         76.6219         40.9926         88.3216        -1.85697
            6153         45.6131         42.4439         37.0871        -12.6193
            6154         77.9949         89.9013         40.6097    -944.610E-03
            6155         88.9415         100.917         34.1892        -1.61257
            6156         100.048         112.402         33.2703        -1.65380
            6157         85.0364         40.3093         97.6713        -1.11598
            6158         85.0692         39.5400         97.6429     81.2682E-03
            6159         87.2106         37.4259         99.6092        -1.91112
            6160         88.4322         35.8977         100.736     30.2091E-03
            6161         72.7704         84.0059         40.6667     576.931E-03
            6162         82.4189         94.7021         39.4095        -1.07090
            6163         80.6005         41.5283         92.8903     517.555E-03
            6164         76.8497         88.3505         40.9325        -3.69670
            6165         83.3990         41.1905         95.9677     796.206E-03
            6166         81.3770         93.6175         40.2260        -1.37787
            6167         50.3323         43.6201         45.9487        -13.2115
            6168         51.7715         42.4559         50.1691        -12.7909
            6169         52.3103         52.2188         39.8211         12.9519
            6170         90.0469         102.852         38.3292        -1.01674
            6171         70.7676         41.8182         81.1837         4.59905
            6172         54.3705         55.9524         39.6214         12.5503
            6173         93.2280         106.233         38.1469        -1.03366
            6174         72.8925         43.6659         83.9630         2.77786
            6175         80.8684         92.9934         39.1867    -379.303E-03
            6176         83.2419         95.6536         39.6563    -285.862E-03
            6177         69.7978         44.0591         79.9727         4.41294
            6178         49.7109         47.3429         40.1803         13.1355
            6179         50.3363         41.0069         47.7883        -13.2679
            6180         80.9683         39.8673         93.1679    -432.062E-03
            6181         72.3706         83.3598         41.3520        -2.92931
            6182         51.0660         38.9459         50.9445        -12.6450
            6183         83.9190         40.5718         96.4931    -323.807E-03
            6184         71.1426         81.7726         41.6285        -3.90124
            6185         75.2367         43.7682         86.7511         2.31675
            6186         80.4753         92.7330         41.3463     711.495E-03
            6187         83.9946         96.5666         40.9343        -1.55534
            6188         79.2671         43.3632         91.4741    -817.017E-03
            6189         40.5353         35.7161         35.3043         11.2843
            6190         41.8470         39.7888         33.0467        -11.4139
            6191         80.8623         41.4270         93.1593        -1.02761
            6192         39.7053         35.4039         33.6145        -11.3023
            6193         75.6454         87.1978         41.6446        -2.29662
            6194         88.8767         101.917         40.5357     198.815E-03
            6195         75.2262         42.0477         86.6463         2.98184
            6196         87.7737         38.5305         100.441     638.913E-03
            6197         67.7408         76.5863         40.2507         7.87144
            6198         87.0204         41.0629         99.9512     376.011E-03
            6199         65.6099         73.5520         41.3154         8.69141
            6200         60.6049         41.5165         66.5903        -9.65513
            6201         87.2165         100.033         39.9332     156.199E-03
            6202         62.8408         40.9113         70.2300        -8.48890
            6203         63.1326         43.0050         70.4869        -8.14828
            6204         61.6271         44.2996         67.8079        -8.97035
            6205         60.7632         66.9843         41.8719         9.25153
            6206         63.1978         70.8912         40.9482         8.05222
            6207         59.6034         52.2214         64.2757         4.11084
            6208         61.6967         49.8568         68.8769         1.89224
            6209         64.9174         74.5471         43.7634         1.18347
            6210         73.0716         84.3742         42.5687    -148.156E-03
            6211         61.5956         68.6378         49.5341         3.11718
            6212         45.8702         44.3399         35.6317         12.2247
            6213         46.5617         38.4140         43.7990        -12.3356
            6214         45.6147         35.5479         43.9145        -12.2424
            6215         47.6035         47.8651         34.7141         11.9938
            6216         62.4086         48.8853         70.0368        -2.80958
            6217         58.0951         57.0193         56.2845         7.42052
            6218         58.2551         56.8916         58.4864         4.60893
            6219         58.7849         61.7116         53.9246         4.73501
            6220         62.9718         44.3815         71.3421        -4.90917
            6221         63.4760         44.4657         72.6219         1.55403
            6222         61.2795         45.8171         69.2196         3.46717
            6223         58.9301         62.4275         53.9189        -3.38277
            6224         77.0621         88.8930         41.0328    -384.320E-03
            6225         67.9146         78.3025         42.3207         1.13798
            6226         61.5723         69.8954         45.8722         1.61042
            6227         66.5542         76.3193         45.9115     546.472E-03
            6228         77.1753         39.3166         88.9154     211.103E-03
            6229         72.8928         40.3950         84.1471     24.4078E-03
            6230         74.4143         42.4084         85.8951         1.11326
            6231         77.7836         40.9778         89.6050         2.14987
            6232         59.3904         66.4634         47.8641     161.205E-03
            6233         78.9388         90.9562         40.4546     662.938E-03
            6234         75.4258         43.1686         87.0367         1.56937
            6235         44.9232         40.3996         38.3458         12.4462
            6236         44.1497         38.8043         38.0384        -12.5507
            6237         76.3838         88.0754         40.7874        -1.40839
            6238         78.5459         40.9306         90.5172        -1.37861
            6239         84.9324         97.4974         39.5830    -253.434E-03
            6240         77.4311         42.9030         89.3663    -941.256E-03
            6241         44.2964         40.0140         37.5463        -12.2977
            6242         42.5799         36.1252         37.8825         12.1306
            6243         87.7863         100.566         39.2732    -232.218E-03
            6244         76.0232         41.1203         87.6278         2.10617
            6245         62.7468         70.3307         42.9700         7.44847
            6246         63.0589         45.2724         70.1699        -7.74126
            6247         64.2816         42.5098         72.4349        -7.24367
            6248         69.9920         79.8718         41.8788         6.06830
            6249         87.5054         36.8597         99.9049    -109.286E-03
            6250         58.4023         48.2494         63.6652        -5.81286
            6251         69.5407         80.0940         41.4534        -2.74765
            6252         63.6220         42.8224         72.8549         2.94321
            6253         95.4203         109.982         49.2481    -36.0052E-03
            6254         86.5883         52.0496         99.9548    -94.1964E-03
            6255         81.5404         40.2514         93.7882        -1.58583
            6256         81.4868         38.6344         93.6160    -334.783E-03
            6257         63.1434         44.6669         72.1765        -1.46279
            6258         59.0584         65.7754         48.0957        -1.98324
            6259         85.6479         98.2206         39.1399    -483.357E-03
            6260         53.8148         55.4229         40.0331         12.1165
            6261         84.8247         40.5130         97.4636         1.05062
            6262         53.6165         40.1867         54.8258        -12.3445
            6263         54.3213         43.4959         54.5460        -12.3312
            6264         56.9853         60.1067         40.2933         12.0118
            6265         64.5660         43.8086         73.9611        -2.54706
            6266         59.8115         52.0017         64.8569        -3.62853
            6267         58.4937         60.0987         53.3599         7.51106
            6268         57.0453         60.9755         50.7696        -4.25451
            6269         62.7969         48.2968         70.5862        -3.53749
            6270         59.1212         63.0427         53.3586         3.54342
            6271         60.8080         67.0249         50.2561         4.00022
            6272         97.9540         110.954         36.4677     449.027E-03
            6273         58.7686         54.4322         61.7522        -3.59887
            6274         87.9596         36.7420         100.373     105.073E-03
            6275         56.2043         52.8886         58.8085        -2.12756
            6276         91.3299         104.038         37.3726        -1.70374
            6277         81.6969         93.7419         38.0062        -1.31002
            6278         61.4778         68.4138         49.6375        -3.21833
            6279         60.7813         66.9091         50.1739        -4.36680
            6280         58.5509         38.4692         64.7284         9.10343
            6281         62.7461         70.1737         37.9536        -8.86177
            6282         58.5585         65.0463         38.2020        -8.63296
            6283         96.4640         110.159         40.7982     220.398E-03
            6284         57.9025         40.2443         63.4231         9.36346
            6285         42.5123         35.3756         38.5219        -12.0369
            6286         42.4969         39.8877         34.1824         11.6901
            6287         40.7121         37.2377         33.5069         11.4867
            6288         67.4856         76.9205         41.6218         5.96473
            6289         65.9910         75.0946         42.2211         5.87530
            6290         66.9199         43.8722         75.9330        -6.29913
            6291         65.8952         44.7683         74.6183        -6.07227
            6292         67.2505         42.0007         76.6042        -5.99456
            6293         86.0038         98.7105         39.9462     323.310E-03
            6294         68.6649         41.8098         78.3546        -5.86929
            6295         85.8243         98.1578         37.3970         1.01964
            6296         74.4431         85.3229         40.9340         5.12476
            6297         72.7959         83.4570         41.3891         5.01073
            6298         85.6409         38.9786         98.1967    -8.09306E-03
            6299         85.7364         41.4128         98.5795     286.393E-03
            6300         60.3593         52.1867         66.0509         1.16158
            6301         65.2617         74.3396         47.1038        -2.28235
            6302         63.5824         72.7810         44.5484         1.05805
            6303         71.6365         82.6834         43.2612    -481.949E-03
            6304         68.2795         44.9942         78.4795        -1.79739
            6305         77.1736         42.6987         89.0740    -766.350E-03
            6306         85.5793         98.1707         39.3049     110.789E-03
            6307         47.3423         44.5348         38.3924        -12.8292
            6308         77.5286         40.8247         89.3587         1.53806
            6309         44.6686         37.7847         40.0018         12.6347
            6310         86.1587         98.8259         39.4944     80.9131E-03
            6311         77.0054         88.7835         40.7519         1.25327
            6312         76.4512         42.6509         88.2490     752.947E-03
            6313         46.1348         40.8838         40.2188         12.6975
            6314         45.3771         40.7741         38.3381        -12.7795
            6315         77.1496         88.9433         40.4523    -954.219E-03
            6316         77.7924         40.5832         89.6551        -1.30613
            6317         87.9099         100.009         35.1618        -1.47650
            6318         90.1320         101.983         33.2425        -1.66244
            6319         99.2695         111.659         33.6410        -1.93906
            6320         101.141         113.380         32.6338        -1.79135
            6321         62.0380         45.3469         70.4910        -2.57762
            6322         85.4371         40.1949         98.0977        -1.11660
            6323         84.3209         40.5673         96.9151        -1.05943
            6324         87.4607         36.8022         99.7522        -2.27837
            6325         87.8996         36.0439         100.191    -273.276E-03
            6326         71.4308         82.4689         41.0512     704.103E-03
            6327         79.9194         92.0134         40.1107    -911.563E-03
            6328         69.3944         41.7710         80.0143        -1.89364
            6329         87.2768         40.5275         100.168     494.288E-03
            6330         66.3325         74.6084         40.4379         8.47288
            6331         87.3453         100.189         40.0542     69.7751E-03
            6332         62.0435         41.0998         68.9622        -8.92088
            6333         61.8738         42.8361         68.5688        -8.73653
            6334         62.0815         69.2180         40.8824         8.59073
            6335         60.1676         50.8366         65.4622         5.11090
            6336         62.1899         49.4660         69.7641         1.24019
            6337         58.1356         56.2878         57.4327         6.96846
            6338         64.1214         44.0515         73.5602    -344.334E-03
            6339         58.8510         61.9752         53.7375        -4.66134
            6340         78.2048         90.1582         40.6521    -72.3827E-03
            6341         69.6031         80.3194         41.6741         1.14033
            6342         59.6002         66.7571         47.5517         1.72535
            6343         65.1404         74.3310         47.0572    -730.515E-03
            6344         59.1225         65.9268         48.1742        -1.20243
            6345         63.4104         71.4268         42.9845         6.87193
            6346         64.5238         45.5166         72.6546        -6.32069
            6347         64.6649         42.7779         73.1545        -6.56798
            6348         71.2000         81.5218         41.8535         5.28799
            6349         57.3736         49.7321         61.1172        -6.39336
            6350         37.4107         32.2297         32.8810         10.6363
            6351         39.0745         35.5357         32.8245        -10.8478
            6352         37.9903         33.8129         32.2915        -10.7870
            6353         38.5437         34.8742         32.5993         10.7015
            6354         80.5292         40.9618         92.7538        -1.03044
            6355         81.5856         39.2451         93.7917     67.6658E-03
            6356         58.2482         64.1069         48.9688        -2.85449
            6357         56.0332         55.8686         54.8866        -4.91001
            6358         65.1996         43.2022         74.7480         2.97602
            6359         61.6412         45.5899         70.0533         1.57616
            6360         58.5917         61.0522         54.9898        -3.60471
            6361         74.3423         42.5954         85.8397     333.644E-03
            6362         73.8008         40.2617         85.1727    -349.946E-03
            6363         96.1931         108.681         34.9707        -2.53091
            6364         86.3907         98.3708         35.3728        -2.23337
            6365         68.4118         78.8198         42.1077         2.11869
            6366         76.7967         88.5831         41.0632     833.040E-03
            6367         51.6867         40.6304         50.7717        -12.9845
            6368         83.8897         39.0063         96.2909     69.2255E-03
            6369         69.5921         79.9281         41.7200        -4.02506
            6370         51.6317         50.4800         40.9607         13.0067
            6371         82.8071         95.1070         39.0543    -510.573E-03
            6372         70.2294         44.0436         80.6004         3.90845
            6373         54.3578         55.2139         40.8931         12.8038
            6374         93.1455         106.036         37.5841        -1.30564
            6375         70.1279         41.7825         80.4560         4.49521
            6376         52.6993         44.1956         50.5306        -12.9595
            6377         82.6743         40.5885         95.0981         1.13256
            6378         61.5993         44.9367         69.0034        -6.17750
            6379         83.2222         95.6904         40.7913         1.70259
            6380         47.1118         36.2312         46.0117         12.3397
            6381         81.3484         41.3966         93.7039     910.366E-03
            6382         49.4068         50.2962         35.4635        -12.0740
            6383         74.5177         43.8419         85.8780        -2.63340
            6384         90.1290         103.192         39.9058     208.071E-03
            6385         73.8279         41.8934         84.9686        -3.43821
            6386         80.8814         93.2022         41.5540    -667.570E-03
            6387         47.9305         38.8375         46.0319         12.3532
            6388         74.5226         85.8765         41.5378         2.61863
            6389         80.7467         42.6679         93.1291     156.132E-03
            6390         65.7017         75.4610         43.2614         2.26273
            6391         73.0214         84.2978         42.4490     901.440E-03
            6392         84.2082         96.5685         38.8521        -1.62665
            6393         75.9630         87.5345         39.3591        -1.18695
            6394         66.0825         75.5650         46.4923        -1.68159
            6395         61.8275         49.5539         69.0658         2.54596
            6396         58.7841         63.7742         41.2958         10.2742
            6397         87.9953         100.529         37.4753    -143.769E-03
            6398         62.7409         69.1851         41.6318         9.94895
            6399         59.1729         45.1176         63.2607        -10.2970
            6400         87.6114         38.6898         100.280     921.115E-03
            6401         61.5430         48.8307         68.1260        -5.43441
            6402         63.4882         47.8490         71.7467        -2.98039
            6403         88.9940         35.0903         101.190    -57.9795E-03
            6404         88.4945         35.8051         100.682        -2.40537
            6405         87.8553         100.466         38.0457    -27.4664E-03
            6406         60.1213         66.0488         41.1805         9.59527
            6407         59.7327         41.8536         65.0739        -10.0868
            6408         87.7348         38.6197         100.408     779.579E-03
            6409         60.4224         44.2168         65.7681        -9.63230
            6410         64.3650         71.7003         41.7797         9.16495
            6411         88.5134         100.875         36.1998    -159.140E-03
            6412         59.2079         64.2416         42.5571         10.0236
            6413         58.9375         42.2365         63.6202        -10.4765
            6414         87.8659         37.8953         100.433         1.08664
            6415         59.0577         46.1943         62.7442        -10.2548
            6416         63.1224         69.7651         42.3332         9.63580
            6417         71.8549         43.4961         82.9378    -43.1745E-03
            6418         71.5201         40.9847         82.5652    -870.787E-03
            6419         75.3372         42.5184         86.9833    -239.602E-03
            6420         74.5276         40.2428         85.9863    -721.988E-03
            6421         71.8355         82.9084         42.9598     951.032E-03
            6422         64.1733         73.4636         44.0641         2.36494
            6423         60.1332         52.8193         65.1932         2.54447
            6424         73.0721         84.3228         42.3241         1.49896
            6425         66.6969         76.6385         42.7323         2.82280
            6426         84.9743         97.4727         39.0363    -529.693E-03
            6427         52.9126         52.4163         41.8293         12.8468
            6428         69.1134         79.2373         41.7600        -4.58839
            6429         84.2319         39.5801         96.7319    -95.0932E-03
            6430         52.6773         40.2834         52.9674        -12.6531
            6431         75.3465         86.6100         41.0970        -3.92652
            6432         84.0981         40.3111         96.6374         1.19349
            6433         53.4954         43.8000         52.5848        -12.6671
            6434         55.4678         57.4835         40.3212         12.4409
            6435         94.2436         107.137         37.2159        -1.36914
            6436         69.6508         41.8319         79.7747         4.98151
            6437         58.1083         55.2391         57.7902         7.69819
            6438         83.2981         95.4932         37.9615        -1.09607
            6439         69.5020         44.2605         79.7693         3.60650
            6440         52.2071         50.1647         42.8464         13.1991
            6441         68.6581         78.7875         41.8926        -4.16683
            6442         52.8335         42.1789         51.8902        -13.0179
            6443         83.6101         38.3912         95.9087     337.705E-03
            6444         82.0907         40.2451         94.4028         1.48001
            6445         77.2049         88.9148         40.8840        -2.47988
            6446         53.5378         45.9143         50.8303        -13.0165
            6447         92.7801         105.545         37.1207        -1.66164
            6448         55.3263         55.9952         42.7216         12.8141
            6449         69.5412         41.8309         79.8013         4.32298
            6450         61.6198         45.4854         69.8319         3.05053
            6451         64.2674         43.8418         73.3574        -3.78599
            6452         63.8912         44.2038         73.1362        -2.00854
            6453         60.0611         51.2075         65.3018        -4.64553
            6454         59.3126         53.5736         63.6534        -1.44280
            6455         59.5373         51.9433         63.9528         5.11683
            6456         58.1055         57.7793         55.0121         7.95902
            6457         59.1710         62.5593         51.7430         7.00495
            6458         56.7587         59.7409         51.3190        -5.31588
            6459         59.6110         64.3103         52.0865         4.25644
            6460         97.8838         110.988         36.9898     185.305E-03
            6461         97.9261         110.795         35.8811     804.145E-03
            6462         58.5327         55.1233         60.6500        -4.17557
            6463         58.5972         55.3443         61.0570        -2.69825
            6464         91.2803         103.878         36.9544        -2.19907
            6465         80.9071         92.8701         38.0230        -1.47917
            6466         57.6358         37.7364         63.7957         8.85765
            6467         60.9638         68.1355         36.8133        -8.70284
            6468         57.2976         63.3374         37.6358        -8.91981
            6469         96.1155         109.861         41.2956     270.903E-03
            6470         56.4416         38.7847         62.0982         8.82550
            6471         86.2504         44.9987         99.4420    -321.064E-03
            6472         67.0650         45.5952         76.8874        -2.06633
            6473         69.4828         44.5038         80.0444    -901.166E-03
            6474         75.6043         42.8131         87.2740    -961.403E-03
            6475         87.3169         100.019         39.0188     435.455E-03
            6476         48.8272         46.3490         39.3782        -13.0431
            6477         46.2336         38.9550         41.7549         12.9505
            6478         84.7718         97.3267         39.6307     320.837E-03
            6479         78.5360         40.3199         90.4854     993.677E-03
            6480         75.7771         87.3779         40.9334         1.67354
            6481         77.4699         42.3194         89.4102     298.423E-03
            6482         48.3648         43.4156         41.9265         13.1234
            6483         46.5165         42.6078         38.6500        -12.9271
            6484         78.5769         90.5347         40.1527    -503.597E-03
            6485         75.7961         40.7548         87.3849        -1.76230
            6486         68.9084         41.9588         79.3363        -2.73483
            6487         59.3827         63.4794         52.1033        -5.45891
            6488         60.5970         68.3079         46.5568         2.49624
            6489         65.3328         74.6187         46.5760         1.47777
            6490         61.0906         49.5218         67.3421         5.15116
            6491         62.5894         70.2674         43.5332         6.92213
            6492         64.9054         73.6309         42.5844         6.14552
            6493         62.5014         46.0081         69.2870        -7.67573
            6494         65.7573         45.1324         74.5255        -5.67307
            6495         66.7922         42.3013         76.1537        -5.59214
            6496         63.2799         43.2619         71.1243        -7.09611
            6497         70.2963         80.3421         42.0131         5.68717
            6498         72.4204         83.0827         41.6437         4.74885
            6499         57.9453         48.6206         62.3446        -6.78428
            6500         79.2590         40.9668         91.3222        -1.30969
            6501         81.2175         41.3918         93.5665    -631.244E-03
            6502         80.1713         39.0638         92.2157    -74.0885E-03
            6503         36.2084         32.4132         30.6926        -10.2183
            6504         35.3781         30.8280         30.9097         9.97862
            6505         36.3409         32.9047         30.8665         10.0141
            6506         38.0983         35.4767         31.0888        -10.4769
            6507         56.1410         56.1901         53.9470        -6.20477
            6508         62.3937         44.0813         69.9858        -6.75450
            6509         87.3199         99.3236         35.0387        -2.00521
            6510         97.6360         110.039         34.2421        -2.55644
            6511         58.4229         60.0002         55.3249        -4.89444
            6512         48.3020         37.9468         46.6154         12.7676
            6513         81.7904         94.0713         40.5180         1.83750
            6514         81.1048         40.7205         93.3851     762.290E-03
            6515         50.8259         51.4469         37.1719        -12.4781
            6516         73.1482         43.8107         84.2163        -3.08035
            6517         91.1057         104.146         39.2482     556.043E-03
            6518         73.3926         41.6497         84.4728        -3.38595
            6519         47.9653         46.1198         37.8449        -12.7384
            6520         82.0836         94.4384         40.2361    -40.9409E-03
            6521         48.9182         40.6555         46.1111         12.7613
            6522         80.6132         41.9060         92.9337    -251.559E-03
            6523         73.4237         84.5733         41.4891         2.93941
            6524         86.8876         99.4180         38.3183        -1.50001
            6525         76.9837         88.6968         39.3519    -629.325E-03
            6526         60.5809         45.6387         67.3146        -6.53328
            6527         62.8943         48.9394         70.9355     330.683E-03
            6528         62.2554         48.5423         69.5654         4.35502
            6529         66.5187         42.2818         76.1647         4.33248
            6530         59.5504         64.3893         52.7002         2.33003
            6531         88.2581         36.7210         100.688     347.759E-03
            6532         89.2989         101.163         33.6597        -2.04383
            6533         100.258         112.532         33.0150        -2.12193
            6534         64.8797         43.6669         74.5404     648.131E-03
            6535         85.2621         40.8698         97.9875    -908.493E-03
            6536         87.9184         100.486         37.7294     124.238E-03
            6537         57.5428         48.9624         61.0788        -7.61140
            6538         58.0907         63.8076         49.1853         2.72773
            6539         59.3839         54.1553         63.3729         1.77950
            6540         55.9651         61.0955         37.4788        -9.73924
            6541         56.5584         39.5987         61.5784         9.61452
            6542         57.8977         38.5279         63.5408         9.63334
            6543         86.2522         43.6306         99.3470    -426.986E-03
            6544         60.9035         67.6481         37.4050        -9.38462
            6545         96.2093         109.790         40.2195     365.789E-03
            6546         78.9751         39.5449         90.9335     325.668E-03
            6547         78.2483         41.3547         90.2256        -1.03070
            6548         64.1289         44.0483         73.3990         2.44581
            6549         61.1410         49.6072         67.5036        -4.80545
            6550         86.3133         39.8736         99.0191        -1.08757
            6551         85.0419         41.6219         97.8262    -706.797E-03
            6552         88.3755         35.2636         100.559    -471.799E-03
            6553         87.8440         36.1559         100.018        -2.70517
            6554         66.4313         42.8292         76.5236    -346.450E-03
            6555         88.5215         100.799         35.7428    -542.688E-03
            6556         57.1095         60.0873         43.4769         11.1532
            6557         57.2600         43.4038         60.2004        -11.3087
            6558         87.9621         37.1497         100.400         1.50986
            6559         58.2250         47.4604         60.6124        -10.6534
            6560         61.7449         67.4781         43.0327         10.1831
            6561         76.2096         42.2181         87.9753     110.220E-03
            6562         77.5585         39.6187         89.3635    -320.501E-03
            6563         58.6515         53.5129         60.9380         6.42621
            6564         70.9458         43.9189         81.6801         2.58811
            6565         51.4828         48.4005         43.0959         13.3727
            6566         69.3709         79.7840         41.7781        -3.39808
            6567         52.4151         43.1430         50.2889        -13.2497
            6568         82.8577         38.0752         95.0446     590.215E-03
            6569         78.3530         90.2647         40.6455        -1.66115
            6570         81.5932         40.0339         93.8105         1.81906
            6571         52.9691         46.4828         48.9390        -13.2272
            6572         54.1847         54.0686         42.3151         13.0374
            6573         71.6735         41.3492         82.5655         2.84558
            6574         63.2272         44.4450         71.9593        -3.75982
            6575         59.1083         53.6303         62.9833        -3.08194
            6576         98.2677         111.241         36.2394     102.125E-03
            6577         97.4144         110.420         36.6787     737.913E-03
            6578         58.2208         57.4575         57.6879        -5.00050
            6579         82.5262         40.9438         94.9752    -921.191E-03
            6580         70.6953         43.9763         81.5481    -20.0682E-03
            6581         70.6180         41.3918         81.4583        -1.81472
            6582         67.6468         42.3923         77.7706        -3.03257
            6583         58.5225         47.6207         63.4284        -7.17631
            6584         80.5321         40.4211         92.6790        -1.66751
            6585         80.5476         41.3484         92.8150    -672.779E-03
            6586         81.1706         39.8875         93.3935     421.551E-03
            6587         81.2038         38.1491         93.2410    -789.531E-03
            6588         56.2975         57.2438         52.7764        -6.54039
            6589         56.1186         54.4719         55.3931        -6.61017
            6590         87.1904         99.0654         34.6523        -2.59926
            6591         98.2578         110.575         33.8153        -2.79909
            6592         58.2111         58.0376         56.6150        -5.79385
            6593         48.0026         38.8319         45.2215         13.0049
            6594         81.7650         94.0464         40.2735         1.46168
            6595         48.0536         36.0742         47.8933         12.1346
            6596         80.5011         92.5996         40.8305         2.55028
            6597         51.0988         50.5116         39.1810        -12.9564
            6598         51.8498         53.4144         36.8198        -12.1972
            6599         73.5892         44.0192         84.7136        -3.17893
            6600         91.8407         104.985         39.5515     514.274E-03
            6601         73.9700         43.5232         85.2770        -2.35596
            6602         90.6036         103.552         38.9131     668.641E-03
            6603         48.6269         45.8996         39.4348        -13.0734
            6604         80.8731         93.0620         39.8185    -6.92755E-03
            6605         73.6226         41.3462         84.8047        -2.90391
            6606         72.7799         42.0266         83.6614        -3.97697
            6607         49.0314         48.9957         36.8927        -12.2476
            6608         82.2684         94.7418         41.3890    -318.780E-03
            6609         49.2245         39.2439         48.1542         12.3004
            6610         49.8624         42.5205         46.1109         13.0729
            6611         72.7436         83.8299         41.2346         2.61919
            6612         73.1431         84.1898         41.7722         3.35961
            6613         85.4128         97.9190         38.8643    -883.211E-03
            6614         75.6956         87.3020         39.9816     211.767E-03
            6615         63.9465         46.9773         72.2071        -4.49153
            6616         63.0243         49.0746         71.0124        -1.40087
            6617         63.4977         47.6758         71.6858         3.54964
            6618         90.7653         102.510         32.7029        -2.06971
            6619         101.398         113.569         32.4693        -2.36660
            6620         88.2149         100.013         33.9786        -2.76519
            6621         99.2086         111.459         33.3491        -2.83647
            6622         59.4184         52.1289         63.6025        -5.27190
            6623         59.6036         63.6200         50.4556         7.51221
            6624         58.2143         58.3568         55.6298        -6.71043
            6625         66.6062         75.9259         42.0888        -5.65094
            6626         84.9589         39.2128         97.4831    -7.78132E-03
            6627         67.6720         44.4427         77.1599         5.16032
            6628         95.2463         108.269         37.4982        -1.08752
            6629         68.4324         41.9248         78.2159         5.37764
            6630         74.5822         85.6213         41.1075        -4.52201
            6631         81.3796         43.0088         93.8593     166.751E-03
            6632         82.1654         40.2170         94.5229     443.360E-03
            6633         65.6282         42.7140         74.6564        -5.71169
            6634         71.8452         82.4806         42.0095         4.42962
            6635         64.4783         73.2068         43.0610         5.66646
            6636         65.2032         45.6870         73.8414        -5.32908
            6637         58.1815         58.5905         53.6462         8.51437
            6638         81.1304         93.2001         38.5337    -889.498E-03
            6639         89.9490         102.646         37.8275        -1.47803
            6640         58.4201         64.6115         48.8474         1.66271
            6641         67.1624         45.3167         76.8735        -3.23018
            6642         59.9224         45.7799         65.8906        -7.52317
            6643         72.0165         42.0334         82.7003        -4.33604
            6644         50.2920         50.7751         37.5279        -12.2245
            6645         82.7705         95.2516         40.8225    -101.404E-03
            6646         79.3424         91.2448         41.0444         3.16474
            6647         48.6275         35.8899         49.1100         11.9348
            6648         50.4742         39.5268         50.3155         12.1442
            6649         53.0108         55.4760         36.6296        -11.8729
            6650         71.2497         81.8308         41.7868         4.22504
            6651         72.4126         43.9752         83.2554        -3.62730
            6652         92.8151         106.077         39.8243     520.854E-03
            6653         82.2518         41.2223         94.7021     692.078E-03
            6654         66.4215         75.7915         42.3057         5.29505
            6655         67.7029         42.2097         77.4860        -4.78211
            6656         66.3291         45.3183         75.5198        -4.65457
            6657         73.3921         84.3962         41.6535         3.83263
            6658         66.0195         45.9705         75.3587        -3.19499
            6659         82.9986         41.1848         95.5304     553.669E-03
            6660         82.1925         42.7725         94.7584    -66.5718E-03
            6661         63.5860         71.9900         43.5326         5.75715
            6662         64.7026         43.1754         73.4820        -5.63689
            6663         64.5511         46.3246         73.0002        -4.95162
            6664         71.2106         81.8406         42.4991         3.87451
            6665         56.8452         50.3558         58.9479        -7.94118
            6666         67.9496         44.9355         77.8910        -3.21537
            6667         57.2119         61.8884         50.5825         2.22894
            6668         58.9922         46.7390         64.1614        -7.69622
            6669         80.1232         92.1013         38.6276    -938.601E-03
            6670         89.3595         101.964         37.6515        -1.82497
            6671         96.7955         109.831         37.0302     871.158E-03
            6672         96.8769         110.074         37.8109     607.894E-03
            6673         54.8690         59.5777         36.9704        -9.94833
            6674         55.0791         38.9144         59.4943         9.91614
            6675         55.3010         37.4539         59.8447         10.2541
            6676         85.8444         43.9663         98.9186    -377.006E-03
            6677         58.8260         65.3762         35.8841        -9.03239
            6678         95.7039         109.334         40.7654     389.160E-03
            6679         98.1868         111.185         36.3842    -132.724E-03
            6680         60.7705         50.3929         66.9105        -4.01682
            6681         60.7673         49.4585         66.5288        -6.07887
            6682         84.4519         41.5121         97.1638    -717.660E-03
            6683         67.5107         42.1184         77.7408        -2.19277
            6684         87.8111         100.193         36.6576    -641.759E-03
            6685         88.8841         101.130         35.4108    -290.841E-03
            6686         56.4580         58.9427         42.9837         11.5359
            6687         58.6004         62.9834         43.9231         10.0712
            6688         56.3441         42.6965         58.6444        -11.7816
            6689         58.3621         44.1301         62.2752        -10.4670
            6690         87.1217         37.9727         99.6155         1.59961
            6691         88.1880         37.1499         100.657         1.22731
            6692         58.9221         47.2900         62.2054        -10.1268
            6693         57.4649         46.5039         59.2952        -11.2715
            6694         62.4335         68.6596         43.6030         9.59750
            6695         60.5615         65.5749         42.1542         10.8766
            6696         75.3768         42.6613         87.0240    -595.567E-03
            6697         76.7010         41.8022         88.5057     835.725E-03
            6698         78.8715         39.1343         90.7855     120.444E-03
            6699         74.9175         40.6538         86.3941        -1.65355
            6700         58.6850         53.9927         61.1974         5.41018
            6701         69.5214         44.3237         79.8778         3.09044
            6702         72.4091         43.5427         83.4864         2.02966
            6703         52.7887         50.2248         44.3616         13.2189
            6704         49.3719         46.0588         40.8480         13.2793
            6705         81.4231         38.8083         93.5663     213.027E-03
            6706         50.3142         42.1652         46.7233        -13.4244
            6707         71.6067         82.5231         41.3011        -2.58051
            6708         68.1667         78.3102         42.0930        -3.59186
            6709         53.2815         44.3861         51.2326        -13.1407
            6710         83.8952         37.4513         96.0841     841.251E-03
            6711         75.7259         87.2570         41.2341        -2.47308
            6712         82.4114         39.5113         94.6349         2.15110
            6713         79.6091         91.6517         40.4564        -1.70797
            6714         80.6565         40.4711         92.8282         1.56452
            6715         51.4750         45.3848         46.5981        -13.3336
            6716         54.2636         47.5748         51.0290        -12.9733
            6717         55.7340         55.8518         44.5353         12.7911
            6718         70.3193         41.6655         80.8738         3.55263
            6719         72.4412         41.3860         83.4131         3.12592
            6720         88.7351         101.521         38.8109     645.846E-03
            6721         74.9720         43.2346         86.5026        -1.70991
            6722         49.1749         47.9635         38.0732        -12.8352
            6723         83.2044         95.6387         40.1068         1.06817
            6724         46.9442         38.2746         43.7477         12.9019
            6725         74.4382         85.8334         40.9946         1.98492
            6726         48.6785         42.1049         44.0713         13.0399
            6727         47.6157         44.3478         39.0150        -13.0203
            6728         79.7264         91.8207         40.2023    -384.768E-03
            6729         74.6820         41.0922         86.0783        -2.34543
            6730         66.0871         42.9870         75.7625        -3.48659
            6731         56.4751         58.3735         52.0935        -6.03083
            6732         63.7160         43.7047         72.1550        -5.68028
            6733         63.3651         43.5693         71.4332        -6.49218
            6734         46.9188         35.1121         46.7254         11.9146
            6735         80.2303         92.3282         40.4640         1.91773
            6736         49.7707         39.1008         48.3459         12.9265
            6737         81.9985         94.3181         41.1496         2.28856
            6738         50.5169         52.4023         35.0970        -11.7377
            6739         51.9962         52.3944         38.7232        -12.7518
            6740         74.5395         44.2282         85.8601        -2.91438
            6741         91.0890         104.284         40.2816     237.066E-03
            6742         91.9500         104.959         38.6772     824.120E-03
            6743         71.8128         43.7684         82.6635        -2.95465
            6744         72.6327         41.5366         83.5880        -3.42667
            6745         49.3664         47.8215         38.8946        -12.8758
            6746         81.8816         94.1412         39.4891     249.602E-03
            6747         46.0458         45.7120         34.5610        -11.7759
            6748         50.9981         42.8309         48.1929         13.0116
            6749         46.8746         37.0381         45.8612         11.8431
            6750         74.3891         85.6910         41.8968         2.92284
            6751         72.1678         83.0796         41.4626         3.24173
            6752         86.4211         99.0126         38.8134    -739.323E-03
            6753         83.7414         96.1781         39.4332    -106.574E-03
            6754         77.1796         88.9584         39.8655     265.439E-03
            6755         73.9770         85.3680         40.4876     815.419E-03
            6756         63.4798         46.7936         71.2640        -5.66203
            6757         63.0926         48.2754         71.1618         2.67827
            6758         79.6879         40.3397         91.6920        -2.18103
            6759         58.9314         53.6469         62.2623        -4.41614
            6760         59.1102         62.1454         50.6714         8.43347
            6761         58.1859         58.3573         54.7862        -7.65213
            6762         65.6012         74.5881         42.3723        -5.92133
            6763         85.4851         38.9459         98.0231     29.3973E-03
            6764         66.5146         44.7674         75.5582         5.58510
            6765         67.1355         42.1187         76.5182         5.80230
            6766         95.5273         108.409         36.7262        -1.36399
            6767         72.9906         83.6925         41.3479        -4.96843
            6768         59.4711         45.8007         64.8615        -8.22186
            6769         58.3610         59.5910         52.2230         8.93856
            6770         86.2474         98.3552         35.9739        -1.72805
            6771         97.2238         109.727         34.6772        -2.22997
            6772         86.7449         39.5030         99.4429        -1.09435
            6773         56.1785         55.7196         53.5356        -7.48927
            6774         97.5471         109.820         33.9765        -3.25907
            6775         86.5503         98.3644         34.7689        -2.97465
            6776         63.8390         48.2696         72.3627    -819.611E-03
            6777         61.6776         48.4192         68.2656         5.91265
            6778         58.8474         61.7483         53.2659        -5.83050
            6779         59.0618         52.9399         62.5550         5.29742
            6780         56.8768         50.9169         59.8992        -5.89954
            6781         65.5633         43.2980         75.2335         2.65878
            6782         68.1486         41.9369         78.5875        -1.32249
            6783         58.8534         61.5750         52.6283        -6.90650
            6784         58.5235         54.3381         60.4409        -5.87413
            6785         63.5702         48.2219         72.0086     995.510E-03
            6786         64.2231         47.5431         72.9654         1.76269
            6787         71.1666         41.8150         81.6845        -4.45220
            6788         84.4523         97.0365         40.1551     249.037E-03
            6789         77.5784         89.1909         40.9281         3.59150
            6790         51.3355         38.4021         51.8929         12.3899
            6791         51.3618         41.3325         50.3786         12.5689
            6792         54.9476         56.9803         39.5646        -12.4034
            6793         69.8306         80.0691         41.7042         4.66303
            6794         93.6075         106.742         38.7131     828.291E-03
            6795         69.8170         43.9922         79.9192        -4.75545
            6796         56.3337         57.0813         52.3747        -7.34202
            6797         65.8635         46.7745         75.2677        -1.35870
            6798         56.1131         53.9893         54.1625        -8.64965
            6799         96.8851         109.501         35.1771        -1.89139
            6800         86.9446         99.1925         36.3389        -1.19058
            6801         83.5349         41.2109         96.1280     471.959E-03
            6802         83.8621         41.3187         96.4926    -761.716E-03
            6803         62.8359         70.9293         43.9906         5.84307
            6804         68.5408         78.4439         43.5152         4.63057
            6805         56.6222         50.5695         57.8853        -8.66655
            6806         56.6758         51.3063         58.8650        -6.70495
            6807         69.3772         44.4552         79.8033        -2.31122
            6808         57.7010         63.1902         49.8860    -183.406E-03
            6809         57.0996         61.3251         50.7298         3.51611
            6810         58.4313         47.0869         62.8372        -8.31348
            6811         96.8377         110.197         38.6838     421.183E-03
            6812         98.5738         111.439         35.6524    -174.163E-03
            6813         85.2468         42.4669         98.1332    -537.018E-03
            6814         88.3749         100.557         35.3304    -988.415E-03
            6815         56.6760         58.9651         44.2580         11.3460
            6816         59.3487         64.4375         43.3958         9.71593
            6817         56.4782         44.3867         58.3008        -11.6677
            6818         59.1981         42.9417         63.9747        -10.2444
            6819         88.5525         36.6187         100.968         1.07324
            6820         87.5968         37.1347         99.9838         1.85477
            6821         59.9425         46.1644         64.5084        -9.63699
            6822         57.6060         47.7644         59.0715        -11.0918
            6823         63.5375         70.4566         42.9654         9.20251
            6824         60.4645         65.2722         43.0691         10.8284
            6825         74.2123         42.9419         85.6752    -872.220E-03
            6826         77.7788         41.9592         89.7474     178.333E-03
            6827         78.2278         39.8548         90.1208    -624.657E-03
            6828         74.0656         40.6571         85.4343        -1.54970
            6829         68.4180         44.5608         78.3561         3.97047
            6830         70.8235         43.9476         81.5995         2.01611
            6831         50.7635         46.6207         43.3466         13.4829
            6832         53.5451         52.2085         44.0000         12.9425
            6833         67.5851         77.4514         42.1640        -4.35454
            6834         53.7551         43.4611         52.9191        -12.9130
            6835         84.1782         37.7312         96.4357     609.846E-03
            6836         81.2704         38.2873         93.3338     648.323E-03
            6837         70.2993         81.0241         41.5280        -2.39938
            6838         74.5248         85.7677         41.4101        -3.40148
            6839         84.2357         39.3308         96.6465         1.76819
            6840         79.5660         91.6395         40.3400    -888.993E-03
            6841         81.2384         39.9172         93.3848         2.10043
            6842         54.8225         47.1372         52.7974        -12.7115
            6843         52.5255         47.1528         47.1452        -13.3653
            6844         53.1016         51.9584         42.4195         13.2255
            6845         72.0471         41.1751         83.0631         2.31300
            6846         56.2788         57.8357         42.6171         12.5286
            6847         68.9784         41.9481         79.1543         4.21676
            6848         61.2704         44.3410         67.9949        -7.73716
            6849         49.6197         40.6844         46.6508         13.2735
            6850         80.1987         92.3152         40.3357         1.45668
            6851         52.1137         51.3787         40.5508        -13.1040
            6852         89.5485         102.381         38.7044     736.286E-03
            6853         72.1348         43.6075         83.1557        -2.09393
            6854         72.8016         41.2916         83.8644        -2.87100
            6855         49.4591         47.2471         39.7363        -13.0686
            6856         80.7214         92.8441         39.3047     298.538E-03
            6857         50.7784         44.4226         46.0668         13.2832
            6858         62.4240         47.2986         69.4289        -6.40614
            6859         77.6355         41.0890         89.4597        -1.97779
            6860         79.3032         38.4041         91.1740    -979.365E-03
            6861         60.0969         64.6837         49.2179         7.93408
            6862         85.8440         39.2769         98.4558    -66.6295E-03
            6863         85.7876         37.7431         98.1860     332.904E-03
            6864         65.9718         75.2304         42.4943        -5.28415
            6865         66.1172         75.1582         41.9660        -6.20973
            6866         66.4308         44.4247         75.3278         6.10027
            6867         66.7112         45.0751         76.0012         4.76821
            6868         95.4928         108.194         35.9553        -1.85612
            6869         67.5400         42.2082         77.2209         5.04643
            6870         66.9001         41.9594         76.0839         6.29036
            6871         96.0861         109.141         37.3713    -968.856E-03
            6872         73.6205         84.5772         41.4424        -4.25381
            6873         72.6834         83.2104         41.1635        -5.46803
            6874         62.0965         47.5912         68.8632         6.48600
            6875         86.7106         40.2223         99.5020    -900.844E-03
            6876         60.4383         49.7941         65.8130         6.30049
            6877         59.0664         52.2999         62.3868         6.43604
            6878         87.5636         99.2562         34.0328        -3.43193
            6879         98.7426         110.931         33.4229        -3.41292
            6880         67.2448         42.5552         77.4345         1.83053
            6881         66.4243         42.7683         76.0567        -4.13305
            6882         65.4284         43.0583         74.6305        -4.85104
            6883         57.9183         56.3035         55.4713         8.76744
            6884         95.8254         108.866         37.3858         1.01452
            6885         74.7475         86.2194         40.6584         1.39519
            6886         78.1605         90.0061         39.2865    -426.985E-03
            6887         87.8492         100.463         38.2759        -1.28850
            6888         62.9410         46.5192         70.1821        -6.75320
            6889         61.4244         47.8044         67.5419        -7.17818
            6890         88.0891         99.6144         33.5356        -4.18959
            6891         99.7128         111.769         32.9915        -4.05830
            6892         84.2852         41.3234         96.9691     391.734E-03
            6893         65.5429         41.8749         74.1289         7.10406
            6894         97.1111         110.088         36.6425    -896.503E-03
            6895         64.6298         73.0072         42.0045        -7.05230
            6896         87.3231         38.4122         99.9436    -229.814E-03
            6897         70.7719         80.7643         41.3639        -6.20603
            6898         65.2867         44.6909         73.6623         6.60733
            6899         72.8493         84.0314         40.9705         1.82293
            6900         81.7969         94.0837         39.8798     457.914E-03
            6901         86.5571         38.0427         98.9995         1.84250
            6902         56.8174         46.8683         57.6794        -11.6618
            6903         59.4233         63.4223         43.1071         11.3207
            6904         87.3890         99.7243         36.6017    -876.167E-03
            6905         55.5299         56.7827         43.5983         12.0293
            6906         55.8022         43.7966         57.0896        -12.0673
            6907         65.1555         73.0359         42.9097         8.24014
            6908         60.8134         46.1418         66.1869        -8.99029
            6909         60.4148         43.0900         66.1548        -9.44012
            6910         88.3802         36.9767         100.852     789.841E-03
            6911         60.2192         66.0283         43.1922         9.18248
            6912         88.1799         36.3274         100.461         2.08541
            6913         57.3025         49.4720         57.5182        -11.1548
            6914         88.6299         100.710         34.7509        -1.26915
            6915         59.5987         63.4413         44.9387         10.9345
            6916         56.3533         58.0603         44.8949         11.4855
            6917         56.9055         45.1043         59.0403        -11.2702
            6918         81.0240         93.2362         40.1230    -992.754E-03
            6919         51.0591         46.0962         44.8314        -13.4024
            6920         51.8333         49.9180         41.8914         13.3056
            6921         73.3185         41.0270         84.5262         2.27732
            6922         72.2710         43.4932         83.3754         1.44379
            6923         49.2494         44.6887         42.0302         13.4184
            6924         49.4881         42.2104         44.9918        -13.4438
            6925         72.7583         83.9300         40.9644        -1.78711
            6926         78.6682         90.6298         40.5701         1.39744
            6927         50.1508         42.2594         46.2962         13.4457
            6928         72.7616         41.0445         83.8960        -2.20116
            6929         49.9222         45.5558         42.5766        -13.4628
            6930         79.8554         91.8588         39.0364     533.227E-03
            6931         51.8992         49.7123         42.3486        -13.3424
            6932         51.7058         46.3197         46.1012         13.3921
            6933         89.9433         102.694         38.0882         1.22291
            6934         71.8193         43.6294         82.8306        -1.57445
            6935         71.3293         82.1858         41.3579         2.70338
            6936         79.4218         39.3726         91.4155    -169.340E-03
            6937         78.4397         41.3764         90.4466     922.962E-03
            6938         78.3284         90.2854         40.6220    -663.516E-03
            6939         53.4831         48.8829         47.6250        -13.3018
            6940         53.5540         51.8468         43.8991         13.2770
            6941         70.8870         41.3141         81.7743         1.77986
            6942         70.5897         44.0272         81.3672         1.44451
            6943         51.3721         46.4565         44.9351         13.5309
            6944         51.9272         45.3878         47.2957        -13.4925
            6945         69.7090         80.3988         41.6625        -1.75417
            6946         78.9948         40.1108         90.9896    -787.497E-03
            6947         78.1325         42.1837         90.1573    -133.645E-03
            6948         57.2675         59.8465         42.1158         12.1752
            6949         55.4805         46.9448         54.5213        -12.3988
            6950         54.2213         42.4861         54.5187        -12.6344
            6951         85.6285         38.9788         98.1329         1.62574
            6952         53.8349         53.7089         42.7154         12.6905
            6953         50.4044         49.1317         39.7030        -12.9232
            6954         83.5445         95.9629         39.4599     374.393E-03
            6955         71.7567         41.6844         82.4781        -3.95169
            6956         70.8454         41.9986         81.2067        -4.87250
            6957         50.8187         52.4536         36.7140        -11.6766
            6958         84.7966         97.4902         40.8619     151.484E-03
            6959         51.5155         40.4033         50.6161         12.9678
            6960         50.4246         36.9367         51.4560         11.9891
            6961         77.0153         88.4758         41.0291         4.08588
            6962         76.9534         88.5711         40.9151         2.99089
            6963         52.1366         43.1072         50.3296         12.8646
            6964         51.7008         39.7707         52.4578         11.9126
            6965         53.9275         55.0611         39.8318        -12.6893
            6966         55.2431         58.3175         38.0327        -11.8652
            6967         70.3313         80.7725         41.6492         4.15339
            6968         69.2629         79.2886         41.7147         5.10076
            6969         69.5046         43.9445         79.4585        -5.09512
            6970         93.8589         107.113         39.3026     675.365E-03
            6971         93.1964         106.244         38.3872     942.044E-03
            6972         70.8678         43.9463         81.4151        -3.67167
            6973         66.6612         46.3767         76.0506        -3.47372
            6974         56.2205         52.9810         55.9336        -7.92907
            6975         97.8844         110.495         34.8327        -1.60393
            6976         86.1012         98.3189         36.5913        -1.35383
            6977         63.9620         72.6684         43.5728         5.10612
            6978         69.0982         79.4048         43.7888         3.10998
            6979         67.9211         77.2502         42.8805         6.31043
            6980         69.0898         44.4714         79.3400        -3.12141
            6981         70.5313         44.0500         81.3038        -1.33906
            6982         58.3132         64.4417         49.0835    -714.900E-03
            6983         57.5847         48.1307         60.7720        -8.77866
            6984         97.3753         110.659         38.0732     258.610E-03
            6985         96.2744         109.693         39.2399     491.037E-03
            6986         99.0005         111.749         35.0128    -83.7328E-03
            6987         85.6483         41.7979         98.5133    -671.934E-03
            6988         61.9530         48.0784         68.7356        -5.96548
            6989         76.8356         41.6038         88.6315        -1.25153
            6990         77.4251         39.0877         89.1709    -531.553E-03
            6991         67.0301         76.3785         41.8097        -5.90668
            6992         85.2565         39.7827         97.8762    -123.242E-03
            6993         86.4969         37.5455         98.9245     235.260E-03
            6994         64.5940         73.2030         42.7008        -6.22269
            6995         65.3077         45.5609         73.9606         5.44171
            6996         67.5704         44.2221         76.9221         5.62158
            6997         65.8176         42.3693         74.7214         6.30870
            6998         95.7726         108.942         38.0660    -825.245E-03
            6999         68.1288         41.8630         77.7261         5.81735
            7000         74.1421         85.0188         41.0457        -4.95847
            7001         62.9744         47.1224         70.4353         5.86540
            7002         86.2242         41.4606         99.1130    -715.893E-03
            7003         87.1719         39.0308         99.8449        -1.08715
            7004         59.9195         50.0104         64.5129         7.15800
            7005         68.1776         42.1414         78.6369     892.647E-03
            7006         66.4785         42.8652         76.3590         2.85264
            7007         57.9633         54.4203         57.3443         8.76552
            7008         95.3987         108.579         38.2665     830.476E-03
            7009         56.3541         50.8459         56.5565        -9.44307
            7010         57.0463         60.8268         50.7140         4.73413
            7011         56.3385         56.7715         51.8586        -8.28246
            7012         58.8027         52.1938         61.4065         7.47981
            7013         84.1774         42.3683         96.9396    -465.879E-03
            7014         58.6410         60.6761         50.7842         9.30112
            7015         56.5177         59.9081         52.0881         2.04926
            7016         85.6706         97.9826         37.3465        -1.06637
            7017         67.3640         45.8583         77.1577        -2.57854
            7018         84.8415         97.0805         37.3550        -1.22618
            7019         99.1032         111.780         34.6892    -528.933E-03
            7020         87.5632         38.5294         100.201        -1.03980
            7021         67.5420         42.4331         77.6509         2.98107
            7022         79.5709         40.9060         91.6677         1.29209
            7023         80.0994         38.6869         92.0952     441.971E-03
            7024         67.2311         42.5093         77.5061     412.945E-03
            7025         64.3443         42.3268         72.4741         7.38755
            7026         97.4418         110.286         35.9300        -1.07641
            7027         87.4206         37.5057         99.9153    -64.1355E-03
            7028         63.7442         71.7486         42.3373        -7.31780
            7029         69.1814         78.7196         41.8047        -6.64596
            7030         64.1643         45.0157         71.9538         7.12602
            7031         66.0581         74.2482         41.8441         8.30276
            7032         61.2397         45.1738         67.0330        -9.02471
            7033         61.0745         42.0670         67.2894        -9.36760
            7034         88.0236         37.6105         100.576     531.242E-03
            7035         61.5074         68.1992         42.4654         8.65707
            7036         89.0645         35.6069         101.307         1.71226
            7037         58.2755         49.5600         60.1163        -10.0868
            7038         60.8557         65.8770         45.4809         9.85332
            7039         57.2954         60.0872         45.3867         10.6380
            7040         49.2929         42.0554         44.7241         13.4385
            7041         49.0490         43.5159         42.8009        -13.4507
            7042         78.7411         90.6472         39.2431     406.711E-03
            7043         50.4929         47.6397         41.5876        -13.3126
            7044         50.7369         46.3749         43.7336         13.4054
            7045         87.6406         100.255         38.3667         1.19280
            7046         75.7099         87.3410         41.3692        -1.33563
            7047         54.5800         49.7869         49.6149        -13.0227
            7048         54.7333         53.0470         45.7856         13.0923
            7049         69.6047         41.7412         80.2010         2.44756
            7050         69.0365         44.6680         79.4601         1.43939
            7051         52.7756         48.4660         46.3465         13.3485
            7052         67.6777         77.8764         42.3574        -2.58387
            7053         52.7282         46.6024         48.0852        -13.3813
            7054         56.4160         58.7747         41.0927         12.3140
            7055         55.0771         45.1370         54.9205        -12.3670
            7056         54.5987         41.5228         55.8482        -12.3400
            7057         85.2613         39.7292         97.8414         1.32987
            7058         54.0866         54.9016         41.6544         12.4228
            7059         57.2066         49.2350         59.9211        -8.33035
            7060         56.2635         52.9490         56.7076        -7.04379
            7061         56.1743         52.7446         55.3250        -8.77122
            7062         98.7446         111.333         34.4673        -1.26550
            7063         65.1526         74.2803         43.0026         4.90992
            7064         62.2330         69.9309         44.1533         6.34491
            7065         67.1552         76.5295         44.0353         5.28970
            7066         72.2362         83.2259         42.4043         2.74085
            7067         67.2478         45.0842         76.8656        -3.94893
            7068         57.5299         47.4617         60.4244        -9.55364
            7069         77.2772         41.7178         89.1591    -725.565E-03
            7070         76.3680         41.4564         88.0198        -2.23142
            7071         77.7530         38.6301         89.4697        -1.24377
            7072         78.2448         39.2777         90.1029    -27.7140E-03
            7073         62.4505         46.9365         69.3748         6.84069
            7074         63.7847         47.1158         71.9675         4.47464
            7075         87.1833         38.4162         99.7608        -1.33392
            7076         86.6654         41.0719         99.5556    -730.660E-03
            7077         64.6035         43.7158         73.8885         3.32286
            7078         68.9914         41.8464         79.5951         1.16596
            7079         57.8052         54.8809         56.1521         9.27637
            7080         95.1592         108.210         37.6741         1.03715
            7081         95.5800         108.897         38.9466     658.041E-03
            7082         95.6145         108.912         38.8213    -677.795E-03
            7083         67.8641         41.7687         77.3100         6.14310
            7084         85.5186         40.5411         98.2487    -222.624E-03
            7085         67.7520         77.2848         41.6492        -5.81907
            7086         74.2296         85.0752         40.9537        -5.13737
            7087         67.5163         43.9877         76.7836         5.92554
            7088         56.1091         52.1683         54.9595        -9.54461
            7089         59.0010         61.7731         49.3909         9.60507
            7090         56.5682         59.2945         51.9164         4.73165
            7091         56.2709         56.2591         51.3344        -9.20396
            7092         58.3854         53.1037         59.7681         7.96930
            7093         83.9582         43.5171         96.7823    -198.323E-03
            7094         57.9818         58.1605         52.2708         9.78262
            7095         56.8968         61.2183         51.2519    -344.661E-03
            7096         56.1779         58.0988         53.3379         3.38729
            7097         68.7133         78.5400         41.6820         5.45620
            7098         67.9582         43.9638         77.3895        -5.73592
            7099         94.8813         108.239         39.4701     621.048E-03
            7100         52.9875         40.1605         54.5821         11.6569
            7101         56.5401         60.4792         37.9654        -11.4570
            7102         69.6295         41.9086         79.6279        -5.42927
            7103         52.4302         54.8585         37.3514        -11.4511
            7104         85.4203         98.1115         40.2809     272.484E-03
            7105         75.0880         86.1412         40.9763         4.78128
            7106         53.1221         38.2343         55.3170         11.7633
            7107         85.8428         38.2704         98.2456         2.00511
            7108         54.6998         55.0848         43.4516         12.4260
            7109         56.1716         47.0048         56.1075        -12.0426
            7110         55.0212         43.2271         55.7314        -12.4078
            7111         58.4846         61.6590         43.3283         11.7311
            7112         72.6242         40.9333         83.7775        -1.76627
            7113         73.8888         42.9996         85.3017     846.855E-03
            7114         81.6764         93.9514         39.8652    -332.548E-03
            7115         48.7399         43.1284         42.5477         13.4192
            7116         50.7391         46.8518         43.1762        -13.3924
            7117         48.9396         42.0871         43.9861        -13.4192
            7118         73.8689         85.2340         40.6251        -1.15648
            7119         51.0182         47.9791         42.4237         13.3734
            7120         73.9901         40.6890         85.3455         1.60317
            7121         96.9621         110.458         39.3921     189.399E-03
            7122         75.7346         87.0492         41.0353         3.93125
            7123         52.2244         39.9416         52.3518         12.6802
            7124         51.6806         51.7180         39.5409        -12.6178
            7125         84.5130         96.9524         38.9041     577.682E-03
            7126         69.9098         41.7988         80.1565        -4.67686
            7127         55.7006         57.6125         40.8714        -12.4845
            7128         53.2565         43.3350         52.4711         12.6354
            7129         94.3756         107.471         38.1931     950.140E-03
            7130         68.9485         44.2144         78.8924        -4.58808
            7131         68.4759         78.3527         41.7753         5.09373
            7132         60.5496         48.2446         65.7323        -7.94158
            7133         59.1328         51.0906         62.4128         7.74125
            7134         57.5814         53.4470         56.1582         10.1123
            7135         48.1358         41.4152         43.0160         13.3289
            7136         48.1619         43.0313         41.4728        -13.3231
            7137         49.1100         45.7074         40.8178        -13.1935
            7138         49.0687         45.1622         41.3812         13.2234
            7139         70.7857         41.5609         81.4622        -3.30960
            7140         58.1170         46.0549         61.7556        -9.77951
            7141         76.3126         42.1030         88.0873    -328.089E-03
            7142         76.8732         39.8467         88.6091     558.394E-03
            7143         56.5278         51.5611         57.9169        -7.49976
            7144         61.7103         68.9545         44.1576         7.03357
            7145         66.1823         74.8441         43.6568         6.83099
            7146         66.7859         76.1632         44.5319         4.76519
            7147         61.4654         68.9052         44.9413         5.97325
            7148         96.7019         110.368         40.5072     135.372E-03
            7149         66.1633         75.8082         42.8183         3.79778
            7150         73.6994         84.9369         41.8604         2.61577
            7151         87.2774         40.1720         100.121    -691.694E-03
            7152         64.6102         42.6400         72.9975         6.83830
            7153         63.3615         42.2208         70.9421         8.05252
            7154         97.6799         110.668         36.5030    -654.853E-03
            7155         64.3097         72.6736         42.5089        -6.74684
            7156         87.4256         36.7485         99.8008     195.174E-03
            7157         87.5193         38.5478         100.174    -356.428E-03
            7158         63.0249         70.5990         42.1417        -7.89868
            7159         69.2653         78.6937         41.1637        -7.06788
            7160         69.6392         79.4638         42.1331        -5.99948
            7161         64.2074         45.5412         72.1336         6.59262
            7162         64.0833         44.4519         71.7707         7.52787
            7163         85.5737         98.3729         41.1332     170.830E-03
            7164         75.0676         86.0824         40.9829         4.94176
            7165         68.3054         77.9900         41.6318         5.68168
            7166         68.1092         43.7831         77.5665        -5.81482
            7167         89.0236         35.8203         101.326         1.24942
            7168         88.8518         35.5651         101.034         2.25384
            7169         57.8786         50.1012         58.8477        -10.4097
            7170         58.7715         48.3206         61.6519        -9.95503
            7171         59.9813         64.1181         46.6473         10.0264
            7172         61.5830         67.2036         44.4929         9.77429
            7173         56.6958         58.4954         46.2610         10.9342
            7174         57.9117         61.5269         44.6000         10.3787
            7175         58.2585         45.1086         62.0193        -10.1732
            7176         56.8509         46.4956         58.6321        -10.9330
            7177         77.5345         89.3576         39.9184    -346.308E-03
            7178         86.4756         99.0907         38.9240     577.664E-03
            7179         74.3935         85.7619         41.6706        -2.35287
            7180         77.0875         88.9200         40.9921    -357.995E-03
            7181         54.3374         50.5031         48.0741        -13.1499
            7182         54.8991         49.1574         51.1670        -12.8405
            7183         55.5899         54.6408         46.2251         12.8276
            7184         68.4852         42.1041         78.7505         3.24289
            7185         54.0002         50.4988         47.0945         13.2441
            7186         70.4187         41.3776         81.2678         1.27869
            7187         67.9780         45.0328         78.0086         2.62438
            7188         69.8883         44.3331         80.5633     209.250E-03
            7189         53.2967         50.1982         45.8609         13.1604
            7190         52.1613         46.2706         46.9969         13.4870
            7191         52.5980         47.9633         46.4081        -13.3946
            7192         70.0465         80.8623         41.4948    -671.264E-03
            7193         66.8545         76.6663         42.5259        -3.81461
            7194         53.6196         46.5875         50.3405        -13.1116
            7195         67.1832         76.6754         41.9518         5.51283
            7196         69.0464         41.8569         78.9919        -5.22954
            7197         74.2170         85.2149         41.2052         4.47219
            7198         96.5256         109.275         35.8199        -1.55863
            7199         56.0390         53.4605         53.6796        -9.49700
            7200         98.4565         111.163         35.0184    -995.346E-03
            7201         57.1778         48.6209         59.5879        -9.16164
            7202         75.5340         41.9658         87.1555        -1.38063
            7203         74.2232         39.9924         85.6428    -150.137E-03
            7204         85.3134         43.2013         98.2692    -425.172E-03
            7205         69.5513         41.5213         80.2952     53.7029E-03
            7206         57.6359         54.9490         55.1430         9.86251
            7207         66.2364         41.5705         75.0634         6.95370
            7208         96.1627         109.465         38.6327    -625.320E-03
            7209         86.1380         41.3955         99.0197    -285.375E-03
            7210         66.1928         75.1376         41.4139        -6.64471
            7211         72.8715         83.3425         40.8175        -5.77493
            7212         66.3074         43.7852         75.0632         6.62601
            7213         55.9872         51.5546         54.4940        -10.2715
            7214         60.0665         64.3968         48.0601         9.05882
            7215         56.5988         58.9369         51.6749         5.91992
            7216         56.5895         57.8304         50.2368        -8.93480
            7217         56.0917         54.8112         52.4773        -9.38958
            7218         58.1726         53.9059         58.6176         8.20619
            7219         87.5349         37.5963         100.007        -1.56528
            7220         63.5799         44.1918         72.3842         4.03330
            7221         53.6334         41.7354         54.5374         12.0624
            7222         57.2846         61.0999         39.1745        -11.6510
            7223         53.6775         56.2699         38.4568        -11.5471
            7224         54.3059         39.5895         56.5117         11.9094
            7225         86.0482         37.4932         98.3065         2.59577
            7226         55.0471         55.3367         44.3929         12.2998
            7227         55.9660         49.6083         53.7206        -12.2514
            7228         54.6042         44.6954         54.0061        -12.6637
            7229         57.7275         59.7654         44.8192         11.9783
            7230         73.3208         43.0246         84.6578     282.836E-03
            7231         82.2241         94.5202         39.5552     543.418E-03
            7232         72.9234         84.1835         40.5924    -381.666E-03
            7233         74.4313         40.3933         85.8704         1.04090
            7234         52.5112         42.0487         51.3304         13.0754
            7235         74.9332         86.2572         41.3310         3.24125
            7236         70.7754         41.6898         81.3086        -4.07319
            7237         51.2982         50.4332         40.2180        -12.8948
            7238         83.7136         96.0757         38.8722     595.342E-03
            7239         54.7260         55.7104         41.1843        -12.7740
            7240         52.7612         44.7976         50.1089         13.0483
            7241         69.6754         44.1821         79.9426        -3.82166
            7242         93.9193         106.906         37.7937         1.14141
            7243         85.2368         97.6408         38.1831    -789.627E-03
            7244         59.9556         49.7187         64.5495        -7.42522
            7245         53.8876         40.2329         55.3132         12.2617
            7246         53.2764         54.8034         39.4534        -12.1184
            7247         56.7483         59.5683         40.5914        -12.1421
            7248         54.2661         43.3370         54.5528         12.3134
            7249         56.2266         59.0190         52.9401     59.9584E-03
            7250         66.4599         74.9217         42.3488         7.81200
            7251         61.4254         42.5822         67.8661        -9.01684
            7252         61.6503         46.0958         67.7508        -8.34256
            7253         61.1031         67.5784         43.1153         8.59225
            7254         60.2703         49.0835         65.2185         7.55020
            7255         57.6383         57.0003         52.0638         10.4906
            7256         64.0018         46.5755         72.1248         5.29815
            7257         88.8579         36.0035         101.201     700.756E-03
            7258         56.8724         58.7775         48.7658        -9.44990
            7259         65.4707         73.6285         43.3477         7.69973
            7260         60.7857         43.5553         66.8642        -8.93136
            7261         60.3723         47.1936         65.2908        -8.86942
            7262         60.6197         66.8374         43.8455         8.47734
            7263         65.0903         46.3772         73.9702         3.86639
            7264         68.2561         77.5113         42.1649         6.86226
            7265         62.7878         42.5926         70.0986        -8.16598
            7266         62.2027         69.5713         43.4646         7.38742
            7267         57.7482         51.9823         57.6386         10.1106
            7268         57.5495         55.9776         53.2944         10.3514
            7269         77.1496         88.9088         39.6133     115.674E-03
            7270         85.8857         98.3753         38.5738         1.34531
            7271         70.0131         41.6503         80.6539        -2.66393
            7272         58.9293         44.8102         63.4373        -9.71354
            7273         66.6114         76.0559         44.9111         4.13611
            7274         61.7930         69.7007         45.1230         4.80301
            7275         67.8730         77.9249         42.1692         3.75264
            7276         75.1223         86.5774         41.4130         2.45652
            7277         87.6508         38.8955         100.357    -755.076E-03
            7278         86.9353         41.5747         99.9099    -586.217E-03
            7279         74.7631         42.4460         86.3201    -461.742E-03
            7280         62.6083         43.2021         69.9651         7.76531
            7281         96.7512         109.872         37.4676    -751.783E-03
            7282         64.0585         41.8485         71.9575         7.86624
            7283         63.9565         71.9709         41.7562        -7.57775
            7284         87.0179         39.2616         99.7297    -247.697E-03
            7285         62.9864         70.6624         42.7622        -7.46510
            7286         87.8132         36.7844         100.223    -27.2966E-03
            7287         68.1552         77.4651         42.4946        -6.59169
            7288         70.4191         80.2035         40.9584        -6.67498
            7289         63.1323         46.0244         70.4074         7.08747
            7290         65.2213         44.2459         73.4992         6.97646
            7291         86.0799         98.8940         40.8099     215.023E-03
            7292         73.2461         83.8285         40.8892         5.58382
            7293         67.1134         76.3974         41.4916         6.21674
            7294         66.9353         43.6749         75.9507        -6.36303
            7295         65.0468         41.6207         73.3847         7.47902
            7296         96.6432         109.926         38.3419    -558.618E-03
            7297         86.7595         40.2322         99.5706    -273.450E-03
            7298         64.9855         73.4488         41.5086        -7.16875
            7299         71.6183         81.7400         40.7703        -6.27448
            7300         65.1724         43.8197         73.4156         7.17565
            7301         59.4433         62.9067         48.0407         9.83916
            7302         60.6556         65.7805         48.0354         8.25474
            7303         56.6607         58.3653         50.7346        -7.98044
            7304         56.1202         55.5841         50.7420        -10.0927
            7305         88.0939         36.9068         100.500        -1.56861
            7306         64.1174         43.7357         72.9346         4.78256
            7307         96.4975         110.284         41.3636     122.066E-03
            7308         57.9522         62.7675         37.9272        -10.9670
            7309         54.9125         58.6170         38.2854        -10.9212
            7310         55.0936         39.0349         58.3007         11.3779
            7311         71.1406         40.8283         82.1349    -663.336E-03
            7312         87.0174         36.5334         99.1582         3.03258
            7313         54.8522         54.0551         45.8739         12.4112
            7314         56.3241         50.1751         54.2989        -11.9852
            7315         55.3889         46.2414         55.0471        -12.1783
            7316         58.4794         61.0057         45.9430         11.4042
            7317         73.9069         42.6649         85.3294    -683.923E-03
            7318         75.2019         42.5064         86.8290     119.819E-03
            7319         83.1311         95.5186         39.5184     82.3259E-03
            7320         81.3541         93.5630         39.7020     975.102E-03
            7321         72.0040         83.1378         40.8078    -154.387E-03
            7322         74.8764         86.3862         40.2260    -495.512E-03
            7323         73.7210         40.3708         85.0793     638.147E-03
            7324         75.6610         40.3306         87.2514         1.17277
            7325         60.1703         50.0354         65.1867        -6.56418
            7326         59.8849         48.4145         64.2423        -8.66841
            7327         59.5094         49.4775         63.3676         8.42940
            7328         57.7488         57.9038         50.7410         10.7319
            7329         68.9180         41.9605         79.0951        -4.15676
            7330         67.8680         77.7984         42.0763         4.34068
            7331         74.4296         85.7190         41.5278         3.00963
            7332         69.2932         79.5949         41.7699         3.92171
            7333         94.0496         106.784         36.5615         1.82481
            7334         53.2481         46.3321         49.7595         13.1421
            7335         54.4922         54.3206         42.8808        -13.0285
            7336         69.7954         41.7907         80.1487        -4.10644
            7337         51.7770         50.5192         41.2966        -13.0323
            7338         83.8956         96.1680         38.1044     943.333E-03
            7339         76.5842         88.2216         41.0167         2.46818
            7340         53.2281         43.5893         51.7021         13.0863
            7341         60.3857         66.6379         44.7495         7.85945
            7342         65.0770         73.3215         44.4659         6.88147
            7343         96.9736         110.519         39.6718    -90.4595E-03
            7344         98.0314         111.026         36.4189    -387.957E-03
            7345         62.5531         42.0722         69.6675         8.56977
            7346         87.6411         38.6200         100.314    -463.449E-03
            7347         62.2539         69.3783         41.8731        -8.44440
            7348         67.8811         76.7780         41.0187        -7.74147
            7349         63.0106         44.7443         70.0592         8.05690
            7350         55.5441         53.6450         47.7102         12.7868
            7351         55.2664         51.3022         49.9352        -12.7896
            7352         73.2299         84.4517         42.1383        -2.12461
            7353         67.0157         77.0927         42.6432        -2.37052
            7354         54.1989         47.7664         50.9176        -12.8509
            7355         53.8257         50.3566         47.2843         12.9961
            7356         67.8232         45.2726         77.9240         1.42098
            7357         86.0184         98.4965         38.2210    -682.545E-03
            7358         61.5000         67.1556         45.7227         9.17141
            7359         58.6356         49.1281         61.1647        -9.80377
            7360         89.6875         34.9170         101.843         1.70207
            7361         57.5449         60.6193         45.9276         10.1893
            7362         56.0677         56.5137         54.3093         4.81335
            7363         48.1947         41.8035         42.7595        -13.3456
            7364         47.4574         42.2702         40.8240         13.2221
            7365         49.5042         46.8774         40.2385         13.1695
            7366         49.4300         44.9895         42.4069        -13.2764
            7367         89.5199         35.1342         101.739         1.01226
            7368         59.3192         48.3456         62.9369        -9.36555
            7369         62.9435         69.6890         44.7139         8.60338
            7370         58.8657         63.5149         44.5127         9.60670
            7371         69.2164         41.8929         79.5736        -3.53568
            7372         72.2665         83.2361         42.3432        -2.92853
            7373         55.4863         50.6581         51.3342        -12.6197
            7374         66.5480         45.8357         76.1683         2.40425
            7375         54.1494         51.5901         46.8525         12.8139
            7376         54.4786         46.9180         52.3056        -12.7123
            7377         66.2498         76.0409         42.9011        -3.08492
            7378         58.5466         51.0633         60.6026        -8.98394
            7379         61.3458         67.0547         46.8920         8.41521
            7380         57.3895         60.2308         47.1159         9.72501
            7381         72.8504         84.0977         42.5141    -938.687E-03
            7382         55.8944         52.7772         50.2234        -12.4768
            7383         56.1700         54.7808         48.3271         12.4636
            7384         66.1747         46.2801         75.7598         1.13577
            7385         54.3461         49.6898         49.6418         12.7385
            7386         66.1625         76.0708         43.0572        -2.01527
            7387         54.0675         48.7964         49.6548        -12.9046
            7388         56.7627         58.4139         48.1691        -10.0549
            7389         57.2895         51.8010         56.1428         10.8778
            7390         73.1951         40.3688         84.4897     195.403E-03
            7391         74.1955         42.4424         85.6269        -1.39766
            7392         57.3307         55.4272         52.8525         10.8122
            7393         75.7744         87.3938         40.1796    -611.919E-03
            7394         84.5192         96.9705         39.0453     801.073E-03
            7395         67.7562         77.6809         44.4964         3.32509
            7396         65.0596         73.8657         45.8718         4.49959
            7397         63.1029         71.6372         44.2865         4.52241
            7398         60.5167         67.7078         46.1311         4.94244
            7399         87.1491         41.0344         100.085    -578.311E-03
            7400         88.1005         37.3791         100.603        -1.15312
            7401         87.6717         36.4031         99.8897         2.54821
            7402         56.9489         50.1036         56.1625        -11.4385
            7403         59.0944         62.1730         46.9183         10.6831
            7404         55.8621         56.4698         46.0471         11.7142
            7405         56.4510         46.0097         57.7483        -11.4300
            7406         79.7428         91.8417         40.2066     169.563E-03
            7407         72.3215         40.8406         83.4704         1.17098
            7408         72.8362         43.1062         84.0935    -261.161E-03
            7409         70.9041         81.8461         41.2427        -1.03241
            7410         65.7265         41.3215         74.3724         7.17485
            7411         96.4644         109.891         39.2052    -446.732E-03
            7412         86.5755         41.4043         99.5012    -306.253E-03
            7413         65.0969         73.6348         41.1032        -7.13374
            7414         71.6145         81.7259         40.6033        -6.30449
            7415         65.2494         43.4338         73.5658         7.17190
            7416         58.4483         60.2717         49.3805         10.3495
            7417         88.3849         36.7041         100.789        -1.36979
            7418         62.5950         44.6659         70.8607         4.72294
            7419         70.5903         40.9066         81.4618        -1.40612
            7420         85.3310         37.4093         97.4472         3.23463
            7421         54.5594         52.7255         46.7717         12.5860
            7422         55.7251         50.0689         52.6350        -12.4274
            7423         54.9062         46.3722         53.7495        -12.4872
            7424         57.5965         58.9831         46.3706         11.8772
            7425         83.4360         95.7235         38.9953         1.88887
            7426         74.0612         85.4620         40.1144     367.298E-03
            7427         74.7115         86.1838         40.5913        -1.26786
            7428         58.6269         49.9065         60.9876         9.49814
            7429         56.0114         55.2691         55.5535         4.71891
            7430         69.4470         79.8955         41.7516         3.27490
            7431         91.4467         104.160         37.3553         1.70314
            7432         52.5260         46.3736         47.9912         13.3021
            7433         53.6407         52.4459         43.2565        -13.2193
            7434         51.1502         47.9857         42.7479        -13.3869
            7435         81.3570         93.4482         38.5263     882.308E-03
            7436         77.2500         89.0419         40.8985         1.64152
            7437         50.7957         42.2935         47.6027         13.4005
            7438         59.3442         64.7691         45.7270         8.11237
            7439         63.8775         71.5395         45.3761         7.06211
            7440         96.7684         110.328         39.8438    -220.980E-03
            7441         62.0432         45.9035         68.4506         8.14183
            7442         66.9042         75.6835         42.7367        -7.21613
            7443         60.8364         67.1320         43.2828        -8.69146
            7444         88.0688         36.8770         100.512    -245.294E-03
            7445         61.2674         43.1661         67.6580         8.81855
            7446         61.1119         42.4686         67.3397         9.24253
            7447         87.8797         38.0406         100.486    -537.223E-03
            7448         61.1994         67.6861         42.4873        -8.84287
            7449         66.6904         75.1330         41.5072        -8.13148
            7450         62.0281         45.1863         68.4104         8.50327
            7451         55.9950         56.7635         54.4841         3.53725
            7452         46.4061         39.7074         41.3427        -13.0286
            7453         44.6403         40.2371         37.5099         12.5966
            7454         47.8507         45.1098         38.7671         12.9187
            7455         46.3705         40.9947         40.5589        -12.7454
            7456         50.5305         49.6583         38.9772         12.9577
            7457         47.4317         40.1821         42.8459        -13.1787
            7458         48.5215         42.4922         43.3068        -13.0827
            7459         46.7001         42.9555         38.6428         12.9406
            7460         69.5617         80.1144         43.8812         1.86744
            7461         63.6353         72.5746         44.1992         3.49049
            7462         59.3075         51.3682         63.0175        -6.94222
            7463         87.7977         38.4625         100.457    -649.142E-03
            7464         60.2254         44.5683         66.0346        -8.62661
            7465         54.5709         56.6451         40.3295        -11.9347
            7466         55.0841         40.7234         57.2424         11.9760
            7467         55.2447         43.2467         56.5832         11.9314
            7468         57.8955         61.6134         40.3548        -11.7410
            7469         65.4663         73.7345         43.7592         7.32003
            7470         60.0189         65.8492         44.5631         8.46029
            7471         67.6018         77.5764         44.8035         2.59834
            7472         62.2297         70.5789         45.0895         3.67234
            7473         68.5421         42.0830         78.8038        -3.33142
            7474         61.7195         45.0964         69.4019         5.43955
            7475         59.4862         64.9011         45.1346         8.53627
            7476         63.5939         70.8069         44.5908         8.15603
            7477         58.1166         52.0523         58.9377        -9.35042
            7478         56.7801         58.4777         48.0672         10.0787
            7479         74.1426         85.6040         42.1456     466.937E-03
            7480         55.7468         53.3564         48.8947        -12.6353
            7481         55.1453         51.2421         49.6260         12.8511
            7482         67.3874         45.6710         77.3944    -51.1898E-03
            7483         54.0823         48.0054         50.3914         12.9118
            7484         67.2245         77.4515         42.6135        -1.28668
            7485         54.0808         50.0037         48.4914        -12.8802
            7486         57.3114         60.0213         47.0428        -9.87563
            7487         56.3063         56.8169         48.8727        -10.4960
            7488         57.1785         54.4540         53.3552         10.9965
            7489         88.6469         36.4177         101.030        -1.17874
            7490         61.9794         45.2074         70.1222         4.10925
            7491         66.7013         42.6939         76.4726         3.79291
            7492         64.3206         43.4000         72.9937         5.58046
            7493         69.9652         41.0222         80.6644        -2.20590
            7494         86.3613         36.6248         98.3971         3.59044
            7495         54.9592         53.8169         46.7390         12.3163
            7496         56.1959         51.2653         52.9439        -12.1240
            7497         55.1362         47.5722         53.6691        -12.2429
            7498         58.0455         59.5842         47.7977         11.2897
            7499         73.2924         84.5797         40.2236     861.104E-03
            7500         47.0758         40.5630         42.4812        -12.7709
            7501         45.3377         41.8271         37.2035         12.6230
            7502         47.8030         45.9134         37.6673         12.7501
            7503         46.7731         38.6295         43.0849        -12.9554
            7504         58.7849         48.4542         61.6562         9.89730
            7505         56.1738         55.9186         53.6137         7.12217
            7506         93.0938         105.727         36.4759         2.18087
            7507         53.8709         47.8273         49.8031         13.1176
            7508         55.1163         54.7936         44.1999        -12.9577
            7509         52.2750         50.3492         42.7912        -13.1788
            7510         82.5112         94.6219         37.9055         1.24548
            7511         52.6765         44.0254         50.1701         13.2702
            7512         59.6875         65.6809         46.0127         7.15559
            7513         64.3659         72.5040         45.5970         6.13774
            7514         60.8700         41.6957         66.9936         9.51897
            7515         60.8216         67.0717         41.9347        -9.21543
            7516         66.4475         74.7610         41.0609        -8.36301
            7517         60.8593         45.2659         66.3499         9.23624
            7518         83.9925         96.4793         39.6958    -428.704E-03
            7519         75.5499         87.1301         40.6465        -1.35828
            7520         45.2899         39.2288         39.7195        -12.8165
            7521         45.2985         39.4436         39.5185         12.8218
            7522         46.0533         42.6004         38.0440         12.6419
            7523         45.9698         41.8254         38.7812        -12.6744
            7524         55.7641         41.1303         58.2737         11.8170
            7525         55.6816         58.3279         41.0267        -11.6635
            7526         59.1300         63.7191         40.1701        -11.2872
            7527         56.2529         43.1131         58.6346         11.4826
            7528         87.5091         39.3305         100.269    -504.255E-03
            7529         87.2585         40.6817         100.165    -525.221E-03
            7530         54.9576         41.3139         56.6618         12.1635
            7531         54.3351         55.4255         41.5878        -12.3261
            7532         58.3718         62.0146         41.4867        -11.7344
            7533         58.9916         52.6356         62.1916        -6.19692
            7534         57.2569         50.2924         56.9456         11.1079
            7535         57.5538         59.8611         43.5156         12.1157
            7536         55.8081         48.4923         54.1828        -12.3114
            7537         54.3449         53.6570         44.5360         12.6558
            7538         85.0260         38.7240         97.4195         1.98292
            7539         71.0104         81.7279         42.8437        -3.10803
            7540         64.7904         73.8133         43.1935        -4.89787
            7541         88.6374         36.2819         101.017    -555.275E-03
            7542         73.0562         40.2308         84.3234    -468.409E-03
            7543         72.5271         43.0716         83.6492        -1.89186
            7544         58.2068         51.5199         59.3937         9.41766
            7545         54.4418         49.0916         49.9852         13.0290
            7546         52.7477         50.1203         44.3675        -13.2351
            7547         83.4881         95.4779         36.7760         2.08562
            7548         93.3990         105.947         36.0768         2.54248
            7549         55.2119         53.8985         46.0880        -12.9522
            7550         53.7332         44.9738         51.8360         13.0244
            7551         61.8008         44.6330         69.2000         6.51158
            7552         81.8251         93.9939         39.4483         2.01836
            7553         71.8154         82.9019         40.7135     888.791E-03
            7554         57.3142         53.2369         55.1867         10.6950
            7555         57.6769         51.8194         57.4801        -10.2632
            7556         58.2192         52.8405         59.1129        -8.69039
            7557         56.4718         57.6259         47.5780         10.7452
            7558         57.1455         59.6367         48.2833         9.26013
            7559         71.9121         83.0167         43.0792     124.979E-03
            7560         75.7557         87.4367         41.4717     15.4507E-03
            7561         55.0488         52.8308         47.1840        -12.9834
            7562         56.2961         54.6765         49.0401        -12.3308
            7563         54.5058         50.5064         48.5743         13.0872
            7564         56.0071         53.5483         49.6093         12.4469
            7565         68.1087         45.2202         78.3295     406.176E-03
            7566         53.2307         45.9900         49.8630         13.2327
            7567         54.8394         49.5473         51.3793         12.3598
            7568         53.2154         50.0302         45.8245        -13.1855
            7569         68.3410         78.8373         42.1487    -718.104E-03
            7570         65.2003         74.8903         43.5839        -1.52432
            7571         54.5692         50.8432         49.2125        -12.5568
            7572         57.3256         60.1391         47.9216        -9.21941
            7573         56.2286         56.8634         47.7455        -11.0084
            7574         57.0036         54.6997         52.1967         11.3725
            7575         65.5040         74.3132         45.1659         5.31598
            7576         60.1284         66.7564         46.0837         6.10148
            7577         65.7045         42.9105         74.9515         4.97510
            7578         56.3306         57.1858         52.5080         7.03658
            7579         56.1052         54.5110         55.6329         6.16237
            7580         95.2660         107.906         35.7921         2.07744
            7581         54.3901         47.5378         51.3886         12.9170
            7582         56.0085         56.7732         43.7939        -12.6777
            7583         53.3346         52.6058         42.7768        -12.8798
            7584         84.0287         96.1692         37.2302         1.48554
            7585         54.3444         44.7446         53.3976         12.7696
            7586         58.1598         62.1891         46.6069         8.96867
            7587         62.6410         69.5500         46.3879         7.32878
            7588         97.3342         110.644         38.2302    -235.986E-03
            7589         62.3672         41.4520         69.4006         8.78907
            7590         61.5064         68.2202         41.5068        -8.90381
            7591         67.1043         75.6829         40.7104        -8.14110
            7592         62.6794         43.9594         69.5758         8.44566
            7593         57.0044         40.0054         61.0831         10.9785
            7594         56.2206         59.7281         40.2220        -11.2232
            7595         59.9261         65.4063         39.0040        -10.6918
            7596         55.8943         41.9577         58.6894         11.2806
            7597         60.0544         48.2881         64.6273         8.54083
            7598         58.1623         48.6879         60.0762         10.4590
            7599         88.3617         37.0075         100.831    -980.482E-03
            7600         87.3807         35.8559         99.3177         3.95193
            7601         55.4359         54.3391         48.1190         11.8279
            7602         56.6718         52.3851         53.4870        -11.6699
            7603         55.5646         48.4688         54.4184        -11.7535
            7604         57.8915         58.7714         49.3486         10.9901
            7605         69.5581         79.9567         43.5224        -3.21256
            7606         62.5520         70.8674         44.6564        -4.51121
            7607         75.1064         39.1952         86.5202        -1.83894
            7608         73.9630         42.2721         85.1147        -3.51478
            7609         88.5366         36.1201         100.885    -281.924E-03
            7610         57.5735         60.6797         46.2044        -10.0251
            7611         96.4291         110.143         40.9358    -216.224E-03
            7612         60.4840         43.1743         66.2813         9.35846
            7613         59.9711         65.5944         43.5047        -9.21794
            7614         65.6784         73.7558         42.4086        -8.22865
            7615         61.0077         46.3375         66.5519         8.74577
            7616         54.3673         54.6566         42.9780        -12.5218
            7617         54.6718         42.3384         55.5138         12.4507
            7618         55.5533         46.7792         54.8097         12.3521
            7619         57.8155         60.5187         43.0165        -12.0139
            7620         55.7163         54.0362         47.7451        -12.7118
            7621         54.0358         46.4750         51.4802         12.9393
            7622         55.2612         50.3263         51.0141         12.7276
            7623         53.9481         51.8843         45.7536        -12.8960
            7624         60.6877         48.1124         66.0232         7.86691
            7625         61.0649         47.1641         66.6978         8.19782
            7626         81.5744         93.4021         37.1043         2.53755
            7627         92.0771         104.486         36.1356         3.20141
            7628         86.0753         98.3353         36.8356         1.22467
            7629         54.8747         47.1010         52.9493         12.6894
            7630         56.9263         58.6876         43.4625        -12.3570
            7631         96.3958         109.092         35.6454         1.73881
            7632         62.3462         69.5786         41.1006        -8.49165
            7633         62.9119         41.0960         70.2915         8.50158
            7634         67.9436         76.8564         40.3663        -7.79740
            7635         65.8424         42.6281         74.9327         5.69791
            7636         61.0471         45.3675         68.1573         6.19797
            7637         63.0405         43.9595         71.1137         6.07285
            7638         77.4900         89.3470         40.9021         1.05000
            7639         69.7818         80.5620         41.5278     303.313E-03
            7640         58.5182         51.9494         60.3910        -8.48217
            7641         57.7901         53.1678         57.2128        -9.68595
            7642         57.6296         60.9418         47.4205         9.10036
            7643         71.1522         82.0958         43.2689    -985.273E-03
            7644         76.3900         88.0904         41.3287         1.64563
            7645         56.4495         54.2979         50.2885        -12.1093
            7646         56.7558         55.7623         49.2410         12.0125
            7647         68.7674         44.9463         79.1335        -1.06916
            7648         54.8471         51.0396         49.9976         12.3189
            7649         64.1977         73.4757         44.0305        -2.52742
            7650         54.6706         48.9115         51.3692        -12.5205
            7651         68.0793         78.5339         42.2443     283.049E-03
            7652         56.7169         53.3704         52.6277         11.6546
            7653         56.1861         55.6391         53.1447         8.03586
            7654         56.0360         54.2646         56.7893         4.16364
            7655         58.5471         63.5223         47.3605         7.25984
            7656         63.2316         70.6967         46.3596         6.54402
            7657         57.6818         41.1652         61.7286         11.0040
            7658         56.0553         39.5210         59.6962         11.1939
            7659         57.1574         61.0494         40.9581        -10.9977
            7660         56.1655         60.3214         39.0333        -10.7522
            7661         60.3631         65.7478         40.0170        -10.8105
            7662         59.4506         65.1111         37.9544        -10.4185
            7663         56.4165         41.0924         60.2194         10.6837
            7664         58.1839         44.1494         61.7544         10.7859
            7665         57.2105         48.7406         57.6424         11.3178
            7666         57.3932         52.3791         56.1449        -10.6297
            7667         55.8865         48.4086         55.4373        -11.4055
            7668         70.3182         81.0149         43.4415        -2.12014
            7669         68.8618         78.9234         43.5175        -4.23579
            7670         62.3198         70.7834         45.1052        -3.25003
            7671         62.7068         70.8177         44.1787        -5.59375
            7672         72.9179         40.0744         84.1270        -1.29814
            7673         72.0844         43.2258         83.0271        -2.77505
            7674         59.1626         64.0827         43.8808        -9.66261
            7675         59.6677         43.0649         64.8191         9.92575
            7676         59.7715         46.7887         64.0893         9.56858
            7677         64.3646         71.8290         43.2122        -8.56317
            7678         57.0068         59.2706         46.2676        -10.6207
            7679         96.4628         110.312         41.7977    -65.2246E-03
            7680         96.1333         109.868         41.2192    -273.296E-03
            7681         65.7581         74.0015         43.0383        -7.75693
            7682         59.8741         65.4852         44.1617        -8.91211
            7683         60.7973         43.8375         66.9405         8.71883
            7684         55.3543         56.5787         43.2379        -12.1076
            7685         55.6144         43.3668         56.8886         12.1524
            7686         56.4384         46.5264         57.0016         11.8812
            7687         59.1824         62.8773         43.6056        -11.3924
            7688         56.4473         57.8275         46.4312        -11.1269
            7689         58.2293         62.5110         47.1107        -8.33768
            7690         61.7437         67.9279         47.0291         7.76608
            7691         89.1001         35.3342         101.346    -319.733E-03
            7692         80.4796         92.4717         38.4672         1.05820
            7693         52.6352         48.1316         46.2955         13.4017
            7694         53.0770         50.4022         44.5886        -13.3667
            7695         90.7499         103.331         37.0773         2.21781
            7696         74.7074         86.1462         40.9594        -1.90108
            7697         82.6088         94.9816         40.1788        -1.24130
            7698         95.9016         109.485         40.3765    -403.885E-03
            7699         71.5128         43.4815         82.1969        -3.70341
            7700         61.8737         69.3670         44.3700        -6.47282
            7701         56.3232         56.7535         52.1287         8.00890
            7702         68.0807         45.3723         78.1978        -1.77525
            7703         56.1348         54.8077         53.9533         8.02755
            7704         56.1662         53.2499         58.1108         3.49340
            7705         56.1784         56.1337         49.7577         10.3646
            7706         57.7100         54.7477         55.7398        -9.62347
            7707         68.4648         78.9044         41.9978         1.95913
            7708         75.4839         87.0019         41.7117         2.42298
            7709         79.7110         91.5583         38.1603         1.69351
            7710         83.2899         95.1456         36.3778         2.73035
            7711         91.3162         103.825         36.6552         2.65054
            7712         93.7848         106.096         35.3536         3.66534
            7713         54.4913         54.0970         44.3569        -12.5813
            7714         55.9377         48.6042         54.4247         12.2458
            7715         55.1793         44.4468         55.4354         12.3839
            7716         57.4588         59.1586         44.9945        -12.0980
            7717         64.1515         72.2560         41.2022        -7.61522
            7718         64.2371         41.2884         72.2284         7.89351
            7719         64.1523         43.3237         71.9580         7.70535
            7720         70.4645         80.2316         40.5019        -6.76422
            7721         58.2992         63.6083         48.4295         5.41239
            7722         62.7658         70.0780         47.1111         6.07223
            7723         81.2824         93.5022         40.4723        -1.86196
            7724         73.9188         85.2010         41.2166        -2.42717
            7725         53.2487         49.6683         46.0281        -13.3671
            7726         53.2305         49.5329         46.1491         13.3683
            7727         50.9962         44.0837         46.4007         13.5368
            7728         51.8140         46.3339         46.1210        -13.5114
            7729         69.3794         44.5975         79.9291    -424.424E-03
            7730         56.5447         41.6494         59.4745         11.5828
            7731         57.1894         39.3560         61.7675         10.6056
            7732         56.9731         61.3358         39.6889        -10.6927
            7733         56.7465         59.7080         42.4292        -11.3761
            7734         59.5345         64.0598         41.2302        -11.2837
            7735         61.2347         67.4158         39.0464        -10.2065
            7736         57.1791         41.9027         61.0665         10.6981
            7737         56.5842         44.3060         58.5812         11.5829
            7738         56.8258         47.8860         58.4081        -10.3525
            7739         68.0490         78.0639         44.3372        -3.26816
            7740         70.4959         80.9496         42.7499        -4.07740
            7741         61.5886         69.5167         45.4190        -4.28454
            7742         70.8385         43.8838         81.6872        -1.19140
            7743         58.9222         63.6501         43.2232        -10.0566
            7744         59.7250         42.1284         65.0177         10.0676
            7745         63.2116         69.9059         42.1235        -9.64636
            7746         57.9080         61.4779         45.2841        -10.1180
            7747         96.2591         110.132         42.0693    -157.258E-03
            7748         57.7382         61.6900         48.5133        -7.46738
            7749         88.7911         35.3186         101.016     60.5896E-03
            7750         57.0471         48.3125         59.0989        -9.70926
            7751         96.3531         109.160         36.1223         1.44382
            7752         56.4415         51.9473         53.1021         11.9135
            7753         75.8612         41.3024         87.1368        -4.28842
            7754         77.0146         38.2308         88.4817        -2.79167
            7755         61.7960         44.2646         68.9652         7.20887
            7756         70.6134         81.5044         41.1367         1.13585
            7757         79.4630         91.4484         40.2139         1.99130
            7758         65.8709         74.2647         43.3650        -7.38666
            7759         60.3208         66.4003         44.3811        -8.30331
            7760         60.6351         44.4363         66.8032         8.32364
            7761         59.1801         46.7542         64.6701         7.25052
            7762         57.2825         58.2806         46.4299        -12.0400
            7763         54.6578         53.7065         45.6402        -12.5331
            7764         81.8899         93.9757         39.3563         2.83631
            7765         72.3556         83.4769         40.4239         1.56057
            7766         80.6765         92.5746         39.7299         3.56611
            7767         71.6787         82.6712         40.6293         1.95378
            7768         61.0556         67.4776         38.2026        -9.88167
            7769         56.5138         40.3957         60.8803         10.2451
            7770         57.4543         38.8472         62.5453         10.1601
            7771         55.8691         60.4701         38.0541        -10.2915
            7772         63.8308         71.1267         39.6553        -9.36972
            7773         58.4351         42.3684         63.0308         10.2829
            7774         59.5264         39.6592         65.5268         9.58332
            7775         58.5935         64.0004         39.8692        -9.98731
            7776         69.7218         44.4572         80.1537        -2.79756
            7777         61.0167         68.0960         45.1210        -6.39339
            7778         65.4129         74.1803         45.2116        -5.34945
            7779         56.1702         53.4736         55.3591         7.98508
            7780         56.0182         53.7818         57.7698         2.24909
            7781         55.7127         50.4101         52.2680         12.4581
            7782         58.1632         63.5062         48.7893         4.75918
            7783         63.0298         70.7994         47.5083         4.71615
            7784         96.0592         110.086         43.2898    -118.679E-03
            7785         64.8525         73.7102         42.8930        -5.61239
            7786         71.7783         82.3529         41.9385        -4.65638
            7787         58.0317         61.8447         43.9614        -10.4737
            7788         59.7269         65.2506         41.8382        -9.81825
            7789         59.8683         41.4253         65.3945         10.0118
            7790         58.0287         42.9152         61.8182         10.9097
            7791         59.6334         44.6137         64.2637         10.0495
            7792         59.3334         46.4160         63.2565         10.0123
            7793         62.1237         68.1232         42.8959        -10.0122
            7794         64.0654         71.2606         41.1812        -9.39882
            7795         58.7158         63.2239         44.7791        -9.59566
            7796         96.5289         109.415         36.4169         1.21910
            7797         58.6461         63.7450         47.2816        -7.17285
            7798         57.1295         60.0177         49.6534        -7.66541
            7799         89.6487         34.6418         101.799    -295.444E-03
            7800         87.8862         36.0888         100.184     254.151E-03
            7801         76.5477         41.1112         88.0442        -3.52311
            7802         76.7491         38.7926         88.3511        -1.52860
            7803         65.4631         73.8893         44.2650        -6.76023
            7804         60.6651         67.0848         44.4398        -7.87890
            7805         59.6547         45.8042         65.2786         7.94556
            7806         56.4852         57.4052         50.6957         8.85754
            7807         56.3482         56.7470         50.2714         9.66844
            7808         58.0059         55.6299         56.8455        -8.18331
            7809         90.3839         102.784         36.6974         3.15307
            7810         79.8307         91.5888         37.7570         2.37782
            7811         56.1960         50.3420         53.7707         12.1011
            7812         60.1772         66.7822         45.9602        -6.28287
            7813         57.8254         62.2458         48.8504        -6.41894
            7814         59.1149         64.1121         45.1579        -8.94688
            7815         77.5140         89.1461         40.9159         3.40431
            7816         69.7208         80.2638         41.3445         3.04422
            7817         64.1389         71.4384         40.4177        -9.38321
            7818         59.2212         43.5374         63.8843         10.1947
            7819         59.3709         40.3281         64.9404         10.0037
            7820         59.7445         65.6500         40.4495        -9.64087
            7821         60.8853         68.2048         45.6997        -5.27875
            7822         65.9930         75.1838         45.2505        -4.35761
            7823         56.2504         53.0507         56.5429         7.12445
            7824         56.1139         53.9853         54.1590         8.65924
            7825         59.2745         65.6204         47.3917         4.87564
            7826         63.9922         72.4227         46.9565         3.90530
            7827         58.9506         63.9491         45.9874        -8.40035
            7828         88.3669         35.3664         100.570     392.093E-03
            7829         89.9433         34.5216         102.081    -717.862E-03
            7830         88.5445         100.956         37.3599         2.82237
            7831         78.1070         89.8485         38.6621         1.51977
            7832         78.2005         40.2565         89.7489        -4.19677
            7833         78.4442         37.9309         90.0883        -2.30754
            7834         67.0253         76.1603         43.6258        -6.09225
            7835         64.4302         72.2889         44.6948        -7.27720
            7836         61.8869         69.1331         43.8007        -7.30704
            7837         58.7277         46.5890         63.3979         8.42129
            7838         56.1269         55.4383         51.3689         9.76158
            7839         56.8318         58.7598         49.6441         8.74987
            7840         57.9309         56.6381         55.1412        -8.76847
            7841         58.1040         54.5083         58.0680        -8.12852
            7842         90.5088         102.786         36.4301         3.84165
            7843         79.7778         91.4159         37.4624         3.10116
            7844         73.4188         84.6572         40.0028         1.80660
            7845         83.6660         95.7331         38.6850         3.74520
            7846         56.4134         52.2571         59.4403         2.86881
            7847         64.2290         72.4659         46.0942        -5.46628
            7848         62.6884         43.5768         70.2522         7.23171
            7849         58.3231         42.0511         62.5762         10.7842
            7850         58.4929         62.9683         42.4688        -10.4403
            7851         62.8956         69.4911         40.9969        -9.91668
            7852         58.6192         45.2432         62.1627         10.6067
            7853         58.8207         63.8966         41.0792        -10.2375
            7854         58.4935         41.4106         63.0690         10.6565
            7855         58.9180         44.3617         63.0345         10.4297
            7856         63.3334         70.2357         40.4719        -9.70662
            7857         63.7558         71.0446         44.4025        -8.17403
            7858         63.2709         70.5063         45.6225        -7.46838
            7859         60.0753         66.9651         46.5188        -5.02855
            7860         59.9157         65.8019         45.1183        -8.02509
            7861         58.5632         64.4791         48.3959         4.10092
            7862         63.1960         71.3071         47.8733         3.20844
            7863         57.1447         60.5493         50.1738        -6.32117
            7864         65.0970         72.8504         40.3778        -8.97416
            7865         60.9189         42.5858         67.1250         9.13544
            7866         61.5257         40.2572         68.4429         8.86300
            7867         59.9019         66.2092         39.7349        -9.24725
            7868         65.9690         74.7561         44.3558        -6.10616
            7869         61.1881         68.0996         44.4529        -7.24781
            7870         74.5539         85.7810         39.3601         3.00161
            7871         85.5598         97.6238         37.9834         4.29794
            7872         67.8550         77.1900         42.9892        -6.22548
            7873         62.4607         69.9348         43.2459        -7.40836
            7874         58.1623         55.2704         58.1413        -7.32862
            7875         86.1936         98.5898         38.1726         2.28538
            7876         59.4481         45.1024         64.5688         8.99862
            7877         56.4216         51.8382         57.2364         7.89980
            7878         71.4821         82.0616         40.4056         4.42433
            7879         78.5830         89.9936         40.4466         5.17866
            7880         76.3825         87.8513         38.8061         2.56158
            7881         60.7301         44.8697         67.1674         7.68493
            7882         58.3355         54.3960         59.3721        -7.03965
            7883         56.3819         52.4472         57.7550         6.36806
            7884         56.8973         50.2338         59.1251         7.91974
            7885         58.8262         64.5826         47.6898        -5.63388
            7886         59.9233         67.0333         47.0010         3.59994
            7887         64.9380         73.9307         46.4889         2.99624
            7888         77.8250         89.6040         39.0708     861.428E-03
            7889         63.7560         71.5142         45.9172        -6.47785
            7890         59.8417         66.8766         47.0542        -3.70899
            7891         62.7151         69.8661         46.8490        -6.58902
            7892         60.4195         67.9962         46.6883        -2.69948
            7893         76.7781         88.4597         39.3180     798.107E-03
            7894         59.0611         65.6107         47.9578        -3.16442
            7895         62.2953         68.9099         46.5471        -7.59497
            7896         56.0600         52.7236         54.3155         9.60010
            7897         57.1798         49.1646         59.7803         8.51991
            7898         61.3292         69.3755         45.8918        -2.94477
            7899         62.0204         70.5415         45.5267        -1.75706
            7900         61.6269         67.4860         46.2412        -8.67742
            7901         57.2119         49.7877         60.3414         7.24715
            7902         56.1589         51.1119         55.5334         9.93081
            7903         56.3988         49.7469         56.8306         10.0581
            7904         57.7378         49.2052         62.1920         5.91134
            7905         61.4553         67.0190         45.3309        -9.45788
            7906         56.9081         48.5060         58.6473         9.84777
            7907         57.4821         49.7573         61.7952         5.30770
            7908         62.4111         68.7240         44.6930        -9.05847
            7909         55.5742         51.6358         52.4121         11.2776
            7910         61.4679         66.9914         44.4895        -9.85819
            7911         57.4544         48.1788         60.3668         9.01965
            7912         56.4892         48.1051         57.3563         10.7442
            7913         56.8554         51.0767         60.1676         5.05735
            7914         55.5062         50.3174         53.1210         11.5494
            7915         57.9324         49.1088         63.0011         4.80486
            7916         62.2441         68.3674         44.1266        -9.48490
            7917         55.4561         52.5934         50.8158         11.5419
            7918         55.7320         48.8981         54.7230         11.4931
            7919         57.4020         47.1254         60.0354         9.98554
            7920         54.9977         52.3185         49.0859         12.1955
            7921         57.9292         47.8685         61.7452         8.31820
            7922         57.9841         45.9992         61.4320         9.96938
            7923         57.1911         50.3885         61.3316         4.49678
            7924         56.1172         49.3824         55.8466         10.7938
            7925         55.8174         53.4543         51.8599         10.6599
            7926         55.2016         49.3355         52.7314         12.0299
            7927         56.6089         51.7395         59.7506         4.03808
            7928         57.3903         45.7822         60.0322         10.6799
            7929         55.2453         48.1919         53.6018         12.1051
            7930         55.2415         46.6786         54.4405         12.2497
            7931         57.8773         44.8110         61.2079         10.6166
            7932         56.3896         46.5098         57.4539         11.3702
            7933         55.8288         46.0718         56.2025         11.9006
            7934         58.6019         45.0009         62.7558         9.91431
            7935         56.7564         45.4415         58.6152         11.3163
            7936         56.4139         44.0024         58.2939         11.7361
            7937         68.5696         42.3387         78.4251        -5.13628
            7938         85.9537         99.0867         44.6035     14.1882E-03
            7939         75.7150         87.0103         41.9100         4.16808
            7940         85.8851         44.9942         99.0320     321.538E-03
            7941         69.1115         79.1464         42.2523         4.86853
            7942         67.7737         43.6427         77.3041        -5.36764
            7943         81.5140         93.0845         36.5217         3.89784
            7944         92.6975         104.809         35.4646         4.73343
            7945         70.0859         46.7761         80.4341        -2.36540
            7946         69.7771         80.2180         45.1798         2.37515
            7947         78.1828         90.2117         46.0969         1.62798
            7948         85.5788         51.6099         98.7842     147.532E-03
            7949         70.3153         46.2124         80.8176        -1.99584
            7950         85.5787         98.8074         50.6432    -19.8339E-03
            7951         57.1326         53.1584         54.5055        -11.0286
            7952         58.1073         56.9204         56.5780        -7.20882
            7953         60.1613         65.4881         50.8616         4.98747
            7954         57.9547         59.6259         46.8890        -11.5573
            7955         55.1068         53.5080         47.8856        -12.1503
            7956         87.7445         37.0809         100.139        -1.77567
            7957         62.1366         69.1735         48.0753         5.48561
            7958         57.6350         62.0242         49.3879         5.74079
            7959         58.2064         48.5443         63.2859         5.72996
            7960         67.6905         77.1746         41.5652        -5.94960
            7961         85.5950         41.5674         98.4390    -301.944E-03
            7962         95.5197         108.955         39.6549    -544.843E-03
            7963         67.5365         41.6542         76.8457         6.37168
            7964         67.4099         43.7704         76.6071         6.12975
            7965         74.4320         85.2945         40.9177        -5.18857
            7966         59.1234         40.9673         65.0187         9.19165
            7967         58.4629         64.3936         38.7992        -9.38827
            7968         64.0785         71.7055         38.9346        -8.94995
            7969         59.2846         39.0600         65.5141         9.23512
            7970         71.5442         81.7132         40.3984        -6.07128
            7971         64.4130         42.5915         72.6285         7.15205
            7972         64.4579         40.6852         72.8332         7.25930
            7973         65.1074         73.7909         40.8239        -6.82449
            7974         86.6695         43.7961         99.8257    -319.825E-03
            7975         99.0280         111.508         33.9961        -1.58887
            7976         87.2890         99.9702         38.8992    -559.809E-03
            7977         75.2979         40.8450         86.8104         1.93102
            7978         78.6941         90.6410         39.7674     158.637E-03
            7979         75.1766         42.9499         86.7727         1.18448
            7980         57.3461         57.2662         49.4132         11.5064
            7981         55.3042         48.4297         53.6502        -12.0145
            7982         56.7003         53.8817         51.9154        -11.7440
            7983         54.7663         52.5814         47.8116         12.4176
            7984         85.7140         36.7318         97.6285         4.18016
            7985         69.3062         78.7294         40.1647        -7.16402
            7986         63.1081         40.8339         70.6593         8.32227
            7987         63.0527         43.1885         70.3110         8.23374
            7988         63.2370         70.9804         40.8194        -7.99700
            7989         60.5180         65.2798         46.8861        -9.36986
            7990         71.5371         40.8235         82.6020     54.4939E-03
            7991         31.9361         20.8999         34.9194        -5.58454
            7992         31.7915         34.9394         19.7249         5.47860
            7993         34.2048         37.9121         19.6685         5.52155
            7994         29.8359         18.4901         32.7442        -5.21381
            7995         79.9459         92.0637         40.2234     521.785E-03
            7996         70.8173         81.6581         41.3822         2.14156
            7997         89.1596         35.4998         101.390        -1.69732
            7998         65.3666         46.8976         74.6564     585.549E-03
            7999         90.4949         33.9070         102.546    -559.820E-03
            8000         90.3481         34.2525         102.413         1.73211
            8001         85.4403         41.0453         98.2162     272.344E-03
            8002         79.9016         41.6723         92.1199    -389.565E-03
            8003         79.1593         40.5519         91.1950         1.05427
            8004         81.4789         39.2009         93.4652         3.17627
            8005         81.6382         37.1514         93.5379         1.85237
            8006         65.2087         41.0406         73.7302         7.24874
            8007         72.7937         83.2510         40.6798        -5.77281
            8008         65.9961         74.9232         41.1433        -6.62857
            8009         86.4625         42.7109         99.5046    -319.221E-03
            8010         65.5547         43.1799         74.0740         6.93941
            8011         61.8285         50.4992         68.6907        -2.76988
            8012         61.9778         68.5870         47.5094         6.79332
            8013         56.5401         58.3276         45.4198        -11.2686
            8014         88.4464         34.3536         100.436         1.36246
            8015         80.8686         39.6626         92.8908        -2.72010
            8016         87.2430         40.4490         100.122    -447.159E-03
            8017         64.3094         73.1072         47.2061        -2.13969
            8018         67.8874         78.0601         45.0090    -985.875E-03
            8019         45.0440         32.3495         46.0774        -10.8000
            8020         44.9977         45.8075         32.5609         10.9207
            8021         45.3266         34.8705         45.2030        -11.1279
            8022         35.5502         40.0945         18.9292         4.35468
            8023         30.6686         18.1524         34.4651        -4.03476
            8024         31.3571         18.2452         35.0752        -4.47440
            8025         30.6309         34.4720         17.2243         3.95873
            8026         81.5315         94.0104         42.8382     718.183E-03
            8027         74.9460         45.1216         86.3124         2.92519
            8028         35.4494         29.6626         32.8655         9.51355
            8029         83.6357         96.2534         42.2359        -1.97426
            8030         80.9823         44.5726         93.4669    -686.316E-03
            8031         35.3613         34.8762         26.7333        -9.16080
            8032         34.3080         32.1668         27.7651        -9.39058
            8033         81.2113         43.8663         93.6793        -1.23359
            8034         75.6713         87.2122         43.0963        -2.67185
            8035         34.4899         28.4322         31.8298         9.53972
            8036         90.2923         103.657         42.1336     198.025E-03
            8037         75.1335         43.1054         86.5163         3.22604
            8038         87.4503         34.7619         99.4366         1.64698
            8039         57.7680         56.1795         54.4864        -9.54395
            8040         86.4074         98.7776         37.3079    -916.444E-03
            8041         55.1929         49.1364         52.8461        -12.0530
            8042         57.3052         56.5509         50.7369         11.2674
            8043         57.1190         55.8449         50.9838        -11.4275
            8044         56.0931         54.2674         56.2686        -5.44325
            8045         61.4672         68.1359         49.1345         4.80730
            8046         86.1111         98.5303         38.2573        -2.06301
            8047         77.1324         88.8033         38.9846        -1.36017
            8048         57.8067         62.9938         49.4799         3.74435
            8049         56.1289         54.9663         52.9234         8.89325
            8050         58.1034         58.1122         54.0424        -8.54246
            8051         60.6777         65.5288         44.6577        -10.3251
            8052         56.9533         59.4345         49.9650         7.83927
            8053         64.9588         46.4865         73.7989        -3.78719
            8054         58.1537         48.2610         62.7542         6.90926
            8055         61.5561         43.5706         67.8391         9.02587
            8056         66.1415         74.3355         40.4831        -8.55147
            8057         61.4858         68.3351         40.7279        -8.85441
            8058         61.9226         40.8448         68.8392         8.92555
            8059         59.7848         65.4159         44.7265        -8.57041
            8060         58.5195         47.3422         63.2163         7.74058
            8061         60.0286         65.1803         51.0649        -5.02551
            8062         60.4452         46.3547         67.6988         4.46786
            8063         75.5053         86.9698         41.7157        -2.89334
            8064         68.1647         78.6034         42.1775        -1.19428
            8065         61.7484         68.2187         47.8609        -6.66875
            8066         58.5859         56.3325         60.6037     186.574E-03
            8067         58.0220         49.1136         63.5907         3.35654
            8068         70.5919         44.0241         81.3181        -2.03443
            8069         55.8985         56.5234         54.9539         2.30928
            8070         88.9262         35.5890         101.132        -2.05909
            8071         89.4004         35.0324         101.608     428.014E-03
            8072         86.2410         42.4652         99.2333    -556.549E-03
            8073         55.0907         57.1863         41.0791         11.9216
            8074         56.1887         44.5835         57.6276        -11.8008
            8075         55.9032         40.8132         58.6881        -11.6962
            8076         59.5723         64.1598         41.1026         11.2560
            8077         61.3864         47.8439         67.4694         7.19086
            8078         57.0480         60.4420         50.4955         5.87354
            8079         94.7207         109.188         49.0787     109.409E-03
            8080         59.0559         67.7647         34.7043        -3.78042
            8081         86.1509         51.6058         99.4547    -85.5638E-03
            8082         55.4382         35.5715         63.1809         4.60722
            8083         53.9916         35.6743         61.5758         3.98047
            8084         55.5122         63.3037         35.5809        -4.49602
            8085         58.4310         62.6213         44.4636        -10.0019
            8086         59.2536         47.6115         62.8736         9.73907
            8087         58.7245         43.1683         63.0768         10.4769
            8088         59.0492         62.9571         53.9876         1.57648
            8089         68.0351         42.2203         78.4372        -1.35012
            8090         86.0144         44.0857         99.1174    -323.530E-03
            8091         67.1366         76.4923         41.4012        -6.02926
            8092         66.5785         41.3536         75.6481         6.53878
            8093         85.3447         42.1466         98.2167     346.027E-03
            8094         67.0245         43.3478         76.1870         6.09195
            8095         74.0019         84.7686         40.8933        -5.31586
            8096         95.0459         108.556         40.3231     488.536E-03
            8097         81.1556         36.9081         92.9217         2.52653
            8098         80.1889         39.3756         91.8967         4.21523
            8099         56.1840         50.3401         55.8388        -10.2547
            8100         56.7103         50.2695         55.3516         11.6580
            8101         61.0910         68.4710         39.2936        -7.96479
            8102         60.4439         38.9976         67.5920         8.16297
            8103         61.6783         41.4372         68.9960         7.86830
            8104         86.8373         43.9613         100.025    -354.627E-03
            8105         95.0358         107.402         35.0364         3.27250
            8106         84.9927         96.9709         36.0133         2.28645
            8107         60.6954         66.1452         48.9563         7.07699
            8108         52.6111         36.7917         55.5794         11.1068
            8109         57.1615         62.0901         36.8447        -10.6836
            8110         53.0523         56.3873         36.8806        -10.8694
            8111         53.8789         39.3005         56.9726         10.8256
            8112         44.3181         37.4209         39.7240        -12.5470
            8113         79.7309         40.4420         91.8309    -889.599E-03
            8114         74.5987         41.3254         85.9540         2.65586
            8115         88.7882         101.584         38.8475    -622.846E-03
            8116         42.0849         37.5789         35.5646         11.9806
            8117         44.0305         40.5573         36.3845         12.1876
            8118         79.8254         91.9080         39.8963     174.666E-03
            8119         73.9936         43.3601         85.3435         1.99537
            8120         42.4633         37.1554         37.3024        -11.7916
            8121         78.3451         42.4858         90.4066    -426.492E-03
            8122         89.2609         34.9131         101.278         3.01254
            8123         95.0711         108.223         38.2380    -876.965E-03
            8124         69.1297         41.8441         78.9833         5.61570
            8125         75.1687         86.2702         40.9981        -4.61366
            8126         68.8440         78.7335         41.6994        -5.31767
            8127         84.8588         40.8848         97.5598    -287.666E-03
            8128         68.6939         44.0831         78.4462         5.15981
            8129         66.6838         76.3847         45.4118         2.49299
            8130         61.3482         69.4060         45.8741         2.93874
            8131         87.5208         36.1066         99.7937     456.114E-03
            8132         74.0751         83.9758         42.0150        -8.12728
            8133         84.7774         36.0079         96.7751         1.81587
            8134         83.4564         38.2225         95.4912         3.43340
            8135         60.0885         64.8485         49.8653        -7.12834
            8136         73.1225         48.0114         84.0970        -1.53980
            8137         73.3416         84.4241         47.0636         1.81467
            8138         84.4685         52.8152         97.4205     74.9399E-03
            8139         84.3375         97.3596         50.5778    -129.116E-03
            8140         45.5142         28.8927         51.8712         3.86568
            8141         46.5946         53.1991         28.7235        -3.82715
            8142         81.2915         93.8348         47.4840         1.19223
            8143         73.5907         48.6582         84.5783        -1.81787
            8144         92.4925         106.720         49.7586     36.5142E-03
            8145         84.3602         51.4597         97.3564     256.130E-03
            8146         49.8889         57.1082         28.1978        -3.77575
            8147         46.5816         28.7259         53.1845         3.82334
            8148         58.4418         56.4173         60.1163         1.84050
            8149         72.0870         79.1239         42.0676        -12.8428
            8150         55.9442         54.1330         51.9287        -10.2279
            8151         77.4745         39.6414         85.9224         12.3057
            8152         65.7108         75.0984         46.1496        -2.16891
            8153         65.1992         73.0896         39.7874        -8.82897
            8154         59.0514         64.9518         39.4868        -9.55431
            8155         60.2260         41.6167         66.4640         9.01429
            8156         94.3112         106.989         36.2465        -2.01125
            8157         90.8257         33.5670         102.829     407.170E-03
            8158         90.2961         34.2263         102.299        -2.46128
            8159         68.7313         79.0568         44.2647        -2.16602
            8160         48.4094         45.8113         39.0727         13.0139
            8161         49.1157         41.9334         45.1716        -13.0085
            8162         47.9609         39.3180         44.6861        -13.0954
            8163         51.4381         51.3013         38.8972         12.8652
            8164         55.9510         56.9002         45.5184        -11.7041
            8165         87.0878         41.6953         100.093    -459.142E-03
            8166         85.9633         37.0498         98.2692     579.981E-03
            8167         66.0809         45.5759         75.2426         4.37091
            8168         91.0069         33.6024         103.009         1.08907
            8169         91.2850         33.4730         103.237        -1.85049
            8170         96.5219         108.743         34.2519        -3.78107
            8171         85.4805         97.2603         35.1624        -3.20788
            8172         89.0079         34.5454         101.095     613.081E-03
            8173         86.8831         41.4551         99.8440    -350.151E-03
            8174         96.8066         110.234         39.0720    -350.669E-03
            8175         50.8797         58.1026         32.1266        -3.97285
            8176         49.7444         32.2831         56.7709         3.74662
            8177         85.3703         52.2298         98.5174    -12.0774E-03
            8178         50.8560         32.1370         58.0690         3.98735
            8179         54.4796         62.4893         31.5035        -3.61829
            8180         93.7450         108.127         49.6516     95.0053E-03
            8181         55.2225         45.7654         54.8736         12.3188
            8182         58.2694         60.5730         45.8851        -11.5497
            8183         55.3276         55.3890         45.5499        -12.1295
            8184         52.0848         34.4557         56.9797        -8.98556
            8185         56.6152         62.6829         34.6962         9.07680
            8186         51.6621         35.6269         56.4056        -8.71136
            8187         84.9905         46.5193         98.0950     78.5581E-03
            8188         76.5307         88.0970         38.9707         1.85804
            8189         83.7618         41.7918         96.4296     512.323E-03
            8190         57.3191         47.2129         58.6456         11.3424
            8191         55.7000         51.9806         52.7164        -10.9806
            8192         102.972         114.474         32.4679         7.33401
            8193         94.3731         105.311         31.2208         6.55985
            8194         87.4163         99.4687         37.2961         4.70414
            8195         79.7413         91.2297         37.2021         3.90551
            8196         61.1542         66.7076         47.1949        -8.38302
            8197         84.9075         36.4340         97.0107         1.32527
            8198         83.2701         38.8916         95.4739         2.53125
            8199         54.9896         51.7404         49.7778        -12.1721
            8200         56.7252         55.9288         48.7998        -12.0777
            8201         60.6720         46.0446         64.6129         10.9731
            8202         85.9715         99.2581         51.0329    -1.49032E-03
            8203         9.98378         11.0160         7.70470         1.13069
            8204         54.0872         61.8554         34.5949         3.75954
            8205         55.8038         35.8984         63.7743        -3.98309
            8206         86.0526         52.3586         99.3160     65.6063E-03
            8207         54.2243         35.8402         61.8873        -3.81925
            8208         60.6450         69.5991         35.7462         3.82474
            8209         10.7380         12.1685         6.99535         1.06730
            8210         72.0561         73.9970         36.8773         19.0210
            8211         77.9319         81.8418         37.2984         18.5893
            8212         56.8563         43.0785         59.5099         11.5334
            8213         61.2226         66.6250         42.6366        -10.5214
            8214         56.9104         59.4983         44.1132        -11.2165
            8215         58.3793         46.3754         61.2998         10.6864
            8216         84.2678         38.1701         96.4348         2.90737
            8217         78.7039         40.4988         90.5636        -2.58817
            8218         83.4681         43.0041         96.1921     659.963E-03
            8219         47.6979         33.2342         50.0299         10.4927
            8220         80.6893         92.8337         41.7657         2.91888
            8221         53.2647         56.9336         35.0740        -10.9908
            8222         71.8961         44.2523         82.5320        -4.14245
            8223         92.6136         106.086         41.3613     254.887E-03
            8224         48.0364         49.5572         34.3546        -11.1634
            8225         72.0104         42.6787         82.6667        -4.40992
            8226         83.7375         96.4409         42.1984    -159.892E-03
            8227         48.8060         35.8902         50.7155         10.6779
            8228         71.6421         82.2795         42.1748         4.24602
            8229         79.2249         91.2775         40.3684     203.643E-03
            8230         70.2818         81.0759         41.4832         1.69868
            8231         60.4517         46.0204         67.3318         5.81928
            8232         86.6065         52.3117         99.9682    -90.9304E-03
            8233         58.3142         38.9222         66.6150         3.69015
            8234         59.4731         68.1561         38.6354        -3.28312
            8235         95.3389         109.877         49.0353     60.2580E-03
            8236         59.6611         38.8047         68.3384         3.43305
            8237         63.7533         73.2759         37.7929        -3.47084
            8238         55.7147         54.9716         48.5829        -11.4401
            8239         86.6228         45.9259         99.9136    -269.255E-03
            8240         63.5823         72.1549         40.1564        -6.35919
            8241         63.7020         40.3205         72.2993         6.32872
            8242         64.3604         42.2632         72.9588         6.23367
            8243         70.0014         79.9713         39.9901        -5.87761
            8244         64.7075         73.3781         46.1786        -4.42558
            8245         86.8901         42.6955         99.9739    -463.955E-03
            8246         89.5519         101.403         36.4127        -5.87133
            8247         79.7762         90.9875         36.8474        -5.17800
            8248         49.3603         35.5682         50.7553         11.5545
            8249         79.4951         91.4191         41.2721         3.25053
            8250         54.3133         57.6183         36.6240        -11.5321
            8251         70.7467         44.0459         81.0702        -4.60006
            8252         93.3504         106.767         40.5614     425.686E-03
            8253         71.6880         42.3073         82.2599        -4.57399
            8254         49.8022         51.0030         36.2502        -11.7437
            8255         84.2446         96.9475         41.5425    -3.35646E-03
            8256         50.6243         37.6896         52.3420         11.1860
            8257         70.5346         80.8980         41.8444         4.64825
            8258         59.6299         64.0163         51.3501         6.00138
            8259         67.3532         73.0421         45.3853        -12.3358
            8260         76.0963         87.3472         41.2019         4.55992
            8261         69.0924         43.8659         78.8913        -5.36490
            8262         85.2514         98.1197         42.1899     50.3804E-03
            8263         68.8629         41.9473         78.6434        -5.67501
            8264         69.2154         79.1829         41.7873         5.27557
            8265         89.6398         35.0036         101.832        -1.25736
            8266         65.4332         74.3055         40.8871         6.49540
            8267         66.5386         43.1869         75.7492        -5.64812
            8268         86.1724         99.3638         45.1209     19.8361E-03
            8269         67.0303         41.6456         76.4254        -5.79212
            8270         86.1688         45.5454         99.3823     289.845E-03
            8271         73.2456         84.0010         41.1200         4.89931
            8272         64.2485         54.3676         58.3132        -17.7195
            8273         31.1241         34.1593         18.5353         5.52099
            8274         27.2975         17.1217         29.8396        -4.91595
            8275         29.8666         19.8577         32.4238        -5.48466
            8276         29.6870         32.4179         18.6919         5.38399
            8277         105.990         118.331         33.4158         4.80266
            8278         96.9667         108.609         31.6876         3.83628
            8279         74.6078         40.7044         86.0384         1.73261
            8280         75.0242         42.7910         86.6131     813.086E-03
            8281         92.9535         31.7631         104.598        -2.08212
            8282         92.4863         33.0658         103.885        -5.86655
            8283         88.3691         35.1535         100.200         4.30536
            8284         75.9299         87.4498         39.1880        -1.74781
            8285         83.9770         96.2638         38.7894        -2.22167
            8286         67.5255         71.1589         45.3958         14.8956
            8287         70.8307         43.8964         81.6929     893.107E-03
            8288         61.1877         67.5051         49.2660        -5.34042
            8289         90.3953         102.520         36.2908         4.63325
            8290         80.7052         92.0924         36.6148         4.60520
            8291         67.1670         43.7161         76.7246        -4.75184
            8292         86.1891         47.3396         99.4828     240.511E-03
            8293         73.2403         84.1365         41.6143         4.27104
            8294         67.4932         77.2131         41.9898         4.91554
            8295         86.1475         99.4080         46.5541     6.51767E-03
            8296         67.7681         42.3028         77.5123        -4.96070
            8297         58.4538         59.9286         53.7172        -7.28166
            8298         67.6586         77.7810         42.3207         3.08252
            8299         74.5144         85.9549         41.7216         1.79099
            8300         57.4298         56.3734         51.8597        -10.8674
            8301         61.7078         39.5059         69.3336         7.72603
            8302         65.7938         74.2412         38.8749        -7.99858
            8303         62.2870         70.0084         39.8493        -7.75264
            8304         62.2048         41.9843         69.4840         8.08209
            8305         86.8076         43.8003         99.9793    -339.853E-03
            8306         63.1644         40.4336         70.9274         8.00043
            8307         63.2351         71.1941         40.3160        -7.63669
            8308         68.9611         78.3433         39.8606        -7.11590
            8309         63.2448         42.6752         70.7746         7.95844
            8310         60.6732         65.9086         48.3891        -7.85393
            8311         59.6587         63.4104         47.6525        -9.81808
            8312         85.9693         46.7414         99.2122     276.182E-03
            8313         73.7237         84.6762         41.5926         4.36212
            8314         67.8227         42.0873         77.4971        -5.30488
            8315         85.9760         99.1942         46.0958    -3.06477E-03
            8316         67.7624         43.8604         77.4170        -4.83595
            8317         66.9915         76.4615         41.5252         5.54491
            8318         58.9750         47.6891         64.9728         5.19095
            8319         57.7614         61.9692         48.8112         6.79345
            8320         58.3979         59.6750         52.9738        -8.25008
            8321         58.9048         47.4285         64.4322         6.44781
            8322         60.0087         38.6620         68.4609         4.69874
            8323         59.5431         68.0291         38.3770        -4.29665
            8324         64.4438         73.8053         37.8537        -4.71436
            8325         59.0770         39.3209         67.1490         5.01084
            8326         95.5423         109.966         47.3042     65.9525E-03
            8327         86.5840         50.6751         99.9751    -129.355E-03
            8328         77.7492         40.0344         89.5935     819.311E-03
            8329         77.7484         41.8307         89.7051    -376.992E-03
            8330         86.0392         36.4258         98.2450     907.720E-03
            8331         79.5872         42.3034         91.8050    -130.755E-03
            8332         89.8302         102.704         38.8197    -672.217E-03
            8333         73.2482         41.4974         84.3309         3.21808
            8334         80.7000         92.9086         40.2665     260.784E-03
            8335         73.1614         43.7461         84.2541         2.93839
            8336         86.3323         52.5444         99.6382    -77.6703E-03
            8337         59.7524         63.6901         45.4798        -10.6790
            8338         96.2854         109.863         40.1613    -354.170E-03
            8339         87.1584         35.3746         99.2585         1.18486
            8340         56.4807         58.4107         44.6843        -11.4253
            8341         60.9023         66.6101         48.8631        -6.81541
            8342         70.0185         79.8542         39.9666        -6.32635
            8343         64.3853         42.3658         72.7894         6.73509
            8344         63.3182         40.1630         71.4814         7.24452
            8345         64.0357         72.4422         40.4039        -7.00424
            8346         86.6422         44.6633         99.8590    -302.901E-03
            8347         85.0554         41.4764         97.8348     330.815E-03
            8348         55.4272         51.0093         52.2981        -11.5878
            8349         59.8177         46.7285         66.4055         5.41434
            8350         61.3701         67.6357         48.5600         6.27206
            8351         58.1910         59.8457         48.2033        -11.0437
            8352         59.7389         63.7603         44.5631        -10.9370
            8353         55.3755         52.9767         49.9599        -11.6995
            8354         56.0875         42.5124         58.2262         11.8821
            8355         56.2348         58.2767         43.5427        -11.6582
            8356         57.0355         45.4095         58.9114         11.4833
            8357         65.1701         74.2125         46.2088        -3.34952
            8358         89.7196         34.8628         101.863        -1.76594
            8359         86.9120         42.6654         99.9967    -372.502E-03
            8360         78.8645         90.8669         40.4977     939.741E-03
            8361         86.9583         42.7596         100.056    -410.653E-03
            8362         59.7370         47.0928         66.6638         3.91975
            8363         59.7443         64.1716         42.2207        -11.2275
            8364         86.1060         35.8567         98.2077         1.31478
            8365         62.1225         69.1318         48.0566        -5.56182
            8366         59.4839         63.0420         46.7242        -10.4321
            8367         57.7306         57.0797         52.6008        -10.1707
            8368         57.4796         57.7010         49.2276        -11.4255
            8369         60.7593         66.6040         49.6717         5.67642
            8370         59.9472         64.2941         49.2675        -8.17008
            8371         65.2931         73.3691         39.2434        -8.55131
            8372         59.9246         39.1294         66.5499         8.85088
            8373         60.7616         41.3516         67.5248         8.45918
            8374         59.7819         66.3408         39.1907        -8.88461
            8375         76.6704         88.3063         39.1439         1.25936
            8376         86.2340         98.5236         37.9597         3.07624
            8377         90.0640         34.2709         102.166     421.969E-03
            8378         62.4144         40.5625         69.6966         8.55754
            8379         66.6852         75.1617         39.9598        -8.25220
            8380         62.2078         69.5832         40.3391        -8.32009
            8381         62.2199         42.4337         69.2777         8.38668
            8382         54.3514         55.8969         40.8945         12.1535
            8383         54.6559         40.4599         56.5977        -12.0679
            8384         85.8733         39.7985         98.5248         1.19626
            8385         55.4743         44.2938         56.3530        -12.0537
            8386         58.4805         62.3495         41.0305         11.6509
            8387         82.4949         38.9326         94.5869         2.91504
            8388         83.2863         36.7244         95.2821         1.67577
            8389         56.4586         49.0842         57.1214        -10.3152
            8390         55.7043         53.2538         51.4048        -10.9856
            8391         84.4374         43.5689         97.3173     506.506E-03
            8392         78.8460         90.6740         41.8033         3.55278
            8393         70.5065         42.4110         80.7727        -4.96313
            8394         84.6203         97.4301         42.3021    -31.7073E-03
            8395         70.4189         44.0886         80.6285        -4.79105
            8396         93.7357         107.297         41.3383     353.526E-03
            8397         70.5933         80.9539         42.1013         4.67686
            8398         50.2117         35.1031         52.7575         10.9177
            8399         50.1040         53.4009         34.3289        -10.2220
            8400         54.8845         59.2940         35.4750        -10.6694
            8401         50.4769         36.3326         53.4024         10.2679
            8402         60.5126         65.3900         47.7616        -8.71563
            8403         58.7178         60.9115         51.1867        -8.85709
            8404         86.9408         35.9915         99.1449     810.690E-03
            8405         55.3862         52.0839         51.0918        -11.6273
            8406         55.7965         49.3932         54.7226        -11.2830
            8407         59.0853         47.8335         65.6926         3.15285
            8408         58.0722         58.7169         51.4458        -9.97943
            8409         59.1122         62.0722         49.4107        -9.43236
            8410         60.2692         64.8388         43.7870        -10.8027
            8411         58.6628         61.1279         47.3664        -10.9016
            8412         68.4693         78.4132         42.3268         4.71986
            8413         85.7399         98.9028         45.5760    -17.9404E-03
            8414         68.8856         42.8217         78.9101        -4.61140
            8415         68.5630         44.0935         78.3834        -4.79204
            8416         75.3139         86.5915         42.1472         3.97072
            8417         85.6679         46.1187         98.8451     320.823E-03
            8418         63.5622         71.6685         47.1051        -4.50359
            8419         55.3021         53.4559         48.8956        -11.8851
            8420         58.9120         61.5846         48.4685        -10.2254
            8421         57.7755         58.0002         50.7242        -10.6934
            8422         74.9957         51.5831         86.0209     622.001E-03
            8423         76.2407         52.2340         87.4803     547.040E-03
            8424         3.58622         3.57738         3.53717     241.995E-03
            8425         69.1432         69.3634         39.4818         19.5728
            8426         22.2637         25.0293         11.1592        -2.82763
            8427         61.8819         41.6048         70.8298         3.07686
            8428         61.4017         62.8539         46.6369         13.8548
            8429         33.1028         37.4666         16.6766         3.59403
            8430         9.81111         7.47058         10.8724        -1.07423
            8431         19.9994         22.4228         11.0032        -2.75970
            8432         29.5881         15.9671         33.4532        -3.44185
            8433         28.8415         31.8451         16.7423        -4.85041
            8434         20.0980         11.1334         22.5180         2.80581
            8435         57.7719         66.2073         37.4241         3.23373
            8436         86.4715         99.8399         51.0671    -10.7103E-03
            8437         64.8951         74.5028         42.4979        -2.63608
            8438         58.0586         38.7623         66.3644        -3.48739
            8439         67.6434         77.8770         40.3441        -2.88867
            8440         86.4989         52.3097         99.8421     88.2288E-03
            8441         65.0074         42.8383         74.6241         2.50712
            8442         95.4634         110.036         49.3319    -3.31866E-03
            8443         73.1427         84.3259         43.6303         2.20356
            8444         38.5014         22.6309         43.6614        -4.16259
            8445         78.0551         50.1186         89.9107    -999.305E-03
            8446         81.8430         51.2725         94.3808    -520.325E-03
            8447         81.8025         52.2687         94.2676     405.585E-03
            8448         66.8093         72.0813         45.8599         12.5203
            8449         44.8306         29.2168         50.2825         5.68405
            8450         52.1226         34.4513         58.9692         5.29378
            8451         60.5207         40.3025         68.9629         4.54461
            8452         64.6249         42.9635         73.8895         3.89036
            8453         69.1565         45.6649         79.3165         3.06626
            8454         71.2462         78.3567         42.6641         12.3700
            8455         59.8478         59.4943         49.2369         13.5057
            8456         94.4012         105.807         31.3603         4.12756
            8457         77.1983         84.7986         39.0985         13.6086
            8458         64.9949         42.8821         74.2006         4.53172
            8459         12.3690         13.5741         9.31748         1.67264
            8460         59.9016         60.9352         48.4992         12.6257
            8461         78.2904         86.9998         39.1503         12.0241
            8462         74.7872         83.3511         40.9866         11.2856
            8463         66.7709         74.0503         45.9414         9.42081
            8464         58.5984         39.1227         65.9719         6.63071
            8465         21.4802         17.3520         21.7289         4.66203
            8466         39.8171         28.0424         42.2293         8.16341
            8467         47.5519         31.6657         52.9410         6.63651
            8468         50.7259         33.8261         56.7593         6.51248
            8469         22.4173         23.6949         16.0240        -4.61907
            8470         69.2691         45.0549         79.3903         3.75783
            8471         70.6412         45.8244         81.0682         3.32431
            8472         48.8488         55.3117         28.1463        -5.52027
            8473         56.9316         64.9518         33.3250        -5.04737
            8474         12.3720         9.73056         13.3456         1.83808
            8475         66.0598         75.7865         38.8222        -4.29509
            8476         70.5950         81.1884         41.2826        -3.62934
            8477         75.6891         87.2186         43.6916        -2.80020
            8478         12.3761         13.3089         9.82439        -1.85059
            8479         91.9310         105.992         47.9346    -21.5203E-03
            8480         94.3183         108.641         47.7098     137.709E-03
            8481         95.5975         110.055         47.6229     29.0181E-03
            8482         95.4836         109.925         47.5848    -69.6284E-03
            8483         94.6333         108.983         47.6047    -140.327E-03
            8484         82.0711         94.7067         46.2356         1.57090
            8485         64.4274         73.6391         37.7415         5.25982
            8486         58.3914         66.5962         34.2642         5.23878
            8487         48.3611         54.6472         27.9292         5.73563
            8488         91.7537         33.4116         103.024         6.60132
            8489         92.7473         31.7548         104.345         2.53598
            8490         24.0981         15.5527         26.1902         4.48094
            8491         23.8668         25.9605         15.3716        -4.41374
            8492         64.6307         71.0670         47.6831         8.97449
            8493         32.7221         21.5811         35.1182        -6.57245
            8494         78.1388         47.1742         90.1286        -1.71644
            8495         80.2703         35.1473         90.6399         7.70621
            8496         82.7454         34.3568         93.3988         7.11726
            8497         86.1337         48.8993         99.4536    -146.016E-03
            8498         14.3506         15.8435         10.0046         2.10867
            8499         95.5716         109.911         46.3786    -93.7661E-03
            8500         70.9473         81.4835         41.0002        -4.23430
            8501         65.4258         72.8782         47.0137         7.85907
            8502         16.3084         12.3253         17.4843        -2.81961
            8503         61.0564         60.0528         48.0583        -15.2532
            8504         66.1583         69.3449         46.7345        -14.4326
            8505         68.3705         72.3368         44.6105        -15.0421
            8506         13.5528         10.3774         14.6309        -2.14123
            8507         95.6404         32.0274         107.251         4.22284
            8508         96.3412         31.8374         108.042         3.40065
            8509         95.8212         31.3846         107.577    -202.585E-03
            8510         96.4073         31.4666         108.189        -1.11679
            8511         96.5634         31.3919         108.351     342.433E-03
            8512         64.8001         68.1459         42.9410        -14.5774
            8513         66.6506         70.7980         41.3436        -14.6933
            8514         96.2877         32.0203         107.928        -4.22459
            8515         89.6042         31.9713         100.603         5.83563
            8516         82.6093         50.0903         95.3414    -564.883E-03
            8517         84.7346         50.9544         97.8144     59.3270E-03
            8518         41.4182         25.4821         46.5461        -5.34427
            8519         42.6037         46.2422         26.5663        -8.15371
            8520         65.5109         72.1045         42.5779         10.7981
            8521         64.3231         62.7497         50.7652         16.4147
            8522         63.9657         60.0520         52.8880         16.9731
            8523         52.6078         33.6455         59.4393         5.84233
            8524         52.6901         59.5564         33.6697        -5.79877
            8525         105.510         117.719         32.4020        -3.61262
            8526         92.8934         104.274         31.6553        -4.27984
            8527         75.2753         83.3513         36.7937        -11.9992
            8528         61.5374         39.7265         70.3304         4.33110
            8529         51.7141         58.2604         30.4234        -6.50570
            8530         55.2291         62.5246         32.4931        -6.23807
            8531         90.5865         31.7522         101.681        -5.39370
            8532         89.6257         31.7722         100.499        -6.22795
            8533         89.8095         34.2462         100.297        -9.45710
            8534         88.7822         34.5753         98.9354        -10.3173
            8535         48.4462         32.7796         53.4126         7.53796
            8536         52.6425         35.6279         58.3580         7.64637
            8537         55.1374         37.2105         61.4083         7.51815
            8538         55.8331         37.8901         61.9214         8.03356
            8539         64.2934         42.4862         70.3188         11.1266
            8540         21.8318         19.6417         20.3196         5.06808
            8541         42.4544         31.0993         43.8803         9.56338
            8542         55.5370         62.5043         32.9638         7.10252
            8543         46.4597         51.6774         27.6297         7.12696
            8544         95.7270         109.967         45.2858     102.252E-03
            8545         63.6451         72.4297         37.2802        -6.19203
            8546         22.2596         22.1769         18.1270        -5.06902
            8547         94.6883         108.899         45.9925    -173.447E-03
            8548         94.1965         108.370         46.1319    -163.358E-03
            8549         85.9739         99.0887         44.7334         1.21526
            8550         80.3852         92.7024         44.8841         2.18500
            8551         79.2449         91.3619         44.4620         2.45103
            8552         76.6261         88.2184         43.0144         3.34102
            8553         72.4635         83.2976         41.6783         3.96199
            8554         75.7733         87.2217         42.8558        -3.43062
            8555         77.3351         89.0826         43.4766        -3.04413
            8556         89.1408         102.707         45.5338    -496.850E-03
            8557         92.7345         106.788         46.5461     55.6194E-03
            8558         93.8508         108.018         46.4561     142.464E-03
            8559         91.1617         32.4602         102.866         2.19195
            8560         90.3249         32.2456         101.703         4.27456
            8561         69.3649         44.6064         79.4317         4.30208
            8562         85.2270         49.1596         98.4117    -26.1783E-03
            8563         35.6880         26.8660         35.2959        -9.20711
            8564         86.4881         49.6415         99.8668    -158.565E-03
            8565         13.7415         12.3298         13.7195        -2.43165
            8566         75.0758         47.4732         86.4643        -1.94281
            8567         72.8855         46.7619         83.8620        -2.18599
            8568         68.9148         44.1911         79.1357        -3.21577
            8569         77.1470         36.9133         87.7321         6.59899
            8570         77.5111         47.5725         89.3659         1.81864
            8571         77.9692         44.5578         89.9237        -2.18481
            8572         86.4165         49.2957         99.7823    -157.443E-03
            8573         82.2494         49.2921         94.9442     533.189E-03
            8574         80.2567         46.0841         92.6467         1.08543
            8575         86.4774         33.2899         97.5417         5.85664
            8576         88.6582         34.7494         99.5726         8.12721
            8577         14.6695         14.1667         13.5488         2.76108
            8578         64.0575         71.4110         48.1558         6.42143
            8579         95.5477         31.7660         107.257         2.79215
            8580         95.9541         31.6484         107.697         2.26342
            8581         62.2550         55.4179         58.6399        -14.3248
            8582         95.5182         31.5639         107.272        -1.43227
            8583         95.8669         31.6218         107.614        -2.05990
            8584         45.5112         32.0889         48.5281         9.01504
            8585         27.9268         19.5072         29.3270        -6.09333
            8586         74.5732         82.3505         40.7488        -12.5800
            8587         41.2906         26.3539         45.5081        -6.79987
            8588         82.0269         48.5680         94.6926    -794.477E-03
            8589         41.5735         26.6863         45.6845         7.03024
            8590         65.5752         42.8068         74.5647         5.76400
            8591         41.5619         45.6445         26.7076        -7.06474
            8592         90.2155         32.4887         101.736         3.58072
            8593         17.4155         16.8591         15.4591        -3.68381
            8594         56.2402         54.9120         55.8300         5.66813
            8595         30.2402         21.5901         31.2588        -6.97862
            8596         45.4238         29.0704         50.4062         6.89862
            8597         45.4583         50.4053         29.1280        -6.96482
            8598         84.9327         45.4700         97.9870    -133.902E-03
            8599         54.2982         60.2904         32.9665         8.44860
            8600         62.5870         61.9237         52.4545         13.8959
            8601         62.1096         57.7026         56.2358         14.2654
            8602         67.2913         76.4271         42.1383        -6.63059
            8603         79.0273         89.7059         39.9831         7.87903
            8604         99.5809         111.150         33.2140        -7.08700
            8605         100.362         112.203         32.9160        -5.56348
            8606         86.5440         47.5984         99.8947    -218.402E-03
            8607         86.5014         48.5493         99.8698    -186.272E-03
            8608         80.0126         92.2247         44.1305         2.51891
            8609         76.9448         88.5299         42.5531         3.62441
            8610         52.5564         58.6393         31.5269        -7.71094
            8611         57.1188         64.3701         33.9049        -7.11711
            8612         59.8711         67.5531         35.4974        -7.28045
            8613         60.9926         68.8684         36.1196        -7.30571
            8614         29.9456         32.0183         19.5376         6.20226
            8615         64.4814         72.9792         37.8864         7.33559
            8616         43.8674         29.7004         47.9729        -7.43073
            8617         74.0910         46.7619         85.2439        -2.73507
            8618         71.9315         45.3717         82.5934        -3.70926
            8619         82.7728         48.9501         95.5644    -429.409E-03
            8620         83.6439         47.9738         96.5766     556.927E-03
            8621         84.4437         47.1106         97.4846     463.086E-03
            8622         75.3841         46.1053         86.8538         2.44270
            8623         57.8809         37.1912         65.3423         6.52064
            8624         83.6079         96.5313         47.1539    -329.566E-03
            8625         84.4896         97.5008         45.8221    -187.030E-03
            8626         75.4527         86.9704         45.7901        -2.23026
            8627         43.9591         48.3293         28.4157         7.36060
            8628         74.8909         86.2988         45.7093         2.34378
            8629         79.3647         91.6033         46.4856         1.28088
            8630         69.9855         80.3123         43.0196         4.17232
            8631         31.2959         33.6943         19.9262         6.28410
            8632         88.7825         32.4363         99.8918        -5.53670
            8633         86.5480         32.8348         97.3035        -6.81669
            8634         77.2512         36.3215         87.3388        -8.01450
            8635         73.3077         37.5337         82.3940        -9.46934
            8636         74.6773         37.6587         84.7501        -7.47247
            8637         66.9191         73.8973         45.7955        -10.0713
            8638         62.2696         67.3891         50.1597        -8.17390
            8639         88.0505         34.9719         98.5845        -9.28502
            8640         85.7442         35.8665         95.7311        -10.5634
            8641         76.4479         40.3949         85.4485        -10.9964
            8642         94.1768         31.8623         105.948        -1.27467
            8643         68.5619         78.1912         41.5651        -6.03419
            8644         72.6234         42.4137         80.0717        -12.3813
            8645         73.8909         41.8850         82.8496        -10.1915
            8646         78.8806         36.4806         89.8137         5.80975
            8647         94.2858         32.0139         106.014         2.57457
            8648         78.9200         45.7866         91.0789         1.50340
            8649         24.5963         23.5155         20.8397        -5.99329
            8650         26.3901         25.8517         21.2411        -6.48224
            8651         30.3012         30.6008         22.5045        -7.39264
            8652         37.0343         37.9392         26.0702        -8.97367
            8653         30.1442         22.2764         31.1230        -6.76016
            8654         29.7217         31.0496         20.8260         6.63875
            8655         67.6626         42.6797         77.4989        -4.40494
            8656         65.1885         41.1705         74.3312        -5.46680
            8657         24.1392         22.4017         21.3177         5.88713
            8658         25.7830         23.0334         23.4444         6.44437
            8659         29.6510         24.8530         28.0036         7.60005
            8660         35.8911         28.3272         35.0365         9.14095
            8661         94.7516         108.811         44.5132    -213.343E-03
            8662         84.8252         97.6845         43.2935         1.61578
            8663         47.0503         51.5551         28.9583         8.36993
            8664         45.1111         49.0912         28.0742         8.46756
            8665         48.7625         53.4283         30.1154        -8.66559
            8666         86.9315         33.6144         98.3508         4.48231
            8667         101.121         113.007         32.7228         5.22612
            8668         56.2128         58.4767         53.2109        -2.61764
            8669         93.8767         107.918         45.1261     169.571E-03
            8670         92.2631         106.126         44.9736     12.8145E-03
            8671         75.7732         87.1256         42.1968        -3.93979
            8672         90.0066         103.578         44.4040    -353.633E-03
            8673         82.8285         95.6377         48.0855     436.989E-03
            8674         40.5859         29.4345         41.1162        -10.0086
            8675         79.4781         44.6461         91.6978        -1.72826
            8676         75.1754         46.4130         86.5687         2.64318
            8677         44.0538         32.2241         45.6490         9.82357
            8678         91.0214         102.242         32.1861        -5.36244
            8679         91.5088         102.999         32.1032        -3.69561
            8680         93.6222         105.138         31.4264        -3.03359
            8681         85.9987         48.6620         99.2953    -215.109E-03
            8682         52.7644         35.8634         58.2966        -7.96086
            8683         85.4046         47.3726         98.5915     104.287E-03
            8684         66.4466         75.9745         41.6988        -4.90829
            8685         52.2478         57.8988         34.0063         7.95941
            8686         86.5631         44.5592         99.7629    -355.833E-03
            8687         66.3327         41.7999         75.7911         5.05186
            8688         65.2767         41.0959         74.3466         5.77643
            8689         62.3941         70.4418         36.9021         7.49816
            8690         70.0831         43.3413         80.3922         4.26487
            8691         70.1151         80.4889         43.2102        -4.01983
            8692         68.9650         79.0119         42.4303        -4.67151
            8693         29.7736         22.3781         29.8916        -7.32788
            8694         40.7936         30.5091         40.3870        -10.5573
            8695         60.6966         56.0148         59.3288        -10.7982
            8696         100.856         112.813         32.6985         4.64070
            8697         83.3650         49.2942         96.2502    -300.698E-03
            8698         70.2506         80.5870         42.6892         4.42350
            8699         82.3987         95.1397         47.6385    -537.822E-03
            8700         58.8734         37.8012         66.8083        -5.75132
            8701         46.7595         31.2873         51.8075        -6.93913
            8702         76.2191         47.8394         87.7986        -2.03175
            8703         82.4970         48.3568         95.2443     732.195E-03
            8704         73.8727         46.1347         85.0462         2.54834
            8705         16.8838         17.7368         13.1022         3.22435
            8706         46.8620         52.1826         29.9830         6.79793
            8707         73.8424         85.0457         45.8127        -2.40159
            8708         64.9246         42.3517         72.4912         8.88232
            8709         66.3064         75.6249         41.3129        -5.62539
            8710         35.2405         37.9635         22.2522         7.07758
            8711         45.2473         33.0921         46.9614         10.0152
            8712         61.9648         44.5872         67.4604        -10.1419
            8713         62.8000         53.0448         61.4950        -14.2647
            8714         69.7090         79.8241         40.0974         5.17632
            8715         66.1112         41.3607         75.3165         5.84687
            8716         82.3780         94.9152         43.6209         2.21742
            8717         61.0424         68.5174         36.5047         8.16823
            8718         18.1575         13.5705         19.2091        -3.52212
            8719         38.2965         26.2735         41.2284        -7.29725
            8720         95.8298         109.882         43.6415    -162.341E-03
            8721         89.8302         34.3406         101.671         3.85917
            8722         60.9569         67.4297         46.3717        -6.96344
            8723         85.8544         96.1684         33.4949        -8.59978
            8724         29.9532         30.7452         21.5889         7.06165
            8725         27.8987         28.4022         20.7149         6.60539
            8726         75.5137         45.7405         86.9924         2.67834
            8727         76.9793         45.6566         88.7694         2.17419
            8728         78.1330         45.0968         90.1550         1.71452
            8729         78.6482         44.6661         90.7647         1.45422
            8730         38.1013         41.3276         24.8115         7.15363
            8731         71.4112         81.7567         40.5256        -5.36435
            8732         78.7573         47.2775         90.8611         1.58086
            8733         78.6892         90.8029         47.0341        -1.34894
            8734         53.3151         58.8331         32.7248        -8.86099
            8735         54.9237         61.0267         33.3463        -8.47337
            8736         57.1687         64.1187         34.2005        -7.75176
            8737         58.1740         65.2111         34.8477        -7.95455
            8738         61.0722         68.6645         36.4015        -7.94628
            8739         56.8974         51.1991         60.1475        -5.09048
            8740         56.4898         51.9094         59.8327        -2.73459
            8741         66.9220         46.3745         74.8955        -7.99713
            8742         67.6369         41.3572         77.0854        -6.06103
            8743         47.2285         33.8359         49.8888         9.74345
            8744         48.7939         35.0262         51.5778         10.0052
            8745         54.8320         38.0347         59.8630         9.18706
            8746         83.1718         49.1573         96.0229    -558.715E-03
            8747         45.2649         47.2989         30.6144        -10.3685
            8748         61.6378         39.4294         70.0994        -5.61527
            8749         24.7542         24.8082         19.2806         5.88495
            8750         64.2050         73.3783         40.8905         4.70254
            8751         59.8078         68.0649         38.3476         5.28272
            8752         61.1246         56.0259         58.9051         11.9404
            8753         64.0925         49.7587         66.5590         13.0857
            8754         78.2935         90.1088         42.6760         3.39226
            8755         76.2024         87.5622         41.8172         4.18720
            8756         85.7982         47.8869         99.0518    -258.894E-03
            8757         84.4114         47.9628         97.4657     85.2065E-03
            8758         84.5028         45.4879         97.5026    -57.3605E-03
            8759         84.2754         44.6424         97.2051    -96.4380E-03
            8760         87.7059         35.4035         99.4265         4.94428
            8761         98.3941         110.256         33.4179        -5.55925
            8762         42.0886         30.1905         44.1475        -9.01512
            8763         65.4172         41.0605         74.4253        -6.06236
            8764         64.0893         40.4629         72.6796        -6.54976
            8765         42.6986         29.3474         44.9741        -9.29331
            8766         84.8001         36.3764         95.0044        -9.96486
            8767         85.5043         33.4692         96.4022        -6.42685
            8768         26.5378         21.7217         25.4905        -6.74174
            8769         41.8381         44.3503         28.4565         8.86495
            8770         65.0429         73.4623         38.3416         7.75555
            8771         62.3237         69.6006         37.8199         8.98049
            8772         81.1434         46.9545         93.6809    -847.323E-03
            8773         28.9293         23.6435         27.9963        -7.21165
            8774         76.3516         44.7987         88.0029         2.61726
            8775         77.1653         89.0071         44.7653        -2.05877
            8776         50.5231         32.8012         55.9989         7.69449
            8777         55.6565         36.9261         60.9806         9.43830
            8778         56.8820         37.7978         62.3674         9.56638
            8779         23.1167         19.8555         22.1848        -5.43040
            8780         26.9823         24.9272         23.4359        -6.87090
            8781         30.1269         29.1872         24.0218        -7.74214
            8782         27.1397         26.9701         21.0613         6.67391
            8783         85.2018         98.3120         45.9310    -82.7365E-03
            8784         86.4954         99.8480         47.8681     12.2489E-03
            8785         86.6260         100.011         48.4381    -3.46704E-03
            8786         86.6253         99.9871         47.5715    -7.81742E-03
            8787         70.2741         44.8298         80.5410        -4.18420
            8788         64.9891         42.8313         74.1638        -4.66664
            8789         60.7141         40.3315         68.9309        -5.42189
            8790         59.5061         39.5870         67.3889        -5.78229
            8791         50.6478         56.1015         32.9164        -7.76721
            8792         56.0022         61.6983         36.9139        -9.02676
            8793         66.9955         74.9500         45.8515        -8.26847
            8794         68.7182         76.9543         44.6699        -8.98831
            8795         55.9788         57.7005         54.0266    -960.459E-03
            8796         94.6657         31.9961         106.354        -3.13943
            8797         62.8914         71.0359         39.9061        -7.10642
            8798         79.0407         36.6905         90.1919         5.02780
            8799         78.6662         37.4008         90.1410         3.43990
            8800         59.2746         56.8111         59.7379        -6.08641
            8801         99.3328         111.006         33.2430         6.57650
            8802         94.9081         31.6075         106.666     864.427E-03
            8803         89.4593         101.028         33.0076        -3.71617
            8804         88.0969         99.8000         33.8165         3.28467
            8805         60.0976         61.9338         54.3050         7.96232
            8806         59.8808         65.0798         52.6705        -1.14517
            8807         93.0696         32.4762         104.851         2.49197
            8808         58.8038         65.0296         48.5384         3.13591
            8809         19.2109         17.0887         18.2542         4.31109
            8810         21.3107         18.9044         19.9058         5.06072
            8811         86.2710         49.0981         99.6131     184.410E-03
            8812         49.2259         53.7021         30.7113         9.04351
            8813         57.3660         63.8060         37.3316        -8.32628
            8814         24.8304         24.3367         20.2481         5.97372
            8815         29.4868         26.2926         26.2459         7.73299
            8816         81.6369         45.2879         94.2164        -1.11433
            8817         79.0383         43.3378         91.1532        -1.85867
            8818         94.7312         108.604         43.0043     273.773E-03
            8819         95.6915         109.490         41.8766     294.805E-03
            8820         78.4967         90.3162         42.3842        -3.47768
            8821         85.3496         98.2634         43.1128        -1.47851
            8822         31.1613         24.9339         29.7994        -8.25309
            8823         86.6349         42.0630         99.6293    -581.367E-03
            8824         89.3131         102.694         43.1894     476.117E-03
            8825         83.5518         96.2074         42.9013         1.99476
            8826         38.0657         32.7537         33.4619        -10.8396
            8827         85.8622         34.3810         97.4664         3.72203
            8828         88.2015         33.2836         99.7333         3.84991
            8829         68.4778         40.7892         77.9179         6.64474
            8830         96.0278         109.929         42.3950     199.051E-03
            8831         65.7081         42.9747         74.4070         6.63205
            8832         63.7415         72.3005         44.3888        -4.98639
            8833         87.4037         33.1068         98.6054        -5.31770
            8834         86.2445         33.7631         97.5738        -4.89568
            8835         86.7286         35.5849         97.4176        -8.79346
            8836         85.5194         36.1866         96.4081        -8.12922
            8837         86.9237         34.0409         98.5797        -3.40194
            8838         56.4776         58.9041         52.6276         4.09589
            8839         61.3218         61.6473         53.5309         11.4666
            8840         58.5542         63.8093         48.8885        -5.36711
            8841         74.1807         85.1649         41.5092         4.53953
            8842         78.5317         90.3543         42.3484         3.47854
            8843         60.7500         38.9451         69.1111        -5.44773
            8844         63.3769         41.8276         71.6515         6.58693
            8845         62.8777         41.7608         70.7752         7.21436
            8846         82.5972         95.3621         46.6889     536.821E-03
            8847         82.9081         95.7271         47.2624     455.802E-03
            8848         77.7466         45.5588         89.6704         2.11556
            8849         56.2551         52.7664         58.6912         3.29721
            8850         47.0650         32.0026         51.5918        -7.75262
            8851         82.0802         94.7613         46.3429    -658.554E-03
            8852         68.8333         78.7352         41.9347         5.22827
            8853         76.1711         46.9360         87.7666        -2.27187
            8854         62.7594         44.1720         70.3432        -6.99072
            8855         91.7513         103.129         35.4367        -7.77952
            8856         61.3128         45.5154         68.8473        -5.20485
            8857         83.4740         94.4190         34.9738         6.63293
            8858         83.7910         48.4758         96.7524    -215.609E-03
            8859         47.5717         52.4157         30.9273         7.75065
            8860         82.1823         46.9348         94.8770     900.868E-03
            8861         64.7833         48.0951         71.7997        -7.78363
            8862         86.0605         96.7858         33.7391        -7.43983
            8863         84.2837         97.2944         46.6593     219.417E-03
            8864         70.7488         44.4939         81.0757         4.46425
            8865         71.8446         44.9050         82.4650         3.99172
            8866         82.5915         92.9144         34.8919        -8.42209
            8867         86.4739         44.7253         99.6744     347.044E-03
            8868         22.5983         20.3739         20.5539        -5.53435
            8869         92.3821         32.5220         104.242    -429.238E-03
            8870         61.7155         53.2111         62.4627        -11.5398
            8871         66.1811         42.2264         75.4063         5.62434
            8872         68.2373         41.2231         78.0372         5.29532
            8873         70.3992         40.8926         81.1983         1.92216
            8874         57.1431         50.4399         61.7113        -2.91984
            8875         104.819         116.990         31.6729     936.263E-03
            8876         90.4228         34.1758         102.472        -1.81951
            8877         60.8795         40.4388         68.8473        -6.19570
            8878         56.2334         56.7890         54.2414         5.01233
            8879         81.0186         93.2905         42.8391         2.71940
            8880         68.0696         77.8289         41.9075         5.21242
            8881         30.9251         25.9963         28.4166        -8.40199
            8882         92.9981         104.512         35.0737         7.33263
            8883         63.8109         72.6579         44.4106        -3.96423
            8884         50.8600         33.5337         55.7075         8.69828
            8885         51.0716         55.8917         33.7426        -8.78994
            8886         84.8862         97.9505         45.8296     123.376E-03
            8887         85.2346         98.2526         44.1524    -49.2520E-03
            8888         65.8159         74.9624         41.0767         5.89571
            8889         59.7107         66.2649         47.5768        -4.59899
            8890         52.6393         35.4566         56.9006         9.89189
            8891         69.6681         44.1918         79.7001        -4.85489
            8892         75.7598         87.3374         45.4069         2.28505
            8893         53.1056         57.5147         35.7558        -9.83647
            8894         73.1594         45.2231         84.1830        -3.02291
            8895         71.2664         44.1610         81.8755        -3.68824
            8896         45.6204         46.7910         31.9555        -11.0438
            8897         46.8794         48.3897         32.5389        -11.1337
            8898         59.9822         68.0369         38.3642         5.97812
            8899         88.9252         100.591         33.3820        -3.29892
            8900         90.9300         104.501         43.4296    -160.646E-03
            8901         86.7156         44.9242         99.9585    -299.476E-03
            8902         75.7018         45.1554         87.2357         2.63604
            8903         77.2500         44.5805         89.1160         1.94229
            8904         77.6535         44.1873         89.6013         1.67318
            8905         78.5659         43.2623         90.6683     958.912E-03
            8906         29.4887         26.6522         25.8602        -7.74007
            8907         33.5407         32.3101         26.4832        -8.85720
            8908         59.3318         55.4029         61.6071        -4.78054
            8909         58.4561         57.8426         59.0114    -889.570E-03
            8910         58.4961         60.3000         56.5075     47.5885E-03
            8911         84.6397         35.2575         96.3953         3.02132
            8912         55.8211         55.4483         56.0828         1.40165
            8913         71.5516         44.3904         82.0823        -4.29272
            8914         75.3795         45.9478         86.8245        -2.69375
            8915         84.1638         96.9782         43.0219    -156.877E-03
            8916         82.2464         94.9203         45.0447    -643.140E-03
            8917         69.0851         78.0077         44.5791        -7.69779
            8918         88.4462         99.5565         33.0536        -6.03867
            8919         56.4278         38.1852         61.2447         10.2261
            8920         56.6174         60.3813         51.8530     783.251E-03
            8921         86.7725         36.0348         98.6080         4.49952
            8922         98.0261         110.145         33.6015        -4.04539
            8923         46.8878         34.5218         48.5236         10.4450
            8924         58.7347         41.5809         63.9709         9.80626
            8925         59.8387         42.1243         65.5489         9.50005
            8926         62.7716         70.5443         37.4486        -8.22926
            8927         33.9786         26.7307         32.6371         9.07825
            8928         43.7020         45.6619         30.4352         9.80280
            8929         44.0789         32.4612         45.4346        -9.99627
            8930         81.4620         45.9065         94.0446    -713.039E-03
            8931         57.1640         62.6742         38.1175        -9.58661
            8932         83.7124         35.3847         95.3502        -3.55821
            8933         90.9951         33.6973         102.929         2.49490
            8934         60.5074         56.4003         59.0290         10.4079
            8935         60.1554         57.6639         57.8930         9.66583
            8936         101.391         113.506         32.4522         2.99761
            8937         58.7055         56.2421         60.7978        -1.43529
            8938         57.8098         63.3897         49.7494     879.181E-03
            8939         89.5327         34.9190         101.639        -2.27193
            8940         75.7846         43.9205         87.3108         2.93515
            8941         51.5393         34.5607         55.8090        -9.59182
            8942         46.9689         31.1247         50.9942        -8.64287
            8943         43.5089         27.7026         48.2404        -6.70415
            8944         76.4572         88.1570         43.8398        -2.37428
            8945         64.3109         72.1633         38.6646         8.63273
            8946         30.0162         28.2381         24.9639         7.85955
            8947         38.9427         33.2363         35.1701         10.7062
            8948         48.1732         37.4706         47.9022         11.7887
            8949         84.7025         97.4318         41.8507         1.59808
            8950         93.5220         107.393         43.8828     177.663E-03
            8951         96.2451         110.183         42.5307     111.045E-03
            8952         65.9194         42.4683         75.2159        -5.12113
            8953         61.1565         67.7235         50.8678        -1.91949
            8954         76.8102         88.2439         41.5883        -4.20893
            8955         28.7202         24.2597         27.0656        -7.31144
            8956         58.0938         40.9623         63.2556        -9.77754
            8957         55.3482         39.8750         59.1826        -10.4997
            8958         27.3407         26.4043         22.0874         6.96841
            8959         38.7708         38.5148         28.9008        -9.96059
            8960         40.0450         34.7125         34.8772        -11.4441
            8961         78.9641         42.2763         91.0365        -1.74139
            8962         85.3560         43.9449         98.3724     335.515E-03
            8963         49.4495         34.1419         53.8054        -8.59413
            8964         36.9174         35.3003         29.1180        -9.94648
            8965         87.0109         40.6307         99.8841    -723.180E-03
            8966         84.2765         46.9775         97.2949    -75.3051E-03
            8967         46.9474         49.4054         31.3864         10.4676
            8968         43.7133         43.9800         31.6184         11.0674
            8969         83.3301         44.3589         96.1261     52.6575E-03
            8970         60.2748         67.0269         36.8364         9.17528
            8971         81.1123         43.5676         93.5828     410.833E-03
            8972         84.6552         44.7926         97.6403     147.408E-03
            8973         56.0172         53.6230         57.9170         2.14467
            8974         82.9921         37.4245         93.8672        -7.93675
            8975         74.6930         39.0645         85.9503         2.77782
            8976         80.1653         92.4423         42.4839         1.05210
            8977         77.1802         44.6991         88.9901         2.40287
            8978         32.5592         29.5369         27.5559        -8.98627
            8979         28.4845         25.3147         25.1653        -7.62218
            8980         85.1398         36.7227         96.8147        -5.24209
            8981         51.3509         36.4837         54.8983        -9.91494
            8982         56.1369         53.0007         58.6872        -1.68843
            8983         25.8328         26.2976         19.5120         6.00463
            8984         53.2260         36.3287         57.1079         10.4334
            8985         71.2498         43.5988         81.8080        -4.07666
            8986         89.9625         101.405         36.0836        -7.46819
            8987         46.0256         32.3567         47.8647        -10.4740
            8988         84.0807         37.1831         95.6529        -5.60306
            8989         95.2637         106.793         34.3504        -7.27715
            8990         75.1980         39.1048         86.6006         2.03175
            8991         55.8878         54.2667         57.3510    -747.894E-03
            8992         82.7050         95.4546         45.3683     536.116E-03
            8993         96.1923         110.198         43.0457    -77.1986E-03
            8994         68.8258         78.4604         39.5525        -6.32102
            8995         68.2510         77.5607         39.4539        -6.97593
            8996         72.2418         82.4398         39.7813        -6.31304
            8997         94.7217         106.407         34.5606        -6.65376
            8998         69.5192         42.6226         79.6066        -4.90117
            8999         36.4322         26.2324         38.0266        -7.97202
            9000         36.1016         38.1117         24.6052         7.81319
            9001         77.9197         47.2569         89.8649        -1.76154
            9002         91.6717         33.2427         103.547         2.50350
            9003         91.7438         33.1527         103.653         1.85485
            9004         72.0171         44.6546         82.6729         4.05570
            9005         72.7520         44.9664         83.5959         3.72419
            9006         28.6102         26.2981         24.3659        -7.61650
            9007         80.9165         46.9764         93.4044         1.17174
            9008         80.5541         92.9914         46.0507        -1.03373
            9009         64.6395         43.3371         73.7715        -4.28065
            9010         90.7718         102.621         32.9409        -1.13093
            9011         92.0647         32.8527         103.960        -1.20517
            9012         66.6652         75.8001         41.3431        -6.40710
            9013         53.0269         56.6500         34.9316         10.9741
            9014         70.2290         80.0164         40.1019        -6.58616
            9015         45.1425         47.9341         30.7835        -9.45371
            9016         63.9114         43.3712         71.9820         6.93165
            9017         75.7340         40.7861         84.6610         10.9185
            9018         45.1509         30.5910         48.1432         9.26961
            9019         88.4530         35.6177         100.566         2.81156
            9020         94.3169         108.038         42.1332    -318.110E-03
            9021         84.9945         45.2057         98.0406    -423.541E-03
            9022         60.8743         67.8860         39.5691        -8.51750
            9023         61.7705         69.1328         39.8940        -8.22008
            9024         67.5291         77.0090         41.5095         5.86975
            9025         80.4896         47.4611         92.9114        -1.02835
            9026         77.9791         89.9729         45.3885        -1.75426
            9027         78.0397         90.0446         45.9876        -1.65669
            9028         32.1489         28.5302         28.3826        -8.63652
            9029         33.4414         30.9160         27.9660        -9.03750
            9030         83.6677         37.0195         94.2562        -8.84935
            9031         39.5520         42.3636         26.3944         7.98290
            9032         39.7917         27.9944         42.2327        -8.13153
            9033         59.8646         54.2903         62.8592        -5.70669
            9034         83.7354         46.4025         96.6631    -160.155E-03
            9035         80.7027         48.4230         93.1445    -926.238E-03
            9036         78.8357         90.9822         46.3277        -1.41927
            9037         63.2162         42.2356         70.9512         7.63849
            9038         75.7442         45.5032         87.2782        -2.61981
            9039         72.9221         44.5073         83.8187        -3.72823
            9040         72.7025         83.3842         41.0802         4.85043
            9041         70.6942         80.7280         40.1722         6.05199
            9042         49.1537         33.7153         52.2206        -10.2146
            9043         81.5918         94.1393         44.1239    -792.863E-03
            9044         83.2513         95.9405         42.7689    -308.917E-03
            9045         48.8130         34.1033         52.6268        -9.03403
            9046         96.4535         110.308         41.8348     64.2690E-03
            9047         68.4031         77.5815         39.8135         7.38851
            9048         58.3350         58.2168         58.4237     751.224E-03
            9049         50.5481         54.7861         33.8264        -9.35563
            9050         50.2927         33.5172         54.6157         9.19485
            9051         57.8856         49.2499         63.6782        -1.46340
            9052         86.3087         47.9910         99.6374     217.106E-03
            9053         84.3513         95.1944         34.5293        -7.02100
            9054         83.6387         94.3035         34.6999        -7.53910
            9055         58.4854         60.5654         55.8995         2.09757
            9056         71.9761         44.7009         82.7521        -3.34504
            9057         32.3310         30.6391         26.2760         8.58636
            9058         59.8241         56.6694         59.3785         8.29943
            9059         83.5996         96.4850         45.6903     347.034E-03
            9060         83.0606         95.8838         46.1602     452.367E-03
            9061         82.1800         94.6090         42.5316         2.42331
            9062         81.8763         92.9085         35.7471         6.19401
            9063         56.1804         52.8049         58.9170         1.60955
            9064         60.1958         46.6835         67.7189         2.56212
            9065         38.2115         34.8663         31.6073        -10.7620
            9066         59.8750         66.9374         47.4324        -3.13941
            9067         61.1361         52.1049         65.6686        -6.63299
            9068         35.6011         28.7042         33.3815         9.78730
            9069         37.0127         29.2508         35.1941         10.0856
            9070         84.0656         42.5933         96.8317     529.880E-03
            9071         48.0987         36.0300         49.2283         11.0393
            9072         49.3794         37.6935         49.9841         11.5930
            9073         82.4225         38.3498         94.2478        -4.26186
            9074         59.8682         55.6408         60.6983         7.77436
            9075         76.4983         43.8900         88.2457         1.95399
            9076         76.7937         43.4855         88.6113         1.59391
            9077         75.8532         44.7631         87.4330         2.53066
            9078         74.3993         44.6488         85.6570         3.11421
            9079         73.4749         44.5975         84.5089         3.50044
            9080         78.2252         42.5500         90.2717     502.753E-03
            9081         56.7681         61.6477         38.5820        -10.1998
            9082         59.5092         42.7839         64.6897         9.89608
            9083         80.8324         42.9231         93.2051        -1.28340
            9084         33.1650         29.4687         28.6344         9.22677
            9085         56.1850         38.7895         60.3887         10.7670
            9086         58.3684         39.4157         63.7391         10.0486
            9087         60.7836         39.3831         67.8051         8.49438
            9088         61.7908         39.7386         69.2139         8.14145
            9089         36.3263         33.2765         30.4145        -9.98867
            9090         39.9300         37.6287         31.9677        -10.9462
            9091         55.8213         55.0530         56.5561     244.760E-03
            9092         80.4898         37.4849         92.3219         1.89937
            9093         91.9556         32.8376         103.858    -726.196E-03
            9094         87.5432         99.4954         34.7462         2.18082
            9095         69.3666         78.8240         44.5388        -6.46844
            9096         70.8587         80.4398         43.6810        -7.21238
            9097         76.6656         87.3663         41.0655        -6.97864
            9098         84.6039         96.0133         38.0413        -6.94245
            9099         86.3079         97.8653         37.4629        -6.69042
            9100         58.0099         63.8526         49.4434    -380.316E-03
            9101         57.3497         62.3387         50.4007        -1.23266
            9102         60.5337         43.1888         66.2634         9.48779
            9103         61.2093         42.1160         67.8097         8.76610
            9104         41.7920         36.6880         35.9456        -11.9338
            9105         43.5529         35.8178         39.9341        -12.2414
            9106         39.0295         37.7074         30.1613        -10.4730
            9107         47.7931         35.2407         48.2020        -11.7970
            9108         47.5762         37.9916         45.2011        -12.8356
            9109         86.6876         100.035         46.9442     1.80613E-03
            9110         62.7526         40.0807         70.5359         7.81534
            9111         77.8630         44.6485         89.7996         2.20568
            9112         84.5881         97.2576         41.2752         1.50428
            9113         82.4909         45.5781         95.2200    -400.558E-03
            9114         54.3597         40.7111         56.7227        -11.3926
            9115         60.1034         65.9695         38.3044         10.3302
            9116         71.5990         81.7275         40.4749        -6.23804
            9117         84.5457         97.2276         41.5010        -1.57983
            9118         90.4074         103.660         41.1283    -40.5958E-03
            9119         59.1944         54.7047         62.6716        -2.00602
            9120         63.4763         49.2094         70.2773        -6.50859
            9121         58.5338         57.3268         59.5748         1.40414
            9122         46.4255         34.0041         48.1962        -10.2477
            9123         50.0828         35.9932         53.0140        -10.1725
            9124         49.4356         34.9596         52.8758        -9.56323
            9125         59.3955         42.2459         64.7413        -9.77624
            9126         61.0691         40.6211         68.8621        -6.69898
            9127         46.8121         49.4399         32.2704         10.0189
            9128         86.7650         99.6875         41.1883    -146.177E-03
            9129         101.899         114.074         32.2985         1.99193
            9130         100.288         112.491         32.8912        -2.68691
            9131         69.5767         80.2997         41.5695    -978.211E-03
            9132         60.1827         65.8353         51.4099         3.12427
            9133         69.0783         44.8417         79.1894        -3.69946
            9134         74.5376         85.8281         42.1308         3.18267
            9135         80.6621         92.7798         41.0857         2.71861
            9136         56.2921         61.2512         35.9608        -10.4331
            9137         82.8665         43.7674         95.5733     50.8539E-03
            9138         83.1396         43.0163         95.8338    -166.270E-03
            9139         83.4812         42.1529         96.1487    -452.241E-03
            9140         84.7986         42.4285         97.6334    -510.350E-03
            9141         66.1455         43.5475         74.8459         6.74000
            9142         45.3206         44.5847         34.1035         11.8829
            9143         41.9418         41.2743         31.4510         11.0227
            9144         75.7175         87.2672         42.5064         2.59390
            9145         72.0988         43.5932         82.8310        -3.98998
            9146         57.3084         62.2848         50.4804     501.759E-03
            9147         87.4171         39.3286         100.160    -840.454E-03
            9148         34.5389         31.0607         29.7443        -9.43969
            9149         81.8033         36.0056         93.3226        -3.93342
            9150         55.8559         55.8189         55.6768        -2.00327
            9151         75.5131         41.3014         87.0260        -2.39423
            9152         73.9593         42.2285         85.1016        -3.56639
            9153         84.9183         42.8535         97.8026     417.644E-03
            9154         48.8257         51.0991         33.1390         11.0756
            9155         69.3128         43.8988         79.1824        -5.27005
            9156         52.8052         37.7314         55.1388        -11.6177
            9157         81.5246         43.0868         94.0017        -1.11128
            9158         84.9080         97.6403         41.1319    -124.671E-03
            9159         85.0591         97.8542         41.6163     84.2953E-03
            9160         58.7373         57.1832         59.7140         3.11005
            9161         58.9240         48.0110         65.6772        -1.49560
            9162         58.3844         48.6222         64.7084        -1.11245
            9163         82.4713         37.1262         94.4624        -1.53290
            9164         48.3052         34.4300         51.2967        -9.70851
            9165         50.1899         34.9341         52.8891        -10.7860
            9166         86.0638         42.3115         99.0227     583.776E-03
            9167         88.5237         100.027         36.6257        -7.14572
            9168         86.6100         46.0893         99.9076     263.161E-03
            9169         60.9032         67.6931         40.0058        -8.84125
            9170         48.0043         50.9793         32.9032         10.0048
            9171         65.7336         42.6536         75.1018         4.64239
            9172         58.1828         39.8834         63.1669         10.3891
            9173         72.5929         44.5720         83.4003         3.86306
            9174         75.5204         87.0402         41.9815         2.51416
            9175         57.0317         61.5458         50.9664         1.14287
            9176         88.3380         100.024         36.7722        -6.44695
            9177         63.9305         73.1997         44.4117        -1.57469
            9178         103.598         115.749         31.7936        -1.15880
            9179         90.0637         34.0031         102.115     72.5773E-03
            9180         94.3060         107.872         41.0560    -410.165E-03
            9181         93.6601         107.206         41.2739    -356.292E-03
            9182         63.1846         41.7404         71.4025        -6.63532
            9183         37.4629         33.5226         32.1820        -10.3739
            9184         40.6648         37.3782         33.6477        -11.2845
            9185         60.8557         52.2347         65.7637        -5.33025
            9186         83.6177         37.0744         95.7168         1.20206
            9187         48.5326         33.1232         51.6921         9.97336
            9188         49.7112         33.8063         53.1712         9.97793
            9189         79.1332         39.3789         89.9511        -7.35607
            9190         83.2354         96.0367         44.8031     412.964E-03
            9191         54.3221         58.2545         37.3808        -10.6080
            9192         48.8274         51.6478         33.7182        -10.3469
            9193         72.2429         42.8538         81.0557         9.76571
            9194         59.6132         55.6549         60.9555         6.66269
            9195         60.8148         53.0267         64.0758         7.71631
            9196         63.6382         71.5956         48.4494        -3.88625
            9197         82.1854         93.0926         35.5097        -6.65735
            9198         89.6201         101.578         33.8168        -1.29984
            9199         86.9249         99.8675         41.3575     863.752E-03
            9200         85.7732         40.8236         98.5447    -889.160E-03
            9201         89.1248         102.277         41.2647     318.492E-03
            9202         77.2067         88.6910         41.2540         4.15306
            9203         79.1281         36.6104         90.2501        -5.16195
            9204         76.8309         38.6142         88.3995         1.91041
            9205         65.0677         47.4321         74.0403        -2.15422
            9206         91.8296         105.386         42.5401     39.7036E-03
            9207         44.0509         40.9941         35.9076        -12.1465
            9208         45.7342         42.7610         37.1819        -12.5240
            9209         96.6771         110.345         40.5306    -145.979E-03
            9210         72.9254         83.8854         43.2313        -3.60002
            9211         40.7416         32.5282         39.2224        -10.6338
            9212         37.9354         37.6507         28.3440         9.75203
            9213         87.0513         41.5527         100.038    -406.776E-03
            9214         65.7354         43.1040         75.6161        -1.25759
            9215         67.1909         77.0840         45.1682        -2.17970
            9216         57.4632         61.9948         37.9140         11.1306
            9217         70.8443         81.2198         43.8539        -4.50567
            9218         82.7458         41.9004         95.3107    -461.624E-03
            9219         54.0232         37.5841         57.4525         11.0220
            9220         70.7484         80.6444         40.2810         6.52393
            9221         49.0461         35.4369         51.6398        -10.2149
            9222         74.8115         86.1799         42.5099        -2.95473
            9223         59.5216         53.6479         63.9970    -896.212E-03
            9224         51.2271         55.1339         34.6700        -9.89865
            9225         78.8538         44.6661         90.9676         1.90841
            9226         39.4797         32.3732         37.0997        -10.5716
            9227         72.7589         83.8768         42.8897         2.34309
            9228         71.2308         82.1593         43.5433         1.30883
            9229         90.3561         102.249         36.1455         5.73773
            9230         59.1928         53.7714         63.2985         1.76690
            9231         61.8671         69.8106         39.4087         7.12065
            9232         67.0030         75.7794         39.3601        -7.75359
            9233         67.7618         76.6981         39.7910        -7.69494
            9234         80.2608         45.6939         92.6291         1.44799
            9235         63.1269         44.3798         71.8916         3.53901
            9236         80.5962         91.7454         36.4153         5.57971
            9237         48.4577         34.9341         49.7112        -11.4481
            9238         49.1885         34.7835         51.2084        -11.0833
            9239         49.1668         36.4926         49.5464        -12.0954
            9240         48.9416         38.9310         46.9186        -12.9729
            9241         81.8036         45.6476         94.4176         1.06028
            9242         70.9934         42.4088         81.3814        -4.82710
            9243         35.1507         29.9426         31.4151         9.87847
            9244         37.8413         30.5815         35.2616         10.5152
            9245         39.2965         31.7639         36.5487         10.9603
            9246         41.0758         33.2056         38.1624         11.4811
            9247         70.7885         81.5883         40.9330         2.48340
            9248         59.7662         64.7803         40.0689         11.0404
            9249         63.3617         44.3215         72.3410        -2.78981
            9250         85.5375         98.5596         43.6973     1.76651E-03
            9251         80.3274         39.3143         92.0474        -4.20061
            9252         77.4273         40.3736         88.5232        -5.84793
            9253         58.9407         65.6425         48.2955    -974.351E-03
            9254         57.3562         62.0693         50.2886        -3.13910
            9255         81.9666         93.4229         39.0884        -6.17886
            9256         85.2552         96.9705         37.9217        -5.89903
            9257         80.9357         39.1591         92.7644         3.85086
            9258         60.2711         39.4669         66.8794         8.97478
            9259         59.0980         39.7847         64.7530         9.88219
            9260         61.8558         40.0235         69.1004         8.46622
            9261         74.1537         44.4914         85.3624        -3.18505
            9262         72.1817         44.1072         82.9242        -3.91090
            9263         71.0374         44.0004         81.4820        -4.32834
            9264         68.5372         43.8039         78.2250        -5.35349
            9265         87.1139         99.9582         40.2306    -157.469E-03
            9266         82.4574         42.1774         95.0015     801.149E-03
            9267         86.5333         44.5897         99.7323     298.467E-03
            9268         81.8972         94.1933         40.8033         2.10214
            9269         82.2705         94.8220         42.4814    -492.288E-03
            9270         83.2915         95.8844         41.4582    -139.307E-03
            9271         83.8394         96.4357         40.8587     47.8723E-03
            9272         63.1342         40.6486         70.7666        -8.21117
            9273         61.9548         40.3501         69.0747        -8.68184
            9274         49.1641         40.1213         46.2702        -13.2020
            9275         43.1008         38.6044         36.3492        -12.2386
            9276         72.5950         41.8556         83.4599        -3.90922
            9277         55.6500         59.7710         38.4907        -10.6995
            9278         83.2393         41.1051         95.7819    -836.860E-03
            9279         86.6861         99.9177         44.7807     26.4808E-03
            9280         43.5201         42.0125         33.6491         11.6958
            9281         34.3961         32.6630         27.6315         9.22402
            9282         60.0888         43.8666         65.2891         9.79342
            9283         57.6974         63.1383         49.8477         1.29772
            9284         57.9655         63.7592         49.4891     571.044E-03
            9285         63.3557         72.4889         44.7614    -380.113E-03
            9286         67.7587         78.0061         42.3124         2.35017
            9287         65.5799         75.3741         43.4633         1.46256
            9288         82.5715         93.7548         35.5677        -5.70565
            9289         81.6491         93.1225         36.3060         4.37996
            9290         102.058         114.269         32.2725         1.24573
            9291         97.8156         110.150         34.0095         2.85473
            9292         58.9083         55.2705         61.9323     962.408E-03
            9293         59.8833         47.1000         67.3929    -32.1495E-03
            9294         78.4029         41.9234         90.4509    -167.560E-03
            9295         81.3932         42.1934         93.8260    -170.236E-03
            9296         82.7290         44.9648         95.4720    -274.715E-03
            9297         83.2847         45.1155         96.1085    -158.037E-03
            9298         68.3057         41.8672         77.9436        -5.79893
            9299         77.9399         45.6790         89.9185        -1.83561
            9300         47.4779         35.2030         48.9218        -10.7044
            9301         47.2932         35.7194         48.0287        -11.0991
            9302         85.6170         42.8002         98.5753     344.985E-03
            9303         61.9820         42.9447         68.7038         8.71363
            9304         42.8314         35.0329         39.4223         12.0303
            9305         46.7106         47.9352         32.7451         11.2768
            9306         46.5489         44.8203         36.3615         12.4567
            9307         55.4005         39.7379         58.3970        -11.5539
            9308         82.6232         42.5610         95.2135    -801.773E-03
            9309         91.9495         103.874         35.5975        -5.63863
            9310         96.7261         109.104         34.4870        -2.92187
            9311         98.7132         111.060         33.7256        -2.45671
            9312         70.9157         81.8710         41.0541    -792.394E-03
            9313         79.0679         90.9426         40.8697         3.03553
            9314         79.2918         91.1835         41.5070         3.39983
            9315         60.5327         67.5252         39.2848         8.44540
            9316         58.4546         64.1181         39.2095         9.70324
            9317         69.9153         80.1274         41.7514        -4.83054
            9318         66.6372         75.7804         41.6544        -6.30727
            9319         97.0555         110.562         39.4107     74.5075E-03
            9320         97.3745         110.731         38.4621    -11.9382E-03
            9321         76.2345         42.6609         87.8416         2.76909
            9322         77.0458         42.8045         88.8065         2.48609
            9323         68.1534         43.6966         77.6370        -5.78698
            9324         72.4282         40.0621         83.5020        -2.12570
            9325         56.2446         57.8549         53.1095         4.77102
            9326         78.4563         46.6053         90.5194        -1.65843
            9327         85.6464         98.5402         42.0144     99.2255E-03
            9328         87.8638         38.1030         100.467    -938.141E-03
            9329         58.6957         63.5785         38.7278         11.0359
            9330         59.0523         64.4005         38.1609         10.6626
            9331         96.2502         109.516         38.4014     654.488E-03
            9332         53.9864         57.3634         37.7602        -11.0179
            9333         63.8239         72.2420         47.2515        -3.43651
            9334         73.2240         84.0510         42.7145        -4.57723
            9335         62.8304         70.8205         48.9614    -889.503E-03
            9336         58.9415         62.5834         54.1756        -2.07429
            9337         87.7402         35.5894         99.9352     662.900E-03
            9338         54.2720         40.5540         56.6821         11.3527
            9339         52.1927         38.1884         53.6572         12.0515
            9340         54.1156         38.5925         56.8567         11.5567
            9341         72.7043         42.6997         83.5321         4.15690
            9342         81.8523         93.1588         36.0081         5.13592
            9343         58.3716         48.6663         64.7148    -288.744E-03
            9344         58.8921         48.0744         65.6861    -307.272E-03
            9345         91.2233         103.212         35.8916         5.33110
            9346         81.5945         42.2727         94.0361         1.00895
            9347         77.9771         89.6182         41.2245         3.83033
            9348         58.4843         60.5803         55.7190        -2.66480
            9349         97.0019         110.460         39.1643    -222.237E-03
            9350         78.5260         90.2748         41.1681         3.57894
            9351         59.9787         53.9555         63.3295         5.55588
            9352         60.7408         67.2698         40.3959        -9.12524
            9353         60.6714         52.7438         64.8664         6.13061
            9354         61.4838         51.5951         66.3997         6.71276
            9355         71.4008         43.4206         80.5625         8.57271
            9356         60.3921         52.6786         65.3107        -3.96507
            9357         98.4567         110.868         33.9848        -2.21992
            9358         62.5480         71.3553         45.2977    -585.116E-03
            9359         55.9469         55.7431         55.4097         3.70782
            9360         79.2005         37.3637         90.7797        -3.03187
            9361         56.3616         52.4573         59.0508        -3.44027
            9362         56.7052         51.4562         60.4252        -2.93210
            9363         60.3526         68.0611         46.9810    -404.732E-03
            9364         75.5318         87.0667         41.5775         2.29205
            9365         89.1740         35.5908         101.442        -1.32436
            9366         60.6756         39.9152         67.2599         9.11244
            9367         59.9355         39.5344         66.2800         9.24853
            9368         101.447         113.724         32.5908    -907.512E-03
            9369         49.9839         35.7076         51.7735        -11.4246
            9370         70.8625         81.3114         41.9087        -4.51932
            9371         43.5624         41.3487         34.5402         11.8762
            9372         68.3682         77.4692         40.0767        -7.55645
            9373         55.4574         40.8835         58.6305         11.0083
            9374         48.4687         46.6353         38.2156        -12.8598
            9375         88.1594         100.154         34.6183        -1.83175
            9376         87.6253         99.5470         34.6058        -2.30424
            9377         88.3097         100.223         36.8900         5.48842
            9378         73.7003         84.3782         40.8347        -5.48119
            9379         93.2039         106.777         41.7354     278.394E-03
            9380         49.4351         51.4556         35.0420        -11.1253
            9381         64.6702         41.9970         72.8850         7.46587
            9382         93.4595         106.866         40.4404    -451.524E-03
            9383         84.3716         42.8516         97.1928    -492.759E-03
            9384         60.1951         66.6583         39.7964         9.11278
            9385         57.6552         40.9449         61.7688        -10.9753
            9386         88.0475         36.4668         100.344        -2.07038
            9387         62.8407         49.5283         70.2390        -3.70579
            9388         48.7050         33.9977         51.1005         10.6829
            9389         69.3217         78.7197         40.4243        -7.22909
            9390         75.0346         44.3639         86.4565         2.76074
            9391         60.7146         40.7509         67.9481        -7.69470
            9392         61.3921         40.9624         68.9785        -7.27023
            9393         61.9974         41.1181         69.9789        -6.66658
            9394         72.7399         83.9277         40.3187        -1.35377
            9395         75.4969         86.9181         39.1856        -2.26949
            9396         52.8767         54.4270         38.9646         12.0573
            9397         69.3440         79.5916         44.6312        -3.37072
            9398         49.3563         41.2797         45.5885        -13.3616
            9399         54.0680         56.2852         38.1584        -12.2067
            9400         57.2884         43.0589         60.6121         11.0145
            9401         72.3050         83.4531         43.0005         1.01141
            9402         61.4061         41.2146         67.9390         9.24546
            9403         59.4379         47.5043         66.6392    -595.126E-03
            9404         59.7837         47.1956         67.0933         1.97111
            9405         82.4143         37.7176         94.5059     943.052E-03
            9406         39.8016         35.4110         34.3080        -11.0765
            9407         67.0608         77.2634         42.7015         1.05848
            9408         48.4910         37.6547         48.3268        -11.8005
            9409         48.1251         38.0838         47.1997        -12.0469
            9410         89.1011         101.106         36.6601         5.13626
            9411         42.6497         38.4125         36.1992        -11.8827
            9412         58.9256         40.8669         63.9851         10.3746
            9413         87.5934         100.309         38.9241     87.7656E-03
            9414         83.0568         40.3920         95.4967        -1.23746
            9415         87.0723         40.3482         99.9250    -357.640E-03
            9416         78.0882         89.7662         41.0316         3.62607
            9417         79.3849         44.1926         91.5790         1.76826
            9418         79.8395         44.7337         92.1212         1.61722
            9419         40.8465         33.6156         38.2312        -10.9843
            9420         40.2132         34.9709         35.5740        -11.1457
            9421         40.9126         34.0471         37.0459         11.5980
            9422         68.2807         41.8760         77.9467        -5.68804
            9423         71.7192         41.1217         82.7346        -1.80925
            9424         61.0470         40.7388         67.4961        -9.32877
            9425         63.5794         41.0665         71.3022        -8.16522
            9426         85.9968         97.8956         35.2683        -2.62395
            9427         56.1840         53.4741         57.1574         5.37374
            9428         85.5763         97.7374         36.5529         1.54545
            9429         81.3182         93.7315         42.1685    -680.911E-03
            9430         83.3718         95.8649         40.2994     111.252E-03
            9431         83.9955         96.4844         39.6989     326.640E-03
            9432         61.7368         41.9078         68.3739         9.04770
            9433         62.5401         69.3290         39.2461        -9.75337
            9434         96.1003         109.233         37.7566     846.877E-03
            9435         70.7926         43.9746         81.2050         4.26339
            9436         71.7505         43.9260         82.4460         3.77785
            9437         48.1592         34.3855         49.6997         11.1927
            9438         71.3586         43.9471         81.9428        -3.96771
            9439         70.2357         44.0055         80.5335        -4.27544
            9440         83.8885         40.7151         96.4733     352.590E-03
            9441         84.4348         40.1151         97.0133     203.165E-03
            9442         67.7950         77.3879         41.7346        -5.63484
            9443         69.9346         80.2015         41.7115        -4.62016
            9444         76.3945         42.1701         88.0348         2.58887
            9445         58.5233         64.7602         48.6928        -2.11807
            9446         57.8985         63.1758         49.3435        -3.81168
            9447         59.7803         67.0686         47.3727        -1.68692
            9448         83.8205         39.0446         96.1310         2.13129
            9449         80.3397         39.6086         92.2281         3.29787
            9450         48.5655         49.2838         35.6500        -11.7723
            9451         56.1224         56.1068         54.1083         6.05209
            9452         76.1913         87.5287         38.6815         3.33301
            9453         83.1776         95.6231         40.4266         1.43153
            9454         80.3450         92.4363         40.6233         2.28492
            9455         74.0530         43.7467         85.3309         2.68625
            9456         86.1411         42.7344         99.1509     316.726E-03
            9457         76.8440         42.1783         88.6964     13.9553E-03
            9458         78.4470         41.5190         90.4702    -702.538E-03
            9459         84.2331         41.1767         96.8979    -380.221E-03
            9460         53.5366         39.4034         55.2263         12.1065
            9461         55.9525         40.3284         59.0487         11.5310
            9462         56.8171         40.7813         60.3640         11.2985
            9463         94.2148         107.492         39.2840    -676.723E-03
            9464         90.4645         102.417         36.1400        -5.47015
            9465         58.7122         55.3816         61.5120    -984.787E-03
            9466         59.6138         53.3545         64.3363     438.911E-03
            9467         101.207         113.535         32.7909     251.901E-03
            9468         75.1788         86.3739         41.8615        -4.27227
            9469         79.7943         91.3202         39.9799        -5.17459
            9470         82.7459         94.4796         38.8807        -5.23478
            9471         71.3266         82.2160         43.5481        -1.99400
            9472         85.6024         97.5548         37.9019        -4.89154
            9473         94.8368         107.291         35.3237         2.87648
            9474         57.8467         61.9984         41.7165        -10.7786
            9475         73.8211         85.0846         41.2370         2.47092
            9476         88.1042         100.902         39.2192     299.714E-03
            9477         81.9769         94.2818         40.6842        -1.97771
            9478         43.3893         40.3757         35.0941        -12.0801
            9479         64.6127         47.5512         73.5644    -119.092E-03
            9480         63.0651         71.2616         48.6070     236.768E-03
            9481         63.2502         71.5588         48.3391     885.175E-03
            9482         61.7544         70.2231         45.8418     15.9255E-03
            9483         56.3286         52.7000         57.6255        -6.10413
            9484         56.6875         51.5221         59.8748        -4.42828
            9485         59.9758         52.4864         65.3612     506.571E-03
            9486         60.5240         52.1188         66.2071        -2.16314
            9487         59.6721         52.4401         64.5767         3.00324
            9488         82.7426         40.0720         95.1034        -1.51664
            9489         90.0890         34.1601         102.172    -257.548E-03
            9490         80.9701         38.0620         92.9700     938.224E-03
            9491         62.6782         70.2517         47.8877        -4.62658
            9492         85.8881         40.0651         98.5769        -1.10013
            9493         86.7499         43.4035         99.8830     334.080E-03
            9494         87.5070         39.4794         100.285     568.120E-03
            9495         87.0028         39.3758         99.7088         1.04823
            9496         85.5010         40.6798         98.2282     950.250E-03
            9497         88.3297         101.254         40.0060     107.319E-03
            9498         42.0982         34.6700         39.3916        -11.3175
            9499         57.1457         43.7281         59.9861        -11.2284
            9500         60.2998         44.9337         65.3943         9.64405
            9501         44.7474         42.2581         35.7902         12.2211
            9502         80.5951         42.8828         92.9686    -284.298E-03
            9503         70.4613         80.2337         40.7377        -6.74092
            9504         97.6741         110.823         37.2846    -300.051E-03
            9505         62.5721         70.3932         48.6761         2.39203
            9506         77.2552         88.8598         40.8890         3.35542
            9507         71.0371         81.5540         41.8217        -4.35484
            9508         61.6141         44.6017         67.7463         8.92597
            9509         76.0884         40.1348         87.7350    -899.873E-03
            9510         85.7153         98.1724         38.2586     709.773E-03
            9511         86.2766         98.8052         38.4147     594.859E-03
            9512         67.1169         44.4328         76.3391        -5.61870
            9513         88.2620         100.217         36.9321        -5.29073
            9514         59.9397         53.5238         64.1335         3.98062
            9515         88.5792         36.4573         100.959         1.31058
            9516         84.0531         95.9367         36.1113        -2.67400
            9517         44.0874         41.5715         35.1565         12.1249
            9518         68.9381         79.0390         41.7879         4.54441
            9519         57.6105         60.8468         41.1010         11.9472
            9520         68.0712         78.1535         45.2907        -2.16831
            9521         69.0249         79.4409         44.6977        -1.47477
            9522         61.3158         45.5510         67.1460         8.84544
            9523         79.6527         91.8027         41.2829    -897.922E-03
            9524         80.5807         42.2962         92.8882         1.27594
            9525         66.8846         42.7051         76.9058        -2.55545
            9526         75.7132         87.2920         41.2342         1.97859
            9527         77.0676         88.8587         41.6271         1.79507
            9528         77.5002         89.3548         41.3437         1.52251
            9529         60.7843         67.3571         40.3523         9.08208
            9530         59.9323         65.9583         40.4496         9.54292
            9531         58.6898         54.4578         61.3564         4.30392
            9532         58.2568         62.6578         41.9714         10.5845
            9533         57.6558         61.3639         42.6884         10.8917
            9534         84.2069         96.7238         39.7671    -318.774E-03
            9535         84.1378         96.5753         39.1584    -495.184E-03
            9536         87.1040         99.2172         35.5970        -1.60734
            9537         88.9353         35.9722         101.268        -1.00874
            9538         93.6450         106.033         35.5607         3.29169
            9539         85.1718         97.3994         37.1161         1.30093
            9540         61.0212         40.5245         67.5303         9.26719
            9541         87.3671         38.8851         100.039         1.03222
            9542         72.5858         43.6047         83.6413         2.49122
            9543         42.5751         40.2857         33.7358        -11.6999
            9544         47.4162         37.4109         45.4499         12.6932
            9545         64.7430         73.8019         47.1322     804.282E-03
            9546         80.5395         39.3883         92.6526     175.205E-03
            9547         69.6062         42.0506         79.5974        -5.42005
            9548         87.0264         99.9498         40.9706     114.682E-03
            9549         85.0195         37.4295         97.3051     619.030E-03
            9550         74.0648         41.9777         85.2480         3.40394
            9551         77.8887         89.3186         37.9858         3.59459
            9552         78.9959         90.3412         37.3475         4.39714
            9553         72.6948         83.6422         41.7664        -3.53652
            9554         79.3667         43.3866         91.5360         1.75793
            9555         58.5747         64.4626         48.3516        -4.26468
            9556         58.1465         63.3068         48.6929        -5.31854
            9557         86.3555         39.3694         98.9949        -1.25327
            9558         86.7068         38.9335         99.3167        -1.31392
            9559         88.5553         36.6123         100.979    -786.908E-03
            9560         77.2465         44.7194         89.1087        -1.97728
            9561         88.0845         100.261         37.1627         4.14115
            9562         57.5909         49.7196         62.4781         3.98095
            9563         56.5862         51.7596         58.9847         5.67940
            9564         45.9849         41.8517         38.7938         12.6711
            9565         47.0460         42.5485         40.1565         12.8971
            9566         54.9072         45.0218         54.6313         12.4213
            9567         48.8244         47.5369         37.8291         12.7971
            9568         86.7611         42.0564         99.7720     339.731E-03
            9569         85.2019         97.2022         36.0012        -2.19078
            9570         67.5951         77.2103         41.8784        -5.39483
            9571         60.1898         40.1164         66.3743         9.49810
            9572         64.3860         73.1851         47.6852        -1.34963
            9573         82.7023         40.6779         95.1582    -492.940E-03
            9574         75.1912         44.0556         86.6698        -2.54585
            9575         97.3566         110.490         37.3159    -535.638E-03
            9576         87.1436         99.6943         38.0551    -495.303E-03
            9577         73.6178         84.9449         40.1201    -880.989E-03
            9578         57.6869         42.2862         61.3452        -11.1128
            9579         71.4290         81.5355         40.9932        -6.21900
            9580         61.4262         50.8445         68.1285         1.86871
            9581         78.3670         42.8560         90.4375    -732.301E-03
            9582         70.0939         80.4652         41.6754        -4.28525
            9583         81.4085         93.7863         41.4492    -517.921E-03
            9584         81.6163         93.9812         40.9470    -338.460E-03
            9585         57.3831         44.0645         60.2768         11.1641
            9586         88.1928         37.0513         100.670    -451.870E-03
            9587         68.2231         45.4080         77.6031         5.59951
            9588         86.6758         39.0116         99.3257    -133.599E-03
            9589         75.5914         87.1564         41.1040        -1.89416
            9590         53.2033         53.7343         40.8038         12.5277
            9591         84.8755         38.0360         97.2382     369.070E-03
            9592         87.0423         37.4446         99.4983     104.602E-03
            9593         62.2670         49.8931         69.6576        -1.92476
            9594         44.2670         40.9947         36.0644         12.3398
            9595         41.3266         36.3757         36.0378        -11.5018
            9596         47.9837         43.0527         41.5372        -13.0620
            9597         85.6029         38.9929         98.1065        -1.63017
            9598         63.3369         72.1595         44.3768        -3.53466
            9599         99.5726         112.036         33.7541         1.29869
            9600         82.7719         94.9952         38.4881     806.259E-03
            9601         80.3290         38.9375         92.3766     177.046E-03
            9602         86.2663         98.6592         37.5237     868.554E-03
            9603         88.5067         100.785         35.7559     554.993E-03
            9604         62.7204         41.2509         69.9721        -8.61258
            9605         61.2673         45.9567         69.5282    -963.239E-03
            9606         58.9827         47.9975         65.7524        -1.60959
            9607         87.0716         38.7609         99.6926         1.24022
            9608         84.6765         39.6129         97.1792         1.49060
            9609         60.3431         46.0226         65.3031         9.38318
            9610         97.8308         110.447         34.8688         1.60354
            9611         94.5412         107.088         35.7015         2.49866
            9612         78.6223         90.6101         40.5184     552.049E-03
            9613         59.4803         63.7342         42.1421         11.3402
            9614         59.2325         45.3911         63.3038         10.2339
            9615         71.2357         41.3603         82.1003        -2.52233
            9616         57.3236         50.2072         62.1036        -2.96796
            9617         57.6461         49.6591         62.7581        -3.41434
            9618         44.4216         36.5575         40.7717         12.4501
            9619         49.5751         37.2372         49.6242         12.3340
            9620         50.5457         38.7760         50.0991         12.7019
            9621         74.9918         86.4668         41.0524         1.97020
            9622         58.1832         57.2436         57.2324         6.03048
            9623         58.2083         58.2054         55.9717         6.46428
            9624         71.8826         43.8129         82.6940         3.28101
            9625         48.3884         40.0236         45.7093        -12.6446
            9626         78.2107         89.8192         40.6369        -4.00147
            9627         80.8848         92.6153         39.6011        -4.62520
            9628         83.0486         94.9952         38.8556        -4.25533
            9629         94.6451         107.223         35.7686        -2.36520
            9630         54.4369         40.4611         56.1941         12.1405
            9631         88.8535         36.0235         101.175        -1.36518
            9632         88.7122         36.1052         101.027        -1.57176
            9633         47.0244         44.3752         37.8076         12.7860
            9634         86.7231         99.3154         38.5875     481.657E-03
            9635         84.6205         38.9269         97.0787    -78.1402E-03
            9636         75.9148         39.3541         87.5004    -707.483E-03
            9637         70.1282         41.3876         80.9597     652.252E-03
            9638         85.1339         39.0958         97.6041         1.69686
            9639         87.4765         39.2906         100.229     464.656E-03
            9640         87.7300         38.4321         100.383     500.782E-03
            9641         72.4812         43.8762         83.3785        -3.40365
            9642         68.3522         44.5880         78.2684        -3.99231
            9643         58.8976         54.4792         62.3128        -2.06639
            9644         60.6188         51.5611         66.7764    -157.224E-03
            9645         80.7916         39.7648         92.8302         2.57942
            9646         82.9513         39.6825         95.2745         1.80019
            9647         57.0454         60.0566         50.1826         6.90119
            9648         56.5285         59.6957         41.4591        -11.3720
            9649         73.4643         40.6341         84.7668        -1.27604
            9650         80.6178         92.6898         38.9488     572.926E-03
            9651         57.4425         49.9439         62.0625        -4.20850
            9652         68.4724         77.5711         40.7048        -7.56804
            9653         78.6004         90.4767         40.6806         2.43124
            9654         85.9317         98.6214         39.8741     439.353E-03
            9655         75.3941         86.7249         41.1528         3.58180
            9656         53.5693         54.1102         40.3645         12.8658
            9657         60.4615         51.4417         66.4747         1.82810
            9658         61.2280         50.9134         67.9172    -783.800E-03
            9659         61.8836         42.5752         68.6266         8.73906
            9660         63.3330         42.7361         71.0145         7.67055
            9661         60.2740         51.0929         65.8657         4.05955
            9662         98.5436         111.426         35.7386     29.1728E-03
            9663         98.4710         111.312         35.5813    -477.346E-03
            9664         73.9340         84.7335         41.0067         5.14999
            9665         78.0527         89.6158         38.1462         2.86343
            9666         74.8006         86.1600         39.4434         2.17887
            9667         67.9666         42.0091         77.6433        -5.41405
            9668         72.1287         41.2955         83.0988        -2.79463
            9669         74.9278         40.3288         86.4295        -1.04874
            9670         46.8665         45.7403         36.0805        -12.2857
            9671         47.8655         47.3367         36.3505        -12.2433
            9672         51.2352         43.1622         47.7576        -13.4487
            9673         53.8789         41.0752         54.7390        -12.4877
            9674         75.1030         41.6409         86.5212         2.79283
            9675         61.0442         67.5120         41.3262         9.14132
            9676         87.6632         100.246         37.9728     291.660E-03
            9677         87.6581         100.196         37.6825    -372.775E-03
            9678         79.6563         91.4177         37.8560        -2.27739
            9679         92.9468         106.107         39.1379     694.835E-03
            9680         61.6509         67.3984         42.0517         10.3949
            9681         43.6573         38.3353         37.6097         12.4319
            9682         59.1226         41.6353         64.0917         10.3715
            9683         54.8987         56.2090         42.1735         12.1975
            9684         78.0101         89.9059         40.2714     671.577E-03
            9685         81.9823         94.1133         38.3724    -947.110E-03
            9686         82.5495         94.6636         37.9050        -1.24493
            9687         93.6493         106.114         35.7476         2.91678
            9688         65.7152         43.6197         74.2179        -6.94914
            9689         80.1071         41.1562         92.3030     879.757E-03
            9690         66.6795         75.9161         44.3593        -5.25164
            9691         68.0448         77.6879         43.5185        -5.21801
            9692         73.5098         84.8459         40.3067    -177.441E-03
            9693         53.6172         40.6816         54.4963         12.4762
            9694         61.3596         51.5217         66.7856         5.51049
            9695         67.4618         43.4715         76.8188        -5.76239
            9696         58.9755         46.0729         62.6173         10.3188
            9697         90.3350         103.209         38.5939     830.633E-03
            9698         77.9437         41.2590         89.8608        -1.35709
            9699         79.3696         41.8785         91.5371     200.384E-03
            9700         49.9780         38.6251         49.1628        -12.7520
            9701         86.1273         98.3118         37.8722         3.72765
            9702         75.7319         43.8733         87.3347        -2.21915
            9703         66.0666         42.2750         75.0463        -6.27825
            9704         72.3184         83.4563         40.9379         1.36731
            9705         57.4946         44.8417         60.1228         11.1968
            9706         73.8760         43.7293         85.1210        -2.71444
            9707         48.9597         39.1449         46.7601         13.0210
            9708         82.8176         95.1289         39.1398     466.454E-03
            9709         55.9611         57.6887         41.6831         12.5275
            9710         99.7818         112.320         33.9382     492.077E-03
            9711         100.084         112.543         33.5664     768.299E-03
            9712         96.0868         108.717         35.4883         2.00549
            9713         46.0481         41.2220         39.1500         12.9395
            9714         60.4037         66.5996         40.8266         9.40430
            9715         83.0307         95.0967         37.3663        -1.62087
            9716         51.9177         42.6455         49.6326         13.2918
            9717         49.5711         49.1193         37.8873         12.5184
            9718         88.1905         37.3320         100.709    -643.287E-03
            9719         94.2707         106.911         36.1155         2.14635
            9720         60.2056         45.1488         65.1761        -9.67820
            9721         91.5657         104.493         38.3763     968.293E-03
            9722         71.3444         43.5864         82.1131         2.98338
            9723         65.3578         74.3746         42.6540         5.57000
            9724         59.7225         65.2701         41.7171         9.81757
            9725         58.2582         62.3868         43.2754         10.4715
            9726         47.3010         41.4222         41.3747        -13.2104
            9727         84.1265         96.6485         39.9783    -799.651E-03
            9728         47.3350         42.7776         40.0775        -13.1516
            9729         59.3098         65.7350         47.3982        -4.67938
            9730         87.8529         100.322         37.1498     420.277E-03
            9731         78.8708         90.8985         40.8361    -898.399E-03
            9732         86.0691         38.5388         98.6038    -55.3977E-03
            9733         88.1360         100.417         35.9449    -771.124E-03
            9734         87.4298         99.9032         37.4011    -567.053E-03
            9735         53.7896         53.8049         41.5336        -13.0131
            9736         46.7764         44.2663         37.4419        -12.7022
            9737         73.8280         85.2064         40.4049     464.831E-03
            9738         66.5093         76.1432         42.5720         4.27744
            9739         67.8048         77.9522         45.2726    -377.298E-03
            9740         65.8337         75.3316         46.4921    -104.139E-03
            9741         57.6831         46.0399         59.9654         11.1448
            9742         70.4818         81.2988         43.6468     723.814E-03
            9743         91.0166         103.858         38.1301         1.12082
            9744         64.2006         73.0037         47.6605     130.202E-03
            9745         86.0360         39.3866         98.6455        -1.32530
            9746         61.1424         50.5154         67.8488         1.87403
            9747         99.7485         112.315         34.0504    -179.907E-03
            9748         72.6832         43.0799         83.8924        -1.01706
            9749         86.0183         39.4096         98.6623     100.215E-03
            9750         80.4172         40.2082         92.5061         2.02942
            9751         58.2952         43.2735         62.2468        -10.7193
            9752         92.7037         105.692         38.2543         1.00611
            9753         48.3927         47.3358         37.4049        -12.5517
            9754         49.3293         48.5647         37.9963        -12.6017
            9755         72.6539         43.7321         83.6516        -2.98645
            9756         75.3427         86.8896         40.7499         1.51827
            9757         74.1989         85.6066         40.5970         1.18922
            9758         54.4241         41.2304         55.6913         12.3380
            9759         78.6755         90.6148         39.6930    -86.7801E-03
            9760         67.0736         76.6640         42.1593        -5.03942
            9761         74.5801         85.9814         42.0905        -2.36426
            9762         59.0416         42.0974         63.8366         10.4237
            9763         57.1504         50.2936         60.7075         5.90257
            9764         56.6232         51.3438         58.4309         7.20873
            9765         79.6098         42.2262         91.7766         1.53781
            9766         76.1072         42.9612         87.8412        -1.20025
            9767         57.5826         60.9234         44.0206         10.7730
            9768         88.2993         37.1300         100.783     990.278E-03
            9769         62.2970         68.8268         39.7348        -9.99591
            9770         52.9319         45.4406         49.6018        -13.2982
            9771         87.8293         37.7894         100.396    -388.758E-03
            9772         87.0582         38.2559         99.6355    -104.056E-03
            9773         86.8106         38.0573         99.3393     15.5024E-03
            9774         63.1482         41.6636         70.5828        -8.37946
            9775         63.9168         42.2194         71.7964        -7.73193
            9776         64.4261         43.5846         72.3252        -7.58135
            9777         84.5905         96.7552         38.4113         3.41807
            9778         70.4145         80.2349         41.1516         6.55492
            9779         69.1013         78.5157         41.4186         6.99475
            9780         73.0174         83.6627         41.2120         5.21486
            9781         60.1056         64.5111         44.0249         10.8460
            9782         88.0630         37.7083         100.629     709.536E-03
            9783         64.9785         72.6340         40.8527        -9.03423
            9784         83.4258         40.0646         95.8992    -263.199E-03
            9785         53.8581         46.3870         51.1574         12.9730
            9786         77.1907         88.9840         40.2050     685.838E-03
            9787         87.5796         99.9666         36.8035     703.652E-03
            9788         87.2150         99.6901         37.5266     610.499E-03
            9789         56.5752         58.0314         51.0568         7.94161
            9790         57.4571         60.8916         48.8793         7.76066
            9791         89.2915         101.932         37.8214         1.59743
            9792         71.0714         81.7239         41.5749        -3.72048
            9793         71.6805         82.4936         41.4896        -3.37339
            9794         58.3781         55.6163         59.6776        -4.91476
            9795         59.5634         52.7751         64.3268        -2.55018
            9796         58.1652         56.4450         57.6308        -6.55266
            9797         61.8371         49.9312         69.1486    -783.338E-03
            9798         64.4076         44.7662         72.3096        -7.13375
            9799         63.7033         44.6861         71.1836        -7.63906
            9800         85.4153         97.6059         36.7883        -1.44155
            9801         74.8042         86.2617         39.7271        -1.04464
            9802         78.4498         90.2107         38.5325        -1.60173
            9803         53.8747         43.3725         53.2348         12.8620
            9804         82.2223         94.2470         37.5927        -1.61310
            9805         81.1972         93.4606         40.2712    -182.083E-03
            9806         69.3426         80.0422         41.7367    -362.991E-03
            9807         64.4011         73.5445         43.6986        -3.78276
            9808         63.5893         72.2617         43.9264        -4.70831
            9809         60.1880         47.1508         64.9167         9.05705
            9810         97.6558         110.380         35.3497        -1.32608
            9811         58.2282         55.5078         58.5475         6.61930
            9812         91.1393         103.997         38.1678        -1.08808
            9813         83.4756         95.5705         38.7727        -3.49570
            9814         80.2078         92.0794         39.9040        -3.49666
            9815         76.5559         88.1478         41.2954        -2.91956
            9816         87.5979         38.3577         100.231     365.104E-03
            9817         87.8785         37.5576         100.414     352.032E-03
            9818         87.1401         39.8285         99.9349     343.209E-03
            9819         69.3575         79.9422         41.7799         2.17006
            9820         61.6708         68.5847         43.2393        -8.06935
            9821         51.0575         44.3238         46.3211        -13.5370
            9822         50.1868         43.1469         45.5525        -13.5090
            9823         67.5861         42.3774         77.5860        -3.66740
            9824         92.6947         105.165         36.0840         2.90261
            9825         91.8989         104.515         36.8108         2.17726
            9826         61.9405         69.0016         43.0507         8.01277
            9827         58.2135         46.2917         60.9788        -10.8056
            9828         56.0156         45.6172         56.6347        -12.0118
            9829         47.5190         39.7814         43.3965         13.1481
            9830         57.5822         43.6063         60.7956         11.0930
            9831         58.4054         42.5489         62.6015         10.7308
            9832         66.4496         46.4673         75.9165         2.62420
            9833         66.8734         46.1222         76.6162         1.67961
            9834         62.0042         43.1564         68.9261         8.28329
            9835         59.4173         42.6161         64.4126         10.1704
            9836         57.3177         60.0607         41.8002        -12.1288
            9837         55.4173         56.2825         42.5012        -12.7682
            9838         63.7614         42.8466         71.7393         7.23286
            9839         63.3006         43.1916         71.1255         7.17951
            9840         65.9677         75.4588         45.9971         2.07076
            9841         80.7497         40.3346         92.9612     684.049E-03
            9842         79.9546         40.4149         92.0795     841.822E-03
            9843         85.6474         38.4134         98.1290     144.652E-03
            9844         57.7070         49.3411         62.2737        -5.48282
            9845         59.4071         63.3269         51.5289        -6.50240
            9846         63.9623         72.3462         43.0290         6.29007
            9847         57.9061         61.9592         47.9887         7.84427
            9848         58.3429         63.4808         48.1534         6.11414
            9849         56.1508         57.9733         43.8895         11.6925
            9850         69.1415         44.2580         79.2108         4.20857
            9851         62.9310         49.1116         70.9026         1.05104
            9852         57.5666         60.9564         48.1854        -8.43803
            9853         96.1387         109.103         36.9093         1.12829
            9854         56.0393         45.3954         56.9746        -11.8313
            9855         90.4225         103.184         37.9524        -1.29181
            9856         85.2681         97.6943         38.6104         1.60392
            9857         85.9305         98.3965         38.4700        -1.58764
            9858         63.8926         45.2412         71.5519        -7.13938
            9859         64.8203         45.0765         73.0199        -6.56667
            9860         67.1586         77.1062         45.4010         1.20542
            9861         78.2372         90.0330         38.8541        -1.10058
            9862         87.7611         100.035         36.0840    -937.846E-03
            9863         84.8949         39.9837         97.4728        -1.26946
            9864         87.9612         100.337         36.5496     584.404E-03
            9865         88.2336         100.593         36.3246     477.671E-03
            9866         65.7225         74.9653         42.6744         5.08749
            9867         74.9649         39.8770         86.4750     22.1979E-03
            9868         91.2432         104.027         37.7521        -1.38059
            9869         87.2331         38.9828         99.9254     285.667E-03
            9870         86.8744         38.7634         99.5076     141.051E-03
            9871         51.4241         49.8633         40.9221        -13.2159
            9872         51.9529         48.6553         43.8945        -13.4255
            9873         63.5914         71.6452         42.7879        -6.96598
            9874         88.3821         100.789         36.5166     116.706E-03
            9875         75.5885         87.1565         39.6611    -601.648E-03
            9876         59.4426         65.5942         46.8300        -6.04287
            9877         72.9885         84.1324         41.1643        -2.43662
            9878         77.8059         41.3140         89.7108         1.31507
            9879         51.8642         50.9288         40.5526         13.1267
            9880         52.7443         52.0289         41.2967         13.1423
            9881         62.8453         69.5728         40.0835        -9.85203
            9882         62.0171         68.2170         40.5193        -10.2445
            9883         88.3868         36.8099         100.837     583.482E-03
            9884         75.8767         87.5084         40.3247     862.476E-03
            9885         75.3035         86.8644         40.2924     750.724E-03
            9886         62.8221         69.3644         43.9869         9.15543
            9887         62.2183         68.3783         44.7393         9.18541
            9888         57.5278         49.3964         61.4527         6.54606
            9889         55.3746         41.8547         57.1679         12.0983
            9890         70.9654         41.7459         81.4801         4.31348
            9891         71.5683         43.6220         82.5946     265.085E-03
            9892         70.2808         44.1520         81.0269     842.980E-03
            9893         86.9928         39.4269         99.7240     260.682E-03
            9894         67.8065         45.2071         77.8568         2.00293
            9895         67.4109         77.4026         45.1227         1.79090
            9896         83.3698         95.8043         39.8004     586.666E-03
            9897         77.7714         89.6343         40.1749    -609.808E-03
            9898         72.9934         43.5085         84.1479        -2.25985
            9899         71.7772         82.0465         41.2042         5.86547
            9900         69.5312         79.1770         41.6973         6.54210
            9901         65.2120         72.9703         41.5007        -8.83087
            9902         70.3148         80.9030         41.5879        -3.36161
            9903         71.6461         82.5133         41.3890        -2.98910
            9904         50.0208          46.375         41.9266         13.3909
            9905         54.5485         43.3335         54.6889         12.6059
            9906         59.3802         63.0377         50.8915        -7.53666
            9907         95.1933         107.937         36.2243         1.75070
            9908         92.9004         105.618         36.8726         1.84591
            9909         62.4611         42.2009         69.5275        -8.57358
            9910         85.4494         97.9806         38.9778     635.198E-03
            9911         49.7674         43.6344         44.1924        -13.5175
            9912         75.3428         86.8712         39.6379     849.433E-03
            9913         64.3729         71.9941         43.9714         8.01899
            9914         90.3372         102.818         36.9078         2.69882
            9915         87.3214         99.8356         38.0802         1.78374
            9916         52.8917         51.9006         41.9049        -13.2001
            9917         62.0199         49.1065         69.3064         3.41763
            9918         72.0708         43.2775         83.1059         1.93924
            9919         76.2569         87.7529         41.0162        -3.23998
            9920         96.7977         109.646         36.1570        -1.24526
            9921         56.6191         50.6798         57.9180         8.52558
            9922         56.3753         51.0774         56.6690         9.17244
            9923         65.7272         46.8445         75.0963         1.16131
            9924         63.4353         45.8193         70.8921        -7.00405
            9925         51.5305         43.4936         48.1019         13.4416
            9926         60.9407         46.2003         68.9547        -1.85076
            9927         59.4176         47.5280         66.4055        -2.44765
            9928         53.4506         47.7243         48.9180        -13.1778
            9929         51.9569         48.8626         43.6457         13.4122
            9930         69.2837         44.5159         79.7206         2.00290
            9931         64.3298         47.7755         73.1464     115.232E-03
            9932         93.7453         106.575         37.0855         1.52496
            9933         54.3767         52.9960         45.6920         12.6753
            9934         67.0845         45.6914         76.9665         1.35305
            9935         54.2104         51.3781         46.5491        -13.2141
            9936         53.2272         45.0055         50.6478         13.1892
            9937         65.5400         74.9949         43.0830        -3.92044
            9938         57.8065         61.5415         47.7103         8.44835
            9939         58.4683         63.0484         46.8349         8.22189
            9940         94.1217         106.903         36.7387        -1.67482
            9941         57.0339         48.1947         57.4841        -11.4912
            9942         68.2035         44.9374         78.3101        -2.51202
            9943         66.4512         45.5735         75.8603        -3.70825
            9944         58.9023         42.6205         63.4920         10.4531
            9945         58.3474         43.9218         62.2626         10.5411
            9946         55.8082         46.2222         56.0924        -11.8943
            9947         55.2866         55.8535         44.4161        -12.1791
            9948         58.4615         62.7133         45.3804        -9.51090
            9949         61.2063         67.9124         43.8301        -7.95078
            9950         75.8917         87.5189         41.2714         1.70191
            9951         67.8112         42.2661         77.7675        -4.12633
            9952         57.7695         61.2532         47.0368        -9.20240
            9953         59.8393         46.3172         66.0653         6.60272
            9954         74.3164         85.8062         42.0013     176.602E-03
            9955         66.9128         76.5755         44.9911         3.39305
            9956         65.6288         46.8274         75.0108     301.441E-03
            9957         61.5176         43.6181         68.1962         8.28122
            9958         62.9006         43.7306         70.7137         6.73409
            9959         55.9505         57.1783         44.8207         11.7612
            9960         65.2303         74.5084         43.1300         4.35261
            9961         64.3661         73.3843         43.5828         4.34235
            9962         66.0641         74.6873         43.7452        -6.82753
            9963         61.9589         46.8519         68.4166        -7.49261
            9964         59.4044         63.2388         43.8914         11.2385
            9965         57.0121         58.3229         44.8276         12.2988
            9966         63.4957         71.8632         43.5865        -5.76955
            9967         63.0948         42.9353         70.6866        -7.65654
            9968         69.0008         79.5990         41.8895        -1.25666
            9969         60.4471         47.5096         65.4555         8.60296
            9970         80.1880         92.3203         40.2378     960.797E-03
            9971         66.6466         45.5431         76.1645         3.43180
            9972         90.4897         103.136         37.4142         1.84448
            9973         59.4996         65.3004         46.1367        -7.30769
            9974         59.8824         50.8277         64.6293         6.06794
            9975         63.2030         46.5116         70.6543         6.46792
            9976         55.3659         48.7490         52.8037         12.5806
            9977         60.3201         64.8329         45.1254         10.4006
            9978         57.1457         45.6733         59.4768        -10.9330
            9979         56.4880         47.5250         57.4706        -10.9648
            9980         77.3047         41.8195         89.2000     518.708E-03
            9981         50.0440         45.1584         43.2692         13.5014
            9982         62.6467         70.4503         43.7235        -6.58173
            9983         55.8291         52.1530         53.2412         10.6303
            9984         67.1851         75.9706         42.2176        -7.46717
            9985         68.1888         77.4156         42.1663        -6.90117
            9986         86.3397         98.8879         38.6275         1.07193
            9987         74.6382         86.0984         39.8912    -629.319E-03
            9988         60.9856         68.6979         46.0043         3.82286
            9989         52.8974         50.8661         43.4392        -13.3341
            9990         92.0530         104.866         37.5961        -1.41409
            9991         77.0052         41.4233         88.7933         1.60992
            9992         85.2669         97.8245         39.2625    -187.080E-03
            9993         76.5896         42.3211         88.4103    -212.431E-03
            9994         76.0627         41.8590         87.7677         1.16206
            9995         59.2775         62.5914         50.2011        -8.52733
            9996         75.6493         42.2287         87.3330     391.177E-03
            9997         92.0550         104.866         37.5861         1.41751
            9998         92.8983         105.683         37.1661         1.60936
            9999         56.4829         58.1607         45.5278         11.2959
           10000         71.3599         81.6190         41.5547         5.64041
           10001         58.6818         54.2724         61.2604        -4.82932
           10002         58.5185         54.7197         60.4866        -5.20742
           10003         58.2748         59.2694         52.2199        -9.15093
           10004         66.3510         42.6311         75.7667        -4.98234
           10005         56.3012         51.7979         56.3073        -8.81076
           10006         61.7472         43.0301         68.4594        -8.56855
           10007         62.1933         44.6460         70.0025         5.76557
           10008         58.2109         54.9387         58.5678         7.25035
           10009         58.5312         53.2346         60.3793         7.31624
           10010         68.5446         78.7641         44.2176         2.71676
           10011         56.9060         49.4768         58.8122        -8.96843
           10012         59.3929         64.5344         43.9201         9.45520
           10013         58.1415         62.0014         45.1531         9.95004
           10014         73.0805         43.3361         84.3148        -1.59435
           10015         73.0179         43.2562         84.2738        -1.12573
           10016         59.1503         44.0234         63.8346         9.93423
           10017         68.4197         44.7757         78.5246         2.95937
           10018         62.1314         68.2080         41.7086        -10.2181
           10019         70.0179         44.2843         80.6507         1.67652
           10020         55.9444         56.5353         46.4400        -11.5810
           10021         60.9269         45.0602         67.6838         7.08063
           10022         63.9462         72.4084         43.2012        -5.99767
           10023         68.0479         77.9018         43.9860         4.22864
           10024         68.9042         78.4858         42.3174         6.28009
           10025         55.5239         47.3370         54.8618        -11.9622
           10026         59.9892         44.1375         65.4715        -9.19818
           10027         62.2293         43.7727         69.5250        -7.43865
           10028         49.3622         46.0071         40.8740        -13.2888
           10029         55.9489         54.8261         50.6812         10.5586
           10030         80.5228         92.6591         40.4067        -1.78498
           10031         79.6738         91.6923         40.5699        -2.19573
           10032         58.6347         53.3581         60.8362        -6.73310
           10033         58.0805         55.9089         57.2203        -7.58278
           10034         66.0530         74.9841         44.5697         5.65531
           10035         57.9405         47.5564         59.9298         10.8620
           10036         58.4324         47.9238         60.9529         10.3842
           10037         59.1217         48.9907         62.4007         9.28234
           10038         68.5694         42.0518         78.7175         3.96533
           10039         70.4813         41.5391         81.1949         2.72440
           10040         65.1029         46.0242         73.8186         4.77521
           10041         65.2445         73.3972         43.8449        -7.42546
           10042         83.0202         95.3763         39.3860    -564.341E-03
           10043         64.6355         72.5221         44.3097         7.49158
           10044         67.1739         76.3794         43.5871         5.99560
           10045         59.4891         51.0324         63.5147         6.87598
           10046         54.8916         54.6293         45.0456         12.3885
           10047         55.3784         55.5717         45.4380         12.0969
           10048         59.5106         64.8210         44.5062         9.01630
           10049         57.7430         48.9684         58.9149        -10.8067
           10050         55.6974         55.3609         45.3588        -12.7939
           10051         57.1318         59.5370         47.6919        -9.73492
           10052         53.5481         48.9290         48.0000         13.1396
           10053         58.6998         63.3263         45.8125         8.90310
           10054         74.5748         86.0443         40.0756     63.7414E-03
           10055         73.8997         85.2872         40.3830    -456.775E-03
           10056         73.2494         84.5374         40.6695    -997.753E-03
           10057         58.3232         61.1194         44.1905        -11.7489
           10058         60.0575         64.5605         43.0642        -11.0236
           10059         52.6207         50.1733         43.6449         13.3730
           10060         52.9944         49.9215         45.0168         13.3797
           10061         54.8360         50.2777         49.8249         12.9319
           10062         59.8509         63.8640         45.8841         10.4644
           10063         59.2459         62.6167         45.9217         10.8917
           10064         56.6958         57.2904         45.7187         12.3999
           10065         67.1130         45.4455         76.8762        -2.74398
           10066         56.2024         48.6834         56.3413        -10.9115
           10067         57.6205         45.4550         60.5943        -10.5926
           10068         65.6584         46.6802         75.0646    -662.537E-03
           10069         68.5488         78.9709         42.0535        -2.23845
           10070         67.9642         78.3137         42.2901        -1.78224
           10071         57.8830         55.2270         56.3405        -8.90104
           10072         69.9413         80.3473         43.1685         3.69891
           10073         69.0669         79.2817         43.6229         3.66010
           10074         69.2208         79.1899         42.9383         5.06822
           10075         53.6157         50.1232         46.9063        -13.0792
           10076         48.7866         44.3243         41.4353        -13.3565
           10077         59.5033         50.2230         63.4121         7.78772
           10078         54.2464         51.5288         47.2485        -12.7762
           10079         71.4795         41.2386         82.4281         2.12229
           10080         61.0746         43.9698         67.4889        -8.35639
           10081         54.5723         49.8336         50.2498        -12.5677
           10082         73.2741         84.5145         42.1516         2.00371
           10083         57.7596         48.8040         59.0244         10.8179
           10084         58.3431         49.3039         60.3711         10.0812
           10085         55.9820         49.8390         55.2048        -10.8604
           10086         69.6493         79.5582         42.3292         5.69798
           10087         68.9100         78.6436         42.7266         5.72669
           10088         63.6054         70.9423         45.0258         7.74059
           10089         63.8378         70.9418         42.9114        -9.04338
           10090         74.4256         42.7010         85.9380    -180.633E-03
           10091         72.9039         43.1696         84.1694    -383.763E-03
           10092         61.1458         45.9074         68.9958        -3.57344
           10093         58.5250         60.3464         50.3673        -9.76564
           10094         53.8405         51.3857         45.4201         13.2824
           10095         55.5529         49.8446         53.6091        -11.5445
           10096         60.6286         65.7146         41.9857        -10.8581
           10097         58.5131         60.8789         46.9089         11.1484
           10098         54.1256         49.3555         48.8487         13.1449
           10099         80.7438         92.9239         39.9205    -458.566E-03
           10100         67.0720         45.7105         76.9568        -1.23739
           10101         55.2100         54.8766         45.9946         12.1824
           10102         55.3760         54.9329         46.6996         12.0189
           10103         56.8185         49.5993         58.4767         9.11278
           10104         58.1710         47.1913         62.1665         8.67721
           10105         59.0177         53.1202         62.4518        -5.11722
           10106         75.4622         41.9521         87.0622         1.54758
           10107         57.5295         55.5495         53.8002        -10.2958
           10108         58.7659         63.3604         45.1031         9.35156
           10109         58.3456         62.4753         45.6021         9.49554
           10110         54.4463         51.6824         47.7597         12.6579
           10111         63.0195         44.2302         71.2897         5.35694
           10112         57.8561         47.1637         61.2882         9.26016
           10113         56.0573         55.6917         46.1994        -12.6411
           10114         56.6008         56.8443         46.2804        -12.3999
           10115         67.3437         77.3924         42.4357        -3.10886
           10116         56.3822         56.0283         46.9520         12.4624
           10117         73.5108         42.8459         84.8771     439.403E-03
           10118         70.4892         44.0571         81.2856    -720.125E-03
           10119         60.5933         45.2568         67.0809        -7.28896
           10120         59.6730         46.3202         65.6384        -7.00689
           10121         57.3120         55.9238         51.9487         11.0105
           10122         57.4619         58.0217         48.2749         11.6315
           10123         58.1834         52.6556         59.0186         8.89119
           10124         57.5252         50.6751         57.5553        -10.7268
           10125         57.2341         51.2620         56.3116        -11.0090
           10126         57.0151         51.7793         55.2344        -11.2367
           10127         64.4127         47.0956         73.1194        -3.06333
           10128         63.3616         47.6412         71.4061        -4.00201
           10129         62.4252         48.2153         69.7809        -4.73718
           10130         55.9070         56.1153         47.2536        -11.4806
           10131         55.5402         54.9294         47.6002        -11.7806
           10132         59.4478         44.6838         64.4941        -9.30503
           10133         59.4792         45.1631         64.6597        -8.89615
           10134         58.3217         53.4249         59.4469        -7.94158
           10135         60.9578         66.0782         43.7186        -10.4412
           10136         58.9092         49.4704         61.8057        -9.31983
           10137         54.6668         48.3134         51.8207         12.5502
           10138         57.0930         59.4275         47.8233         9.71138
           10139         55.5889         47.1573         55.1265         11.9304
           10140         56.0605         56.0169         48.7827         10.9207
           10141         56.4258         57.3220         48.3706         10.5046
           10142         59.1142         64.1092         45.1417         8.95766
           10143         73.0279         40.9283         84.2240         1.95018
           10144         61.9591         48.9223         69.0930        -4.15888
           10145         55.0168         51.7246         48.6254         12.9372
           10146         63.2508         69.9807         42.7708        -9.43666
           10147         56.4097         57.1487         49.1060         10.1821
           10148         60.3990         44.9626         66.5286        -7.99261
           10149         55.0108         50.9168         50.7442        -12.1439
           10150         58.0660         46.8023         61.7639        -9.25766
           10151         55.5359         52.7023         49.0582         12.7211
           10152         58.6983         46.3041         63.2188        -8.79563
           10153         54.9237         47.0400         53.4035         12.4368
           10154         57.0091         53.1956         53.9810         11.2230
           10155         55.0552         53.5528         47.5695         12.2174
           10156         63.3812         70.3185         43.9643        -8.77734
           10157         59.7902         50.9701         64.3946        -6.12256
           10158         55.5027         51.6614         50.2768         12.6657
           10159         58.0232         47.3425         61.8079        -8.78084
           10160         57.1911         54.7274         53.0491        -11.0268
           10161         57.5410         53.2718         56.1081        -10.2297
           10162         54.8566         53.4884         46.8109        -12.3938
           10163         55.8753         54.9087         46.8983        -12.6854
           10164         57.1740         57.5819         47.6041        -11.9468
           10165         57.7019         58.7165         47.9680        -11.5104
           10166         71.3252         43.7313         82.2975    -567.927E-03
           10167         58.2313         50.5797         59.7215         9.77422
           10168         58.7900         53.5604         61.6004        -5.54586
           10169         54.9911         52.3671         49.0323        -12.1823
           10170         58.5142         52.1991         60.3495         8.31250
           10171         56.1807         54.9437         48.1127        -12.4648
           10172         58.7553         61.5067         46.3966        -11.1082
           10173         58.0115         51.1237         58.8782        -9.91847
           10174         57.9239         53.2029         57.7444         9.35213
           10175         62.1532         68.1808         43.6771        -9.74071
           10176         62.6431         69.0009         43.2251        -9.61237
           10177         63.0370         69.6845         43.5655        -9.23081
           10178         56.5049         53.7896         51.2347         11.9775
           10179         57.1144         57.0453         48.5316        -11.8472
           10180         57.4568         57.2116         50.2866        -11.2004
           10181         56.3875         54.3179         50.0048         12.1763
           10182         4.68883    -108.419E-03         4.63347     25.1621E-03
           10183         5.79502         1.85542         6.49492    -46.4117E-03
           10184         4.60720         3.74115         5.14498     32.5149E-03
           10185         2.84012         1.80157         3.26388     124.844E-03
           10186         2.85476         3.28307         1.78128     122.693E-03
           10187         4.63783         5.21977         3.64331     31.9547E-03
           10188         5.86790         6.54966         1.77411    -46.5007E-03
           10189         4.69253         4.63468    -113.279E-03     24.3612E-03
           10190         8.89400         9.64673         1.78996    -189.012E-03
           10191         7.91702         7.83690    -157.430E-03     35.4351E-03
           10192         7.29731         8.39141         3.71170    -260.784E-03
           10193         17.0884         18.8201         4.38997    -623.106E-03
           10194         16.3133         17.1739         1.88483    -9.59431E-03
           10195         14.4242         15.7336         3.20530    -471.485E-03
           10196         15.4625         17.3812         5.70134        -1.09137
           10197         22.2752         24.9669         7.32365    -827.231E-03
           10198         21.3528         23.3281         4.75093    -16.7819E-03
           10199         19.7112         21.9081         5.76463    -737.184E-03
           10200         20.8544         23.5486         8.33450        -1.54622
           10201         27.2750         30.9920         10.9480    -977.159E-03
           10202         26.2115         29.3917         8.43974    -21.1804E-03
           10203         24.7922         27.9973         9.07100    -910.206E-03
           10204         26.0356         29.5984         11.5776        -1.86433
           10205         32.1782         36.8806         14.9952        -1.07018
           10206         31.0103         35.3386         12.6672    -23.7092E-03
           10207         29.7370         33.9558         12.9351        -1.03225
           10208         31.0517         35.4981         15.2627        -2.07683
           10209         37.0041         42.6074         19.2429        -1.08313
           10210         38.3126         44.0223         21.1201        -2.12816
           10211         39.3862         45.4043         21.4052        -1.06921
           10212         38.1754         43.9891         19.5290    -22.6196E-03
           10213         41.7469         48.1562         23.5753        -1.04690
           10214         42.9916         49.4700         25.1220        -2.05492
           10215         44.0808         50.8572         25.7408        -1.02949
           10216         42.9095         49.5431         24.1948    -20.2900E-03
           10217         46.3877         53.5087         27.8881        -1.02455
           10218         47.5513         54.7179         29.1183        -2.04102
           10219         48.6653         56.1106         30.0007        -1.03739
           10220         47.5645         54.9016         28.7701    -19.3648E-03
           10221         50.9210         58.6740         32.0707        -1.07909
           10222         52.0459         59.8325         33.0035        -2.18338
           10223         53.1507         61.2003         34.0752        -1.12821
           10224         52.0935         60.0444         33.1419    -21.2034E-03
           10225         55.3190         63.6557         35.9819        -1.13958
           10226         56.3662         64.7629         36.5953        -2.13792
           10227         57.4337         66.0535         37.8430        -1.02114
           10228         56.4479         64.9485         37.2319    -24.8745E-03
           10229         59.5011         68.3950         39.6233    -920.274E-03
           10230         60.4557         69.4559         39.9506        -1.78175
           10231         61.4969         70.6550         41.2815    -880.832E-03
           10232         60.5843         69.5942         40.9574    -16.5468E-03
           10233         63.3895         72.8028         42.7972    -843.462E-03
           10234         64.1889         73.7322         42.8217        -1.57250
           10235         65.2359         74.8981         44.2878    -744.488E-03
           10236         64.4708         73.9680         44.2662    -14.0512E-03
           10237         66.9895         76.9023         45.5561    -739.631E-03
           10238         67.6644         77.7339         45.2372        -1.41108
           10239         68.7166         78.8794         46.7955    -683.434E-03
           10240         68.0741         78.0481         47.1141    -10.0578E-03
           10241         71.9673         82.6155         49.0209    -520.670E-03
           10242         71.3761         81.8192         49.4980    -9.39871E-03
           10243         70.3823         80.7950         47.9220    -627.076E-03
           10244         71.0008         81.5925         47.4459        -1.14005
           10245         74.8712         85.9772         50.8125    -373.019E-03
           10246         74.3617         85.2652         51.4105    -4.41442E-03
           10247         73.4694         84.3488         49.9946    -433.810E-03
           10248         73.9966         85.0599         49.3986    -802.707E-03
           10249         77.4377         88.9948         51.9982    -304.101E-03
           10250         77.0276         88.3783         52.8612    -1.09378E-03
           10251         76.1981         87.5317         51.4773    -333.594E-03
           10252         76.6264         88.1484         50.6163    -635.555E-03
           10253         79.7352         91.7063         52.9269    -204.636E-03
           10254         79.3692         91.1419         53.8982    -820.264E-06
           10255         78.6123         90.3849         52.4460    -265.507E-03
           10256         78.9978         90.9505         51.4749    -470.611E-03
           10257         81.7055         94.0365         53.6213    -114.280E-03
           10258         82.0022         94.4820         52.6352    -200.158E-03
           10259         82.5578         95.0516         53.8239    -83.8626E-03
           10260         82.2743         94.6058         54.8109     1.27015E-03
           10261         83.3332         95.9783         53.9499    -59.3309E-03
           10262         83.5671         96.3428         52.8602    -102.086E-03
           10263         84.0316         96.8166         53.9950    -40.0334E-03
           10264         83.8108         96.4517         55.0855     2.40410E-03
           10265         84.6535         97.5664         53.9620    -24.3325E-03
           10266         84.8397         97.8678         52.7000    -37.6882E-03
           10267         85.1966         98.2193         53.9244    -10.9595E-03
           10268         85.0272         97.9174         55.1845     2.71433E-03
           10269         85.6654         98.7744         53.9996    -103.385E-06
           10270         85.8052         99.0017         52.8959     1.71012E-03
           10271         86.0461         99.2230         54.0872     4.85914E-03
           10272         85.9210         98.9949         55.1916     1.58472E-03
           10273         86.3368         99.5658         54.1454     6.07104E-03
           10274         86.3989         99.6916         53.1570     10.1236E-03
           10275         86.5427         99.8090         54.1762     5.17634E-03
           10276         86.4924         99.6835         55.1643     842.821E-06
           10277         86.7078         100.005         54.1849     113.214E-06
           10278         86.6476         99.9833         53.2031    -2.65743E-03
           10279         86.6665         99.9571         54.1621    -2.89882E-03
           10280         86.7379         99.9793         55.1437    -168.581E-06
           10281         86.5663         99.8897         53.1460    -7.40297E-03
           10282         86.5439         99.8130         54.1349    -5.36607E-03
           10283         86.6558         99.8804         55.1507    -632.617E-06
           10284         86.3404         99.5711         54.1270    -6.18776E-03
           10285         86.1598         99.4125         53.0803    -9.53026E-03
           10286         86.0540         99.2295         54.1339    -4.80432E-03
           10287         86.2476         99.3885         55.1800    -1.24840E-03
           10288         85.2447         98.2605         54.1614     7.15923E-03
           10289         85.5142         98.5042         55.1994    -1.50518E-03
           10290         85.6879         98.7920         54.1409    -454.298E-06
           10291         85.4313         98.5485         53.1021     8.65125E-03
           10292         84.1158         96.9077         54.1229     32.6612E-03
           10293         84.4585         97.2314         55.1556    -924.818E-06
           10294         84.7193         97.6302         54.1635     18.0079E-03
           10295         84.3888         97.3065         53.1312     51.9155E-03
           10296         82.6587         95.1751         53.8100     81.5880E-03
           10297         83.0821         95.5753         54.9749     562.124E-06
           10298         83.4297         96.0894         54.0133     52.7028E-03
           10299         83.0201         95.6886         52.8501     134.518E-03
           10300         80.8591         93.0513         53.1734     173.171E-03
           10301         81.3870         93.5443         54.5785     3.30026E-03
           10302         81.7972         94.1582         53.5140     122.469E-03
           10303         81.2904         93.6664         52.1083     294.051E-03
           10304         78.7308         90.5169         52.5643     243.552E-03
           10305         78.0685         89.8433         51.2473     520.319E-03
           10306         77.5596         89.1314         52.1117     280.853E-03
           10307         78.2387         89.8039         53.4304     3.67790E-03
           10308         76.3071         87.6612         51.5171     331.680E-03
           10309         75.5565         86.8935         50.1056     727.366E-03
           10310         74.9661         86.0986         50.7759     401.957E-03
           10311         75.7352         86.8648         52.1904     6.95673E-03
           10312         73.5256         84.4314         49.8826     499.512E-03
           10313         72.6445         83.5161         48.2741         1.09051
           10314         71.9997         82.6694         48.8983     600.736E-03
           10315         72.9109         83.5870         50.5066     12.2090E-03
           10316         70.4092         80.8277         47.9236     638.900E-03
           10317         69.4277         79.7715         46.4185         1.27937
           10318         68.7523         78.9165         46.8569     652.066E-03
           10319         69.7641         79.9738         48.3640     8.96108E-03
           10320         67.0398         76.9530         45.6655     667.854E-03
           10321         66.0252         75.8387         44.2633         1.34731
           10322         65.2660         74.9294         44.3507     690.654E-03
           10323         66.3079         76.0434         45.7536     9.95603E-03
           10324         61.5206         70.6797         41.3675     760.009E-03
           10325         60.5233         69.5434         40.1181         1.55689
           10326         59.5548         68.4563         39.7147     811.070E-03
           10327         60.5837         69.5924         40.9653     13.5141E-03
           10328         58.5795         67.3255         38.5358         1.66100
           10329         57.5343         66.1722         37.9727     866.177E-03
           10330         58.5448         67.3026         39.1526     15.3133E-03
           10331         55.4640         63.8301         36.1469     936.157E-03
           10332         54.5508         62.7156         35.1516         1.95470
           10333         53.3343         61.4143         34.2460         1.03884
           10334         54.2954         62.5264         35.2410     19.9934E-03
           10335         48.9261         56.4001         30.2471         1.13206
           10336         49.8475         57.5007         30.9923     27.8461E-03
           10337         51.1719         58.9545         32.2895         1.14440
           10338         50.3206         57.8515         31.5451         2.25112
           10339         44.2932         51.0951         25.9624         1.10763
           10340         45.2506         52.2490         26.5083     24.2666E-03
           10341         46.6136         53.7607         28.1140         1.10307
           10342         45.7327         52.6065         27.5675         2.18379
           10343         39.5740         45.6105         21.6799         1.23797
           10344         40.5495         46.7895         21.8739     27.0270E-03
           10345         41.9427         48.3738         23.8063         1.15810
           10346         41.0748         47.1924         23.6127         2.36592
           10347         34.7017         39.8804         17.3263         1.23078
           10348         33.6889         38.5629         17.5439         2.35250
           10349         32.2269         36.9403         15.1319         1.15329
           10350         33.4022         38.2607         14.9124     28.9648E-03
           10351         29.7659         33.9961         13.0526         1.10218
           10352         31.0095         35.3383         12.6703     27.1258E-03
           10353         31.1535         35.5989         15.5119         2.22485
           10354         24.7906         28.0280         9.30107         1.03070
           10355         23.5253         26.6647         10.3892         1.95975
           10356         22.2602         25.0034         7.61274     955.218E-03
           10357         23.7887         26.3694         6.52217     25.6991E-03
           10358         19.7209         21.9479         5.89539     782.613E-03
           10359         18.2586         20.5701         7.07953         1.38506
           10360         17.1436         18.8762         4.38476     615.057E-03
           10361         18.8656         20.2590         3.19483     13.3204E-03
           10362         14.4989         15.8077         3.19985     474.915E-03
           10363         12.8728         14.4878         4.74694     826.524E-03
           10364         11.7410         12.7436         2.41183     351.285E-03
           10365         13.6606         14.0687     856.507E-03    -2.17804E-03
           10366         8.82978         9.65377         2.01026     212.300E-03
           10367         10.8629         10.9454     166.931E-03    -12.3525E-03
           10368         10.0803         11.4541         4.23926     578.052E-03
           10369         2.86774         1.79404         3.29793    -121.830E-03
           10370         4.66975         3.67319         5.25434    -27.9432E-03
           10371         5.88171         1.79060         6.56829     48.3547E-03
           10372         4.69244    -113.371E-03         4.63452    -25.7937E-03
           10373         2.85155         3.27666         1.81597    -124.240E-03
           10374         1.77386     453.657E-03         1.88054    -292.955E-03
           10375         1.77500         1.88161     456.235E-03    -294.663E-03
           10376         7.90849    -151.366E-03         7.83149     34.8810E-03
           10377         8.81556         1.95523         9.62178    -204.407E-03
           10378         7.21921         3.95005         8.31381    -279.426E-03
           10379         9.08937         5.71729         10.3699    -748.881E-03
           10380         10.0453         4.12134         11.4008    -556.853E-03
           10381         11.6985         5.91089         13.3177        -1.04475
           10382         10.9368         7.51308         12.2804        -1.24137
           10383         15.8301         13.9672         15.6496        -3.11884
           10384         15.3121         14.3023         14.5168        -2.98834
           10385         13.9104         12.9414         13.4707        -2.50920
           10386         14.4537         12.6075         14.5949        -2.64277
           10387         19.4157         19.5652         15.8215        -4.21901
           10388         19.6372         20.4450         14.9698        -4.06555
           10389         17.5547         18.7999         12.8083        -3.23884
           10390         17.2495         17.9049         13.6938        -3.39723
           10391         24.6231         26.2689         16.8095        -5.00822
           10392         22.5654         24.4906         14.7966        -4.19711
           10393         22.1076         23.3666         15.7845        -4.56171
           10394         24.2515         25.1470         17.7986        -5.37127
           10395         27.7093         30.3238         17.3219        -4.94941
           10396         27.1455         29.1430         18.0079        -5.41860
           10397         29.1536         30.8079         19.9908        -6.24628
           10398         29.6403         31.9889         19.3059        -5.77672
           10399         35.0635         38.8444         21.5619        -5.57391
           10400         35.7479         40.1135         21.2698        -4.81757
           10401         34.1187         38.5856         19.4178        -3.97653
           10402         33.3568         37.3164         19.7095        -4.73230
           10403         38.8280         44.1121         22.7608        -3.98792
           10404         38.0583         42.8426         22.8147        -4.82611
           10405         39.6078         44.2476         24.4315        -5.62930
           10406         40.3155         45.5171         24.3780        -4.79093
           10407         43.8610         49.3413         27.2933        -5.50697
           10408         43.1769         48.1106         27.2500        -6.27339
           10409         44.5095         49.2541         28.5256        -6.98637
           10410         45.1519         50.4850         28.5688        -6.22024
           10411         47.8454         54.0467         30.1379        -5.43732
           10412         47.0658         52.7714         29.8775        -6.17490
           10413         48.1410         53.6487         30.8763        -6.89198
           10414         48.8820         54.9237         31.1313        -6.15153
           10415         49.8022         55.6437         31.9849        -6.85003
           10416         50.6710         57.0078         32.4003        -6.19013
           10417         49.7785         56.2836         31.5510        -5.48897
           10418         57.8189         65.4237         37.0854        -6.15638
           10419         56.5669         63.9005         36.3277        -6.27691
           10420         56.6872         63.6854         36.4946        -7.06927
           10421         57.9299         65.2080         37.2384        -6.96012
           10422         60.1590         68.5253         38.5919        -5.11778
           10423         60.3001         68.4486         38.5321        -5.87762
           10424         61.4871         69.9671         39.2898        -5.49486
           10425         61.3632         70.0428         39.3561        -4.73151
           10426         65.3709         74.9591         42.1481        -3.53170
           10427         65.5522         75.2554         42.7388        -2.79510
           10428         64.0566         73.4928         41.7618        -3.01075
           10429         63.8777         73.1850         41.1795        -3.75406
           10430         67.3467         77.2806         43.0338        -3.51458
           10431         67.1545         76.9880         42.5571        -3.99382
           10432         68.1106         78.1381         43.0385        -3.83472
           10433         68.2929         78.4146         43.5168        -3.35227
           10434         72.3551         83.2710         45.7889        -2.41284
           10435         71.8503         82.6649         45.1100        -2.77370
           10436         72.4076         83.3237         44.8923        -2.90378
           10437         72.9096         83.9313         45.5705        -2.54758
           10438         74.5762         85.9070         46.9108        -1.91033
           10439         75.3411         86.7906         47.8189        -1.55562
           10440         74.9687         86.3172         48.3456        -1.34347
           10441         74.1952         85.4322         47.4375        -1.69805
           10442         76.6771         88.4249         46.3912        -1.86234
           10443         76.5601         88.2738         47.0965        -1.68280
           10444         75.7794         87.3536         46.4673        -1.97818
           10445         75.9026         87.5081         45.7626        -2.15498
           10446         79.7846         92.0617         48.5881    -917.974E-03
           10447         80.3046         92.6443         49.4967    -715.076E-03
           10448         79.8907         92.1237         50.0698    -677.211E-03
           10449         79.3604         91.5366         49.1628    -882.384E-03
           10450         81.7528         94.3072         50.7095    -404.677E-03
           10451         81.1946         93.6885         49.7511    -568.848E-03
           10452         81.4939         94.0662         48.9864    -603.055E-03
           10453         82.0440         94.6845         49.9451    -438.667E-03
           10454         83.2243         96.0960         48.3055    -359.147E-03
           10455         83.0451         95.8797         49.1377    -350.030E-03
           10456         82.5451         95.3062         48.4105    -468.762E-03
           10457         82.7297         95.5230         47.5799    -477.707E-03
           10458         84.2848         97.3111         47.3544    -212.909E-03
           10459         84.2483         97.2804         48.4176    -195.700E-03
           10460         83.8009         96.7621         47.9539    -274.928E-03
           10461         83.8421         96.7951         46.8893    -291.581E-03
           10462         85.2827         98.4677         50.3362    -47.5759E-03
           10463         85.1297         98.2991         49.0875    -75.6277E-03
           10464         85.4782         98.6967         48.4945    -47.3894E-03
           10465         85.6197         98.8645         49.7390    -22.2908E-03
           10466         86.3667         99.7268         49.4997     10.3119E-03
           10467         86.2941         99.6337         48.5832     9.04959E-03
           10468         86.4093         99.7482         47.8012     11.6721E-03
           10469         86.4734         99.8412         48.7178     12.0163E-03
           10470         86.5963         99.9923         49.7208     3.46027E-03
           10471         86.6184         100.016         50.5811     1.51374E-03
           10472         86.6018         99.9856         51.4138     3.92181E-03
           10473         86.5727         99.9634         50.5520     7.19956E-03
           10474         86.5426         99.9272         49.2274    -6.80136E-03
           10475         86.4770         99.8550         49.9557    -13.1755E-03
           10476         86.5302         99.9065         51.1749    -9.02116E-03
           10477         86.5873         99.9810         50.4408    -4.66924E-03
           10478         85.9990         99.2947         48.5326    -347.722E-06
           10479         86.1271         99.4491         49.1812    -1.96579E-03
           10480         86.2594         99.5895         48.3359    -8.85848E-03
           10481         86.1419         99.4407         47.6982    -1.82263E-03
           10482         84.7994         97.9163         49.4029     107.115E-03
           10483         84.9638         98.1054         48.4929     101.881E-03
           10484         84.6436         97.7310         47.8933     150.317E-03
           10485         84.4756         97.5435         48.8002     156.424E-03
           10486         83.6913         96.6254         49.6239     238.144E-03
           10487         83.3876         96.2515         50.3749     240.707E-03
           10488         83.7162         96.6077         51.2235     168.722E-03
           10489         84.0124         96.9816         50.4724     166.329E-03
           10490         82.1354         94.8317         48.1251     556.486E-03
           10491         82.3618         95.0837         49.0036     466.548E-03
           10492         82.7752         95.5713         48.6894     413.895E-03
           10493         82.5488         95.3137         47.8113     503.437E-03
           10494         80.8930         93.3885         47.2636     874.415E-03
           10495         80.2394         92.6255         47.1239         1.01494
           10496         80.3290         92.7079         48.4806     848.949E-03
           10497         80.9815         93.4732         48.6183     714.631E-03
           10498         77.8605         89.7321         49.3957     973.764E-03
           10499         78.2628         90.2477         48.7273         1.09598
           10500         77.5945         89.4853         47.8316         1.37127
           10501         77.1843         88.9690         48.5011         1.24882
           10502         75.9299         87.5279         46.7917         1.85564
           10503         75.3804         86.8827         45.9677         2.18925
           10504         74.8506         86.2483         46.2239         2.15437
           10505         75.4031         86.8921         47.0522         1.82117
           10506         72.5464         83.4814         44.5904         3.05526
           10507         72.9336         83.9578         45.3948         2.64318
           10508         73.7353         84.9178         45.5050         2.53923
           10509         73.3503         84.4445         44.6986         2.94214
           10510         70.6646         81.2676         45.4626         2.37038
           10511         70.8745         81.5000         44.8825         2.85356
           10512         69.6025         79.9629         43.9059         3.34424
           10513         69.3801         79.7321         44.4747         2.85490
           10514         65.3293         74.8994         42.0277         3.62912
           10515         65.8488         75.4421         42.0340         4.03425
           10516         64.9079         74.2267         41.2499         4.60902
           10517         64.3768         73.6838         41.2440         4.20354
           10518         63.0990         71.7993         40.0263         5.71841
           10519         63.5751         72.2650         40.2162         6.01236
           10520         62.7000         71.0543         39.7452         6.50536
           10521         62.2087         70.5779         39.5546         6.21287
           10522         60.6885         68.6745         38.7525         6.49252
           10523         59.7093         67.3914         38.2294         6.79344
           10524         59.5174         67.3754         38.1135         6.27566
           10525         60.5001         68.6469         38.6508         5.97897
           10526         55.6610         62.5105         35.8867         6.97678
           10527         57.0314         64.1895         36.6656         6.86724
           10528         57.0563         63.7588         36.9254         7.76905
           10529         55.7095         62.0854         36.1405         7.88698
           10530         51.4759         57.2002         33.3716         7.59616
           10531         51.6628         56.8661         33.9195         8.43864
           10532         50.1809         55.0238         33.0031         8.51003
           10533         49.9676         55.3488         32.4395         7.66895
           10534         47.4168         51.5153         31.4521         8.67102
           10535         47.2367         50.8138         31.7563         9.20975
           10536         45.7514         49.3035         30.5948         8.84576
           10537         45.9350         50.0091         30.2772         8.29746
           10538         42.7643         45.6322         28.8616         8.76563
           10539         41.6662         44.6184         27.9281         8.39445
           10540         42.0864         45.6819         27.6209         7.81648
           10541         43.1706         46.7008         28.5601         8.18193
           10542         37.4602         40.5635         24.4309         7.11796
           10543         38.8125         41.8419         25.5737         7.56538
           10544         38.8771         41.2554         26.3201         8.21622
           10545         37.4943         39.9692         25.2050         7.75492
           10546         32.4960         33.8683         22.7292         7.35092
           10547         32.4039         34.4712         21.7920         6.78356
           10548         34.1928         36.0928         23.3188         7.40119
           10549         34.3226         35.4875         24.2694         7.97784
           10550         29.5442         28.5802         23.5173         7.63972
           10551         28.2524         27.0186         22.9824         7.32471
           10552         27.2300         26.6886         21.5819         6.81663
           10553         28.5522         28.2617         22.0777         7.14216
           10554         24.3617         23.2455         20.4670         6.05556
           10555         22.4900         22.1519         18.4034         5.29394
           10556         23.3664         23.5687         18.2092         5.41900
           10557         25.1663         24.6525         20.2548         6.18254
           10558         17.2208         15.8569         16.1964         3.63384
           10559         18.6430         17.0286         17.4029         4.12616
           10560         18.7504         16.2671         18.2629         4.10314
           10561         17.3235         15.0961         17.0311         3.61747
           10562         15.2556         10.7134         16.6811         2.47725
           10563         13.2345         9.29935         14.6375         1.87411
           10564         13.4745         11.0383         14.1843         2.24307
           10565         15.5183         12.4563         16.2315         2.85078
           10566         17.0941         4.41680         18.8332     630.982E-03
           10567         16.3128         1.88536         17.1735     9.52959E-03
           10568         14.4304         3.22826         15.7471     476.754E-03
           10569         15.4810         5.75066         17.4080         1.10469
           10570         13.6653     851.353E-03         14.0711     146.069E-06
           10571         11.7917         2.16933         12.7135     307.828E-03
           10572         12.8231         4.53600         14.3997     779.125E-03
           10573         10.8725     153.417E-03         10.9484    -8.90167E-03
           10574         8.90004         1.80137         9.65669     190.936E-03
           10575         10.1110         3.80036         11.4189     514.551E-03
           10576         11.8721         10.2244         12.3952         1.77974
           10577         11.1334         8.37180         12.2619         1.43358
           10578         8.91807         7.43159         9.68673     905.207E-03
           10579         9.79647         9.27758         9.81616         1.23963
           10580         13.0563         14.3817         9.34579         1.88844
           10581         13.1447         13.8292         10.8735         2.13516
           10582         11.1332         11.8586         9.28756         1.54919
           10583         11.0915         12.4105         7.76025         1.30217
           10584         18.9678         19.4881         15.0169         3.96386
           10585         17.9826         18.0753         15.0098         3.77141
           10586         16.6912         17.1915         13.5854         3.26794
           10587         17.7122         18.5913         13.5981         3.46325
           10588         19.9304         22.0193         12.3214         3.25904
           10589         21.4582         23.8965         12.4151         3.26368
           10590         22.6598         24.7169         14.6069         4.09127
           10591         21.2436         22.8534         14.5144         4.08441
           10592         30.5720         32.8834         20.0717         6.06842
           10593         30.7376         33.6788         19.2100         5.43097
           10594         32.5119         35.2670         20.9380         6.14507
           10595         38.1273         41.7014         24.4351         6.74745
           10596         36.4006         39.8077         23.2141         6.46941
           10597         37.1119         40.9717         23.2399         6.07442
           10598         43.2044         47.8702         27.5233         6.71021
           10599         43.2942         47.3963         28.1336         7.52562
           10600         41.8132         45.9138         26.9112         7.10974
           10601         41.7373         46.3836         26.3008         6.29156
           10602         47.5975         54.0515         29.7748         4.71818
           10603         46.9223         52.9429         29.4875         5.48920
           10604         45.6162         51.7282         28.2874         4.76463
           10605         46.3290         52.8371         28.5677         3.99766
           10606         51.0917         57.2729         32.8181         6.65168
           10607         50.1210         56.0000         32.1957         6.89236
           10608         49.6069         55.8136         31.6233         6.07344
           10609         50.5896         57.0834         32.2093         5.83010
           10610         57.3024         64.8477         36.7719         6.07565
           10611         56.3339         63.8787         36.1442         5.64075
           10612         57.1773         65.1615         36.7173         4.74739
           10613         58.1312         66.1349         37.3289         5.18681
           10614         59.6416         68.2803         38.6459         3.65960
           10615         60.5154         69.4094         39.4809         2.94662
           10616         61.3860         70.3356         39.8789         3.45046
           10617         60.5302         69.2067         39.0452         4.16318
           10618         64.7121         74.2380         42.0561         3.15279
           10619         63.7728         73.0563         41.1211         3.78412
           10620         63.0713         72.3137         41.0161         3.28755
           10621         64.0268         73.4955         41.9508         2.65626
           10622         62.0132         70.7376         39.6682         4.97634
           10623         62.5664         71.2788         39.8809         5.35632
           10624         61.7231         70.1123         39.3054         5.91300
           10625         61.1568         69.5686         39.1016         5.52774
           10626         13.6626     854.374E-03         14.0697     1.89149E-03
           10627         14.5033         3.15316         15.7979    -463.217E-03
           10628         12.8600         4.63843         14.4565    -802.176E-03
           10629         11.7421         2.34743         12.7236    -339.110E-03
           10630         14.9732         9.54069         16.6871        -2.15408
           10631         14.5249         10.6417         15.7850        -2.34811
           10632         12.7874         8.97173         14.1654        -1.77535
           10633         13.3353         7.86147         15.0631        -1.58624
           10634         16.1920         12.1979         17.2743        -2.92699
           10635         16.0694         13.2128         16.5414        -3.08693
           10636         14.3424         11.6291         15.0620        -2.50068
           10637         17.7615         17.6298         15.1947        -3.72646
           10638         18.6824         17.7437         16.7167        -4.13762
           10639         20.2736         19.6894         17.3483        -4.61745
           10640         27.8523         25.9382         23.4896        -7.31388
           10641         26.5528         24.6680         22.6655        -6.87824
           10642         27.2471         24.5417         23.9411        -7.17615
           10643         28.5378         25.8116         24.7691        -7.61553
           10644         30.7847         31.3134         22.5692        -7.40539
           10645         30.3072         30.0786         23.1459        -7.62158
           10646         32.5055         31.7571         25.1447        -8.45302
           10647         32.9393         32.9840         24.5727        -8.24089
           10648         33.4714         35.2366         22.9607        -7.31610
           10649         35.3193         36.8096         24.6220        -8.01236
           10650         35.7546         37.9950         24.0990        -7.52010
           10651         33.9465         36.4203         22.4348        -6.82370
           10652         41.5387         44.5071         27.7957        -8.34835
           10653         42.0165         45.6856         27.5101        -7.70765
           10654         40.5416         44.3943         26.1115        -7.07477
           10655         40.0277         43.2158         26.3968        -7.71541
           10656         44.3057         46.8548         30.3576        -9.45941
           10657         43.9233         45.7775         30.7310        -9.93433
           10658         45.1715         46.8113         31.9011        -10.4054
           10659         45.5330         47.8868         31.5272        -9.93107
           10660         47.4830         50.9325         32.0493        -9.41121
           10661         47.9897         52.0926         31.9053        -8.82156
           10662         46.9450         51.2756         30.8530        -8.26120
           10663         46.4113         50.1161         30.9938        -8.85175
           10664         52.6056         57.6463         34.7892        -8.93370
           10665         52.4118         57.8504         34.3018        -8.32835
           10666         51.4063         56.5556         33.7635        -8.43824
           10667         51.6215         56.3561         34.2497        -9.05376
           10668         55.5738         62.2113         35.9247        -7.36082
           10669         55.7945         62.0898         36.2495        -8.05346
           10670         56.8926         63.5702         36.8338        -7.75473
           10671         61.6296         69.9022         39.2235        -6.19709
           10672         60.4086         68.2628         38.6227        -6.68756
           10673         60.7056         68.3824         38.8182        -7.22606
           10674         61.9110         70.0223         39.4090        -6.74024
           10675         63.8496         72.7886         40.4528        -5.37481
           10676         64.9641         74.1859         41.0990        -5.05386
           10677         65.0258         74.4181         41.4307        -4.35866
           10678         63.8996         73.0216         40.7847        -4.68234
           10679         69.7652         80.0923         43.3014        -3.89479
           10680         68.8525         78.9736         42.9543        -4.12411
           10681         68.6277         78.6303         42.4672        -4.57479
           10682         69.5362         79.7493         42.8183        -4.34564
           10683         71.5479         82.2606         43.9747        -3.46013
           10684         70.6277         81.1362         43.6268        -3.72404
           10685         70.4739         80.9105         43.1347        -4.06239
           10686         71.3905         82.0352         43.4805        -3.79508
           10687         73.3377         84.4171         44.2344        -3.14268
           10688         73.5562         84.6710         43.8258        -3.23551
           10689         74.5104         85.8314         44.3292        -2.85963
           10690         74.2876         85.5718         44.7415        -2.76365
           10691         75.6159         87.1583         44.3401        -2.56627
           10692         75.8995         87.4930         43.8849        -2.54660
           10693         76.8118         88.5837         44.3019        -2.21805
           10694         76.5282         88.2507         44.7604        -2.23723
           10695         78.0124         90.0132         45.6772        -1.70399
           10696         78.3285         90.3851         45.3958        -1.65498
           10697         78.7616         90.8956         45.8689        -1.49626
           10698         78.4410         90.5176         46.1546        -1.53928
           10699         81.9697         94.6252         45.8563    -696.968E-03
           10700         81.7229         94.3481         46.2785    -743.184E-03
           10701         81.2246         93.7603         45.5251    -884.468E-03
           10702         81.4740         94.0376         45.1133    -833.701E-03
           10703         82.9680         95.7507         45.2571    -475.007E-03
           10704         82.9783         95.7298         44.4582    -463.039E-03
           10705         83.4425         96.2709         44.7911    -368.256E-03
           10706         83.4325         96.2914         45.5897    -379.604E-03
           10707         83.8830         96.7801         45.0256    -286.734E-03
           10708         83.4585         96.2473         43.9618    -342.580E-03
           10709         83.8985         96.7558         44.1960    -261.091E-03
           10710         85.8459         98.9956         45.0904    -2.79867E-03
           10711         85.6161         98.7469         45.2638    -27.4837E-03
           10712         85.6205         98.7075         44.5062    -14.0382E-03
           10713         85.8534         98.9564         44.3281     13.7091E-03
           10714         86.4522         99.6805         45.1673     28.5972E-03
           10715         86.6126         99.8219         44.5792     32.2138E-03
           10716         86.6253         99.8947         45.5047     22.2105E-03
           10717         86.4721         99.7538         46.0947     18.1362E-03
           10718         86.7133         100.036         46.3029    -2.13723E-03
           10719         86.6768         100.015         46.7425     4.48844E-03
           10720         86.7112         100.011         45.8617     10.1734E-03
           10721         86.7534         100.034         45.4209     3.72424E-03
           10722         86.7590         99.9903         44.6484    -17.7841E-03
           10723         86.6679         99.9478         45.5979    -19.2154E-03
           10724         86.6975         100.002         45.9754    -8.57696E-03
           10725         86.7848         100.044         45.0252    -7.69245E-03
           10726         86.3281         99.5724         45.7176    -17.5175E-03
           10727         86.2185         99.4964         46.7500    -9.98181E-03
           10728         86.3676         99.6841         47.2600    -10.8405E-03
           10729         86.4704         99.7583         46.2267    -18.9170E-03
           10730         85.4317         98.5905         46.3790     55.1072E-03
           10731         85.4147         98.5191         45.2409     48.5047E-03
           10732         85.0494         98.1091         45.2696     92.6204E-03
           10733         85.0693         98.1805         46.4073     100.856E-03
           10734         83.6975         96.6150         46.2769     322.636E-03
           10735         84.0388         97.0172         46.7594     257.875E-03
           10736         84.2637         97.2469         45.8825     220.588E-03
           10737         83.9277         96.8472         45.4105     284.760E-03
           10738         81.9953         94.6268         44.8499     701.741E-03
           10739         81.9349         94.5781         45.5481     713.753E-03
           10740         82.4419         95.1628         45.6702     592.061E-03
           10741         82.5035         95.2112         44.9723     578.826E-03
           10742         80.0293         92.3802         46.0315         1.16862
           10743         80.7968         93.2754         46.2468     955.168E-03
           10744         80.7462         93.2035         45.3086         1.01802
           10745         79.9757         92.3070         45.0928         1.23132
           10746         76.5934         88.3302         45.8684         1.99788
           10747         77.2702         89.1296         46.4718         1.73027
           10748         77.4972         89.4033         45.8731         1.80096
           10749         76.8236         88.6043         45.2599         2.07356
           10750         73.6972         84.8502         44.2199         3.07600
           10751         74.0799         85.3088         44.0399         3.03962
           10752         73.4495         84.5329         43.5425         3.35876
           10753         73.0719         84.0806         43.7324         3.38988
           10754         69.1490         79.2195         42.3960         4.72670
           10755         68.5849         78.4820         42.0811         5.04160
           10756         68.2685         78.1214         42.1144         4.96804
           10757         68.8340         78.8595         42.4329         4.65460
           10758         65.7303         75.0384         41.2624         5.27231
           10759         66.0798         75.3835         41.3060         5.52215
           10760         65.1956         74.1745         40.8220         6.05872
           10761         64.8381         73.8273         40.7819         5.80689
           10762         63.3051         71.5256         40.0968         7.11375
           10763         63.1497         71.1680         40.1874         7.48382
           10764         62.0403         69.6634         39.7739         7.84929
           10765         62.1821         70.0205         39.6759         7.47645
           10766         60.1237         67.1018         38.9678         8.33714
           10767         59.9831         66.6633         39.2212         8.76145
           10768         59.0100         65.3337         38.7970         9.00433
           10769         59.1397         65.7741         38.5438         8.57957
           10770         58.0378         63.9617         38.4229         9.28379
           10771         56.9810         62.4929         37.9546         9.53615
           10772         57.0068         62.8984         37.5608         9.04184
           10773         58.0803         64.3676         38.0303         8.78916
           10774         52.2051         56.3309         35.2996         9.90964
           10775         50.9166         54.5704         34.6563         10.0783
           10776         50.5896         54.8179         33.8782         9.37562
           10777         51.9036         56.5774         34.5233         9.20798
           10778         48.0820         50.2804         33.7237         10.6788
           10779         46.9455         49.2167         32.7300         10.3474
           10780         47.4057         50.2091         32.5863         10.0102
           10781         48.5373         51.2748         33.5829         10.3426
           10782         42.6509         43.1150         31.0922         10.5516
           10783         43.9874         44.9007         31.6718         10.6113
           10784         44.7562         45.0273         32.9238         11.1676
           10785         43.4470         43.2409         32.3403         11.1115
           10786         42.8564         41.3550         33.1761         11.5150
           10787         41.9789         41.1745         31.8257         11.0215
           10788         44.2913         43.4179         33.6824         11.6121
           10789         37.4315         36.2575         28.8998         9.98577
           10790         36.9960         35.1187         29.3154         10.0913
           10791         35.7218         34.0305         28.2671         9.67611
           10792         36.1653         35.1685         27.8424         9.57566
           10793         30.6110         28.6533         25.2251         8.21576
           10794         31.4856         28.7482         26.6147         8.59580
           10795         29.3163         26.5013         25.3269         7.89237
           10796         28.4131         26.3993         23.9308         7.51561
           10797         32.6465         27.4322         29.8076         8.99003
           10798         31.3065         26.6319         28.4347         8.55520
           10799         32.2079         27.9101         28.6281         8.90350
           10800         33.5414         28.7110         30.0011         9.34521
           10801         29.2827         22.7301         28.8431         7.40500
           10802         27.2793         21.2497         27.0340         6.73895
           10803         27.7715         22.5212         26.6885         7.13751
           10804         29.7820         24.0029         28.4982         7.80431
           10805         18.0840         11.7575         19.8825         3.01371
           10806         20.2737         14.0170         21.8135         3.85041
           10807         20.7477         12.8092         22.8917         3.44410
           10808         18.7085         10.5467         20.9622         2.61044
           10809         22.2787         7.33188         24.9721     830.478E-03
           10810         21.3530         4.75012         23.3280     16.7739E-03
           10811         19.7158         5.78453         21.9175     743.898E-03
           10812         20.8655         8.36369         23.5633         1.55602
           10813         20.8756         8.60619         23.5897        -1.65989
           10814         19.7162         5.83376         21.9292    -760.557E-03
           10815         21.3503         4.75044         23.3254    -20.0538E-03
           10816         22.2606         7.52544         24.9884    -918.403E-03
           10817         19.7918         12.1665         21.8990        -3.19159
           10818         21.3725         12.1926         23.8474        -3.17218
           10819         22.6103         14.3933         24.7361        -4.00904
           10820         21.1422         14.3752         22.7883        -4.02603
           10821         24.5650         19.6913         24.2220        -5.94282
           10822         25.7861         20.0427         25.7494        -6.22552
           10823         26.7481         21.3908         26.1163        -6.69540
           10824         25.5663         21.0398         24.5905        -6.41998
           10825         34.2704         31.5251         28.3870        -9.48176
           10826         33.1545         31.0624         26.9810        -9.02715
           10827         32.2648         29.7475         26.8658        -8.82281
           10828         33.3994         30.2051         28.2699        -9.27146
           10829         36.7386         37.2598         26.6825        -9.01215
           10830         36.3881         36.3068         27.0581        -9.24046
           10831         37.8977         37.5633         28.3787        -9.76185
           10832         38.2542         38.5226         28.0191        -9.55150
           10833         41.9214         41.6708         31.2290        -10.7554
           10834         43.3637         43.1070         32.3332        -11.1138
           10835         43.3572         43.7554         31.6879        -10.7657
           10836         41.9076         42.3058         30.5805        -10.4089
           10837         44.8256         45.7822         32.3041        -10.7815
           10838         45.9620         46.7322         33.3881        -11.1675
           10839         46.2931         47.7607         32.9849        -10.7912
           10840         48.7331         50.5060         34.6979        -11.1441
           10841         49.1219         51.5519         34.3811        -10.7349
           10842         48.1194         50.7121         33.3623        -10.3696
           10843         47.7160         49.6659         33.6795        -10.7785
           10844         53.4709         57.7286         36.2453        -10.0866
           10845         54.3473         58.7579         36.8474        -10.1404
           10846         54.6440         59.6600         36.4690        -9.52895
           10847         53.7599         58.6346         35.8691        -9.46379
           10848         57.3269         63.5710         37.4826        -8.62100
           10849         56.8974         63.2881         37.0169        -8.25440
           10850         56.2054         62.2303         36.7975        -8.60817
           10851         56.6488         62.5178         37.2735        -8.97317
           10852         64.5706         73.1168         40.6155        -6.91260
           10853         63.6329         71.8203         40.3631        -7.31891
           10854         63.7004         71.7952         40.5232        -7.53753
           10855         64.6339         73.0943         40.7783        -7.13102
           10856         67.4179         76.8429         41.4639        -5.98034
           10857         66.5643         75.7106         41.2738        -6.32585
           10858         66.3254         75.3567         41.2451        -6.51580
           10859         67.1739         76.4887         41.4328        -6.17186
           10860         70.0297         80.2763         42.3479        -4.69274
           10861         69.0276         79.0024         42.0900        -5.06860
           10862         68.8098         78.6850         41.8355        -5.32541
           10863         69.8083         79.9609         42.0877        -4.94801
           10864         72.6248         83.5029         42.5388        -3.83787
           10865         72.5971         83.4717         42.7676        -3.81399
           10866         71.7437         82.4094         42.5771        -4.15481
           10867         71.7698         82.4397         42.3511        -4.17966
           10868         75.1817         86.6251         43.1612        -2.84792
           10869         74.3057         85.5651         42.9408        -3.17647
           10870         74.3641         85.6375         42.5834        -3.14223
           10871         75.2410         86.6961         42.8036        -2.81345
           10872         78.8932         91.0232         43.8294        -1.56948
           10873         78.8060         90.9333         44.4284        -1.59754
           10874         77.8470         89.8036         44.0499        -1.90751
           10875         77.9314         89.8926         43.4548        -1.87715
           10876         80.2626         92.5631         42.6994        -1.05111
           10877         80.4439         92.7984         43.3777        -1.07013
           10878         79.6249         91.8546         43.2732        -1.30855
           10879         79.4371         91.6147         42.5952        -1.29049
           10880         82.5246         95.0911         42.2472    -406.464E-03
           10881         82.0488         94.5532         42.1758    -499.336E-03
           10882         82.0468         94.5129         41.6294    -411.659E-03
           10883         82.5240         95.0507         41.7009    -319.676E-03
           10884         83.9896         96.6940         41.8706    -81.4591E-03
           10885         84.4320         97.1888         41.9228    -17.1420E-03
           10886         84.3909         97.2044         42.6625    -94.8707E-03
           10887         83.9503         96.7097         42.6103    -158.685E-03
           10888         85.8196         98.8162         42.9642     51.7837E-03
           10889         85.8925         98.9424         43.5292     42.4513E-03
           10890         85.6423         98.6895         43.8778     5.21723E-03
           10891         85.5611         98.5572         43.3154     18.1546E-03
           10892         86.7623         99.8214         42.5329     76.5699E-03
           10893         86.5588         99.6368         42.9785     71.5887E-03
           10894         86.5056         99.5061         42.1973     109.056E-03
           10895         86.7131         99.6902         41.7512     114.606E-03
           10896         86.8942         100.001         42.8967     42.2750E-03
           10897         86.9816         100.061         42.5060     27.8614E-03
           10898         86.9295         100.075         43.2984     9.67572E-03
           10899         86.8449         100.014         43.6889     23.9364E-03
           10900         86.9845         100.066         42.5235    -32.9918E-03
           10901         86.9593         100.075         42.9158    -7.35207E-03
           10902         87.0676         100.117         42.1046     5.05262E-03
           10903         87.0960         100.107         41.7119    -20.6543E-03
           10904         86.7310         99.7735         42.3916    -82.1397E-03
           10905         86.9246         99.9187         41.7103    -93.2225E-03
           10906         86.8777         99.8079         41.1596    -130.140E-03
           10907         86.6817         99.6651         41.8434    -116.422E-03
           10908         85.3345         98.2882         43.0975    -5.48132E-03
           10909         84.8826         97.8014         43.3136     59.6511E-03
           10910         84.9559         97.9498         44.2998     89.2865E-03
           10911         85.4035         98.4371         44.0844     26.7791E-03
           10912         83.1848         95.8741         42.8864     329.605E-03
           10913         83.2800         96.0304         43.6824     367.149E-03
           10914         83.8907         96.7103         43.5790     237.338E-03
           10915         83.7996         96.5545         42.7846     200.945E-03
           10916         81.9328         94.4501         42.6070     592.038E-03
           10917         81.7479         94.2785         43.2743     697.762E-03
           10918         82.4275         95.0598         43.5193     553.704E-03
           10919         82.6109         95.2279         42.8496     447.479E-03
           10920         80.1127         92.4469         44.2613         1.20520
           10921         79.3450         91.5491         43.9017         1.43523
           10922         79.2091         91.4091         44.7281         1.46130
           10923         76.6959         88.4335         43.2307         2.30439
           10924         77.0426         88.8405         42.8890         2.13966
           10925         76.2638         87.9166         42.5229         2.38767
           10926         75.9204         87.5104         42.8655         2.55350
           10927         74.2497         85.4954         42.9799         3.20761
           10928         74.6771         86.0172         42.7281         3.02051
           10929         73.6580         84.7823         42.2604         3.38938
           10930         73.2389         84.2647         42.5049         3.57775
           10931         71.1155         81.6165         42.1393         4.46102
           10932         71.0879         81.5897         42.0096         4.44770
           10933         70.1640         80.4178         41.8387         4.83241
           10934         70.1943         80.4467         41.9674         4.84547
           10935         68.3120         78.0699         41.7919         5.40836
           10936         68.5247         78.3139         41.7846         5.44478
           10937         67.8698         77.4456         41.5752         5.76805
           10938         67.6554         77.2000         41.5829         5.72934
           10939         64.7859         73.2843         40.8262         7.11270
           10940         64.0282         72.3251         40.5160         7.24502
           10941         64.6532         73.2651         40.6212         6.78959
           10942         65.4196         74.2253         40.9269         6.66145
           10943         61.8245         69.1979         39.9361         8.21625
           10944         62.6776         70.3624         40.2595         7.94864
           10945         62.3541         69.7742         40.4373         8.28473
           10946         61.5117         68.6094         40.1153         8.55353
           10947         58.8791         64.4000         40.0430         9.91145
           10948         58.0445         63.1053         39.8278         10.2304
           10949         58.0143         63.3157         39.3357         10.0007
           10950         58.8614         64.6109         39.5520         9.68207
           10951         57.3640         61.7133         40.3063         10.7227
           10952         57.2182         61.7645         39.6981         10.5682
           10953         58.1798         63.0559         40.4363         10.3841
           10954         52.0437         54.0830         37.4635         11.6361
           10955         53.0623         55.6711         37.7899         11.4320
           10956         53.2877         55.3952         38.6966         11.7917
           10957         52.2920         53.8070         38.3698         11.9943
           10958         50.5246         50.8616         37.9380         12.3305
           10959         50.1395         51.0275         36.9346         11.9817
           10960         51.0265         52.4678         37.1518         11.8300
           10961         51.3825         52.2948         38.1614         12.1760
           10962         48.5508         48.2961         36.7001         12.2508
           10963         48.0476         47.2490         36.8153         12.3858
           10964         47.0989         46.4837         35.7596         12.1252
           10965         47.5994         47.5185         35.6433         11.9855
           10966         44.8582         42.3239         35.8151         12.3025
           10967         44.0662         42.0833         34.6199         11.9612
           10968         44.9749         43.4744         34.8584         12.0146
           10969         45.7400         43.7027         36.0531         12.3560
           10970         42.8885         39.5880         35.0023         12.0100
           10971         42.7152         38.5741         35.7036         12.0984
           10972         41.3889         37.4053         34.5313         11.7350
           10973         41.5658         38.4166         33.8334         11.6468
           10974         36.3997         31.5305         31.9011         10.3108
           10975         36.7726         31.2861         32.7786         10.4000
           10976         35.6449         30.1445         32.0355         10.0215
           10977         35.2581         30.3921         31.1719         9.91879
           10978         32.0930         26.3941         29.9259         8.71056
           10979         34.0862         28.4465         31.1681         9.44872
           10980         33.5390         27.4077         31.2829         9.17349
           10981         29.1624         21.7741         29.4700         7.06012
           10982         31.2930         24.2991         30.6082         8.07669
           10983         31.1571         23.3438         31.2353         7.73177
           10984         25.3397         16.1318         27.6173         4.64281
           10985         25.9094         15.2352         28.7618         4.08806
           10986         24.0526         13.0663         27.0018         3.24114
           10987         23.3610         13.9631         25.8569         3.79612
           10988         27.2795         10.9489         30.9970     976.935E-03
           10989         26.2120         8.43735         29.3916     21.0888E-03
           10990         24.7984         9.07605         28.0047     911.610E-03
           10991         26.0462         11.5862         29.6108         1.86544
           10992         23.4914         10.1830         26.6250        -1.86066
           10993         23.7914         6.51698         26.3707    -23.1848E-03
           10994         24.7855         9.17490         28.0050    -966.719E-03
           10995         25.1292         12.5484         28.4314        -2.73494
           10996         26.0089         11.6670         29.5657        -1.92849
           10997         27.5173         13.8364         31.2238        -2.76013
           10998         26.7832         14.7386         30.0866        -3.57512
           10999         28.5915         17.8095         31.3275        -5.05991
           11000         29.9487         19.4010         32.3949        -5.76165
           11001         29.2815         19.6737         31.2234        -6.04788
           11002         27.8828         18.0956         30.1600        -5.35822
           11003         28.6015         21.3009         28.9834        -6.87151
           11004         29.4263         22.7280         29.0827        -7.40571
           11005         28.0491         22.0686         27.5008        -7.07910
           11006         27.1890         20.6384         27.3904        -6.54107
           11007         38.0173         33.2934         32.8795        -10.8085
           11008         39.0547         33.7367         34.1717        -11.1391
           11009         39.8667         35.0623         34.2493        -11.3700
           11010         38.8511         34.6125         32.9540        -11.0459
           11011         41.4082         37.4847         34.4982        -11.7270
           11012         40.7581         37.3209         33.5194        -11.4861
           11013         39.7139         35.8964         33.1485        -11.2506
           11014         40.4008         36.0839         34.1337        -11.4999
           11015         43.9840         42.8077         33.7371        -11.6635
           11016         43.8823         41.9718         34.3973        -11.8963
           11017         45.1718         43.1271         35.5794        -12.2350
           11018         45.2666         43.9589         34.9194        -12.0046
           11019         47.4137         45.9304         36.9664        -12.5143
           11020         48.1727         46.7290         37.6178        -12.6459
           11021         48.1226         47.3366         36.8768        -12.3929
           11022         47.3598         46.5343         36.2157        -12.2639
           11023         51.7216         52.3661         38.8497        -12.3561
           11024         51.0397         51.9025         37.8498        -12.1528
           11025         50.3629         50.4221         38.1175        -12.4238
           11026         51.0619         50.8888         39.1259        -12.6211
           11027         54.3898         57.2735         38.8707        -11.4502
           11028         55.0019         58.4328         38.8152        -11.1397
           11029         54.4496         57.9885         38.0330        -10.9705
           11030         53.8289         56.8212         38.1032        -11.2860
           11031         57.4417         61.9720         40.0393        -10.6018
           11032         56.5853         60.5317         39.9564        -10.9533
           11033         56.6841         60.3851         40.5896        -11.1088
           11034         57.5246         61.8249         40.6713        -10.7565
           11035         62.7654         70.1980         41.2824        -8.27523
           11036         61.9228         68.9010         41.3075        -8.69698
           11037         61.8795         68.8003         41.6915        -8.67542
           11038         62.7167         70.0976         41.6692        -8.25232
           11039         65.5427         74.2767         41.1224        -6.88473
           11040         65.6442         74.3880         41.2623        -6.89022
           11041         66.4291         75.4709         41.3793        -6.52319
           11042         69.4798         79.5314         41.7711        -5.14729
           11043         68.8847         78.7718         41.7032        -5.35389
           11044         69.3784         79.4324         41.7257        -5.07251
           11045         69.9737         80.1869         41.7983        -4.86357
           11046         73.2729         84.3364         41.9165        -3.38557
           11047         73.2741         84.3617         41.6887        -3.22368
           11048         74.3121         85.6113         41.7465        -2.84063
           11049         74.3035         85.5830         41.9792        -3.00018
           11050         76.9012         88.6662         41.5268        -1.79297
           11051         76.9370         88.7074         41.8690        -1.94723
           11052         76.0936         87.7218         41.8400        -2.22329
           11053         76.0541         87.6805         41.4978        -2.06890
           11054         79.2838         91.3962         41.5176        -1.07946
           11055         78.5086         90.5145         41.5307        -1.29802
           11056         78.4828         90.4691         41.0725        -1.11692
           11057         79.2643         91.3534         41.0578    -898.350E-03
           11058         84.1435         96.7352         40.5066     148.222E-03
           11059         84.6244         97.2637         40.5072     199.336E-03
           11060         84.5195         97.2190         41.2019     73.3105E-03
           11061         84.0418         96.6917         41.2004     22.1188E-03
           11062         86.2634         98.9741         39.7846     327.635E-03
           11063         86.0019         98.6599         39.5555     389.527E-03
           11064         86.2328         98.8558         39.1251     443.314E-03
           11065         86.4839         99.1598         39.3557     379.501E-03
           11066         86.7198         99.6365         41.1758     149.904E-03
           11067         86.5602         99.4408         40.9905     185.771E-03
           11068         86.7379         99.5460         40.2204     229.748E-03
           11069         86.8963         99.7421         40.4113     191.843E-03
           11070         87.2407         100.144         40.6213     63.0029E-03
           11071         87.0841         100.025         41.0791     85.5680E-03
           11072         87.1205         99.9919         40.4486     135.998E-03
           11073         87.2799         100.110         39.9924     112.622E-03
           11074         87.0451         99.8645         40.0807    -189.263E-03
           11075         87.2196         100.043         39.9851    -144.325E-03
           11076         87.3398         100.097         39.3924    -178.631E-03
           11077         87.1616         99.9157         39.4879    -226.519E-03
           11078         84.6123         97.2940         40.9265    -125.512E-03
           11079         85.0969         97.7954         40.6273    -209.438E-03
           11080         85.0123         97.6325         39.9999    -308.867E-03
           11081         84.5245         97.1319         40.3020    -223.465E-03
           11082         83.3417         95.8689         40.6741    -15.8007E-03
           11083         83.4345         96.0302         41.3109     89.4210E-03
           11084         84.0976         96.7474         41.1377    -36.0805E-03
           11085         84.0089         96.5864         40.5004    -142.422E-03
           11086         82.6677         95.1236         40.6653     66.3432E-03
           11087         81.8703         94.2300         40.5439     180.299E-03
           11088         81.6687         94.0578         41.1821     383.709E-03
           11089         82.4638         94.9527         41.3071     268.145E-03
           11090         79.2628         91.3740         41.5450         1.08408
           11091         78.5468         90.5558         41.4787         1.27740
           11092         78.4424         90.4507         41.9253         1.45113
           11093         79.1553         91.2691         41.9910         1.25706
           11094         76.4513         88.1414         41.8070         2.08179
           11095         76.9451         88.7175         41.9746         1.97992
           11096         77.2296         89.0479         41.7789         1.80008
           11097         76.7381         88.4761         41.6128         1.90088
           11098         74.6443         86.0331         41.3990         2.44112
           11099         75.0262         86.4718         41.5578         2.45531
           11100         75.6194         87.1770         41.4057         2.13377
           11101         75.2420         86.7439         41.2469         2.11904
           11102         70.5364         80.9482         41.7467         4.44633
           11103         69.5445         79.6780         41.7083         4.88218
           11104         69.8960         80.0933         41.7792         4.87298
           11105         70.8917         81.3660         41.8169         4.43576
           11106         66.3930         75.4811         41.7535         6.29491
           11107         66.8083         76.0097         41.6446         6.24473
           11108         67.7252         77.2670         41.6737         5.76795
           11109         67.3056         76.7411         41.7832         5.81648
           11110         64.9817         73.4681         41.1112         7.19484
           11111         65.7085         74.4768         41.3013         6.85569
           11112         65.1662         73.7018         41.4194         7.11331
           11113         64.4475         72.6909         41.2296         7.45315
           11114         61.9698         68.9463         41.6363         8.63619
           11115         61.3060         67.8716         41.8818         8.95121
           11116         60.9032         67.2494         41.6010         9.19621
           11117         61.5567         68.3208         41.3556         8.88175
           11118         57.5985         61.8191         41.0071         10.7924
           11119         58.3257         63.0958         40.9878         10.4398
           11120         58.5152         63.2156         41.6326         10.4302
           11121         57.7940         61.9387         41.6514         10.7817
           11122         56.1423         59.1710         41.0759         11.4605
           11123         55.5383         57.9229         41.2961         11.7766
           11124         55.0248         57.4561         40.4047         11.7682
           11125         55.6359         58.7009         40.2005         11.4497
           11126         53.3523         54.9346         39.5003         12.0874
           11127         53.4966         54.5710         40.4191         12.3276
           11128         52.6918         53.1184         40.2749         12.5451
           11129         52.5156         53.4673         39.3589         12.3075
           11130         51.8831         51.4953         40.3580         12.7746
           11131         50.9276         49.8355         40.0840         12.9218
           11132         50.6343         50.2839         38.8686         12.6367
           11133         51.6316         51.9497         39.1520         12.4914
           11134         49.0554         46.5744         39.6220         13.0732
           11135         48.5120         46.4543         38.6133         12.8864
           11136         49.4305         48.1485         38.6826         12.7967
           11137         49.9506         48.2610         39.6897         12.9889
           11138         44.9811         41.0288         37.3546         12.6119
           11139         46.0185         42.3895         37.9239         12.7826
           11140         46.3640         42.0891         38.8955         12.9401
           11141         45.3428         40.7305         38.3283         12.7680
           11142         41.3538         36.4293         35.4416         11.8046
           11143         39.5477         34.8160         33.9376         11.2794
           11144         39.5875         35.7948         33.0298         11.2135
           11145         38.2828         32.5795         34.0268         10.8766
           11146         38.1829         31.7964         34.6388         10.7776
           11147         36.6656         30.4902         33.3859         10.2962
           11148         37.1762         26.8565         37.8171         9.06097
           11149         36.9004         27.3894         36.8406         9.36789
           11150         38.6996         29.0035         38.2912         10.0136
           11151         38.9512         28.4702         39.2686         9.70571
           11152         33.7292         22.9874         35.6255         7.28020
           11153         35.6108         24.6822         37.2345         7.99043
           11154         35.9526         24.1624         38.2672         7.50596
           11155         34.1112         22.4676         36.6583         6.79649
           11156         32.7658         20.1513         36.1685         5.42236
           11157         33.4129         19.7220         37.3940         4.71305
           11158         31.6970         17.7594         35.7744         3.86569
           11159         30.9649         18.1893         34.5490         4.57408
           11160         32.1824         14.9936         36.8852         1.06779
           11161         31.0108         12.6638         35.3386     23.4939E-03
           11162         29.7441         12.9354         33.9637         1.03019
           11163         31.0620         15.2649         35.5108         2.07248
           11164         33.5132         17.1911         38.3932         2.12789
           11165         34.6040         17.1030         39.7687         1.08589
           11166         33.4033         14.9057         38.2610     23.8168E-03
           11167         28.6216         10.4962         32.3878    -29.8501E-03
           11168         29.6644         12.9664         33.8750        -1.09118
           11169         28.4520         13.4055         32.4364        -2.04255
           11170         27.2409         10.9388         30.9528    -986.702E-03
           11171         29.6082         15.1713         33.6733        -2.79593
           11172         31.1105         15.8433         35.4847        -2.57428
           11173         31.8880         17.7820         36.0569        -3.72848
           11174         30.4311         17.0799         34.2450        -3.93751
           11175         33.2125         21.4037         36.0510        -6.24230
           11176         31.2371         20.0244         33.9197        -5.87251
           11177         30.5773         18.3502         33.9076        -4.85544
           11178         32.5325         19.7449         36.0343        -5.21292
           11179         36.3079         25.7466         37.4071        -8.54776
           11180         36.6855         27.0640         36.7960        -9.22431
           11181         34.3972         25.3931         34.5770        -8.57921
           11182         34.0231         24.0647         35.1827        -7.90149
           11183         38.5933         30.5907         36.5231        -10.5985
           11184         39.0275         31.8571         36.0055        -10.9378
           11185         37.2440         30.6561         34.1874        -10.4338
           11186         36.7962         29.3895         34.7018        -10.0974
           11187         43.0297         35.5962         39.2223        -12.1414
           11188         41.8704         34.6064         38.1748        -11.8223
           11189         41.8218         33.9098         38.7839        -11.6925
           11190         42.9761         34.8971         39.8274        -12.0107
           11191         44.7575         39.7907         38.1894        -12.6635
           11192         44.7162         39.0155         38.8802        -12.6833
           11193         45.8084         40.1431         39.7965        -12.9194
           11194         45.8539         40.9163         39.1059        -12.9001
           11195         47.3698         45.1947         37.6421        -12.7231
           11196         47.1902         44.3054         38.2285        -12.8615
           11197         48.1173         45.1183         39.2274        -13.0474
           11198         48.2924         46.0102         38.6414        -12.9094
           11199         49.8909         49.3170         38.3470        -12.6175
           11200         49.3375         48.1873         38.4447        -12.7375
           11201         49.8864         48.4796         39.3028        -12.8977
           11202         50.4252         49.6044         39.1958        -12.7811
           11203         53.4661         55.5403         38.9526        -11.8326
           11204         53.9217         55.7252         39.8906        -12.0263
           11205         54.8179         57.4464         39.8134        -11.6469
           11206         59.8414         65.4021         42.2966        -9.67543
           11207         59.0972         64.1115         42.1564        -10.1282
           11208         58.7060         63.3084         42.8484        -10.2489
           11209         59.4271         64.5962         42.9891        -9.79431
           11210         60.5679         66.6208         42.6213        -9.18387
           11211         61.0074         67.3770         42.2119        -9.02784
           11212         60.2662         66.1583         41.8908        -9.51637
           11213         64.2909         72.4892         41.8816        -7.31507
           11214         63.4869         71.2853         41.9500        -7.73743
           11215         63.3813         71.1733         42.2403        -7.60877
           11216         64.1841         72.3780         42.1704        -7.18543
           11217         67.8575         77.6043         41.8967        -5.10694
           11218         68.6159         78.6160         41.8354        -4.70444
           11219         68.8943         78.9115         41.7495        -4.86130
           11220         68.1352         77.8987         41.8074        -5.26269
           11221         70.2462         80.6877         41.6498        -4.08040
           11222         70.7370         81.3195         41.5988        -3.79453
           11223         71.1032         81.7445         41.6001        -3.80859
           11224         70.6126         81.1144         41.6509        -4.09391
           11225         73.5117         84.7061         41.3215        -2.68051
           11226         72.7437         83.7896         41.3890        -2.93620
           11227         72.6831         83.7519         41.2588        -2.68721
           11228         73.4524         84.6659         41.1938        -2.42971
           11229         76.0122         87.6583         40.4656        -1.08917
           11230         75.1305         86.6570         40.6194        -1.31329
           11231         75.2353         86.7846         40.3857    -938.359E-03
           11232         76.1240         87.7869         40.2311    -716.604E-03
           11233         81.0334         93.2595         40.0433    -98.3077E-03
           11234         80.8947         93.1465         40.5409    -347.670E-03
           11235         80.1581         92.3234         40.5038    -447.719E-03
           11236         80.2907         92.4336         40.0117    -193.645E-03
           11237         82.5051         94.8809         40.0052     92.4016E-03
           11238         81.9817         94.2896         39.8602     104.208E-03
           11239         82.3470         94.6333         39.3138     358.160E-03
           11240         82.8701         95.2231         39.4555     343.641E-03
           11241         84.2249         96.7616         39.9265     288.329E-03
           11242         84.2527         96.7185         39.3007     452.966E-03
           11243         84.8741         97.3708         39.0930     519.311E-03
           11244         84.8405         97.4120         39.7216     355.421E-03
           11245         87.8903         100.480         37.8894     48.0683E-03
           11246         87.7174         100.389         38.5402    -39.1964E-03
           11247         87.5904         100.314         38.9809     16.8473E-03
           11248         87.7524         100.396         38.3258     105.085E-03
           11249         87.5109         100.182         38.6583    -212.856E-03
           11250         87.6650         100.248         37.9737    -284.618E-03
           11251         87.4625         100.044         38.0752    -367.994E-03
           11252         87.3107         99.9784         38.7586    -294.741E-03
           11253         86.7686         99.3871         38.7462    -443.778E-03
           11254         86.4065         99.0128         38.8875    -469.549E-03
           11255         86.3289         99.0257         39.6270    -351.148E-03
           11256         86.6874         99.3987         39.4864    -328.462E-03
           11257         85.4662         98.0846         39.6304    -388.982E-03
           11258         85.3092         97.8447         39.0883    -505.482E-03
           11259         84.8530         97.3932         39.4554    -428.170E-03
           11260         83.0238         95.3800         39.3553    -397.980E-03
           11261         82.2507         94.5326         39.3573    -327.898E-03
           11262         82.0203         94.3423         39.9630    -66.3754E-03
           11263         82.7909         95.1910         39.9608    -136.139E-03
           11264         80.2633         92.4088         40.0806     218.457E-03
           11265         81.1956         93.4318         39.9642     55.7393E-03
           11266         81.2840         93.4763         39.4224    -265.140E-03
           11267         80.3404         92.4477         39.5447    -102.296E-03
           11268         77.6037         89.4488         40.2361     675.790E-03
           11269         78.3513         90.2752         40.0190     417.270E-03
           11270         77.9354         89.7992         39.8137     214.330E-03
           11271         77.1805         88.9674         40.0385     474.668E-03
           11272         73.2805         84.4559         41.2351         2.54582
           11273         74.1286         85.4600         41.1160         2.22832
           11274         74.0523         85.3938         40.9789         1.97572
           11275         73.1986         84.3884         41.0993         2.29352
           11276         72.7933         83.8255         41.4746         3.08980
           11277         71.9576         82.7930         41.5514         3.50496
           11278         72.4445         83.3469         41.7074         3.56757
           11279         73.2806         84.3800         41.6319         3.14914
           11280         69.1497         79.2105         41.7409         4.87833
           11281         70.0791         80.4209         41.6782         4.40818
           11282         69.6315         79.9056         41.7190         4.34883
           11283         68.7051         78.6961         41.7819         4.81899
           11284         66.0199         75.0156         41.9685         6.27759
           11285         64.9698         73.5122         41.9807         6.84936
           11286         65.3347         73.9761         41.7591         6.86800
           11287         63.1584         70.7752         41.6432         8.02089
           11288         63.8735         71.8356         41.4107         7.73269
           11289         64.5327         72.8157         41.6407         7.31403
           11290         63.8057         71.7580         41.8735         7.60107
           11291         60.3250         66.2102         42.8546         9.24150
           11292         59.7822         65.2422         43.2931         9.44476
           11293         59.2800         64.3436         42.9724         9.87238
           11294         59.8062         65.3098         42.5327         9.66418
           11295         57.9127         61.6537         43.6475         10.6244
           11296         58.4262         62.6828         43.5990         10.2717
           11297         58.2487         62.2554         44.2640         10.2232
           11298         57.7460         61.2252         44.3119         10.5757
           11299         56.8859         59.5237         43.8687         11.2502
           11300         57.3436         60.5041         43.7470         10.9638
           11301         57.2995         60.2599         44.4038         10.8943
           11302         56.8509         59.2786         44.5227         11.1810
           11303         53.9430         52.9324         44.2682         12.8005
           11304         53.6768         52.9603         43.3528         12.8183
           11305         54.2660         54.3981         43.0855         12.5573
           11306         54.5091         54.3735         43.9971         12.5340
           11307         51.8354         49.2720         42.9721         13.2904
           11308         52.4933         50.1931         43.6125         13.2061
           11309         52.4500         49.3217         44.5350         13.3110
           11310         51.8009         48.4078         43.9003         13.3903
           11311         49.6910         46.2174         41.3823         13.3321
           11312         49.6309         45.5375         41.9783         13.4037
           11313         48.7398         44.5119         41.1505         13.3240
           11314         48.8020         45.1959         40.5671         13.2506
           11315         48.0953         42.6973         41.6859         13.3199
           11316         48.4287         42.2724         42.7824         13.3736
           11317         47.4715         40.9740         42.1578         13.2258
           11318         47.1238         41.3993         41.0618         13.1734
           11319         43.8388         35.0856         41.1857         12.1052
           11320         44.8317         35.9880         42.0810         12.3604
           11321         44.7995         35.3801         42.6208         12.2016
           11322         43.7963         34.4676         41.7196         11.9381
           11323         42.4508         30.7825         43.0331         10.4456
           11324         42.6155         30.1484         43.9979         9.96334
           11325         41.0436         28.7467         42.6304         9.42224
           11326         40.8555         29.3775         41.6671         9.90061
           11327         38.0850         25.3089         40.8465         7.64355
           11328         36.3585         23.7066         39.3295         6.96404
           11329         37.7176         25.7643         39.7839         8.18664
           11330         37.4080         23.0074         41.6308         5.61867
           11331         38.0728         22.8170         42.8654         4.81470
           11332         36.5133         21.0871         41.3934         4.00016
           11333         35.7801         21.2780         40.1589         4.80362
           11334         37.0053         19.2409         42.6087         1.08087
           11335         38.3128         21.1194         44.0231         2.12484
           11336         39.3856         21.4039         45.4037         1.06797
           11337         38.1756         19.5264         43.9891     22.4208E-03
           11338         37.3635         21.0194         42.7040         3.06611
           11339         35.9303         19.1440         41.2320         2.14161
           11340         34.9889         19.2126         39.9214         3.07545
           11341         35.7843         17.2098         41.1376    -28.9271E-03
           11342         37.1521         19.4265         42.7772        -1.15654
           11343         36.2694         19.6595         41.5772        -2.42902
           11344         34.7563         17.4336         39.9404        -1.30884
           11345         38.1755         19.5336         43.9896    -23.4346E-03
           11346         39.5154         21.5185         45.5554        -1.06602
           11347         38.5976         21.4150         44.3430        -2.19621
           11348         38.2292         24.9921         41.3719        -7.28486
           11349         37.8091         23.9566         41.5747        -6.40675
           11350         39.3638         25.1226         43.2274        -6.72672
           11351         39.7954         26.1643         43.0282        -7.60446
           11352         41.0020         28.3140         43.0209        -9.06967
           11353         39.6232         27.5245         41.3540        -8.95353
           11354         38.8556         26.3050         41.2423        -8.20064
           11355         40.2547         27.0908         42.9117        -8.31915
           11356         42.7288         31.8693         42.4406        -10.9765
           11357         43.5478         31.8898         43.8536        -10.8750
           11358         44.7938         33.2834         44.6903        -11.3860
           11359         44.0165         33.2830         43.2885        -11.4974
           11360         44.1728         36.0866         40.7891        -12.3448
           11361         45.1793         37.1890         41.5441        -12.6124
           11362         44.9447         37.7213         40.5840        -12.6617
           11363         43.9281         36.6238         39.8277        -12.3932
           11364         47.8060         40.9925         42.8004        -13.2621
           11365         47.7448         41.6110         42.0661        -13.2784
           11366         46.8481         40.5654         41.3587        -13.1197
           11367         46.9171         39.9448         42.0943        -13.1041
           11368         48.5669         41.9478         43.3719        -13.3835
           11369         49.3495         42.8685         44.0912        -13.4630
           11370         49.4075         43.5772         43.5027        -13.4829
           11371         48.6182         42.6666         42.7826        -13.3956
           11372         49.9064         47.0615         40.9375        -13.2485
           11373         49.9667         47.6886         40.3639        -13.1418
           11374         49.0482         46.5882         39.5864        -13.0696
           11375         48.9920         45.9569         40.1687        -13.1742
           11376         51.5350         50.4769         40.7452        -12.9674
           11377         52.3407         51.8104         41.1164        -12.8443
           11378         52.3075         52.4012         40.2430        -12.6421
           11379         51.4748         51.0666         39.8909        -12.7497
           11380         54.3420         55.0395         42.2846        -12.4237
           11381         54.8543         55.6170         43.1088        -12.3147
           11382         55.4234         57.0144         42.6643        -12.0187
           11383         54.9141         56.4383         41.8373        -12.1263
           11384         56.1021         57.8118         44.0499        -11.7111
           11385         56.2315         57.8856         44.6205        -11.5921
           11386         56.6861         58.9454         44.3990        -11.3226
           11387         56.5721         58.8895         43.8304        -11.4379
           11388         59.0401         63.8660         43.5512        -9.85902
           11389         59.5606         64.8382         43.6908        -9.44129
           11390         59.9597         65.5696         43.1308        -9.37366
           11391         61.7012         68.5345         42.5745        -8.47140
           11392         61.0162         67.4089         42.8833        -8.77025
           11393         61.2510         67.8620         43.2605        -8.38065
           11394         61.9430         68.9875         42.9489        -8.08279
           11395         62.6012         70.0293         42.7077        -7.78144
           11396         63.3632         71.2061         42.5511        -7.39112
           11397         62.6181         69.9933         42.3961        -7.99957
           11398         67.5964         77.3307         42.0371        -4.92856
           11399         67.3268         77.0587         42.1623        -4.69649
           11400         68.1196         78.1197         42.0289        -4.26054
           11401         68.3865         78.3908         41.9016        -4.49247
           11402         69.0146         79.2905         41.8354        -3.78499
           11403         67.8696         77.8786         42.1284        -3.97123
           11404         68.7640         79.0443         41.9346        -3.49615
           11405         72.1794         83.2293         41.1325        -2.18312
           11406         70.9508         81.7729         41.4118        -2.49212
           11407         71.1159         82.0308         41.2736        -1.88132
           11408         72.3626         83.4930         40.9888        -1.57677
           11409         73.3099         84.5822         40.7931        -1.47018
           11410         72.5996         83.7885         40.8375        -1.18311
           11411         73.5604         84.8875         40.6446        -1.07678
           11412         78.7072         90.6313         39.4660     157.900E-03
           11413         78.1122         89.9955         39.8033    -214.581E-03
           11414         77.3430         89.1355         39.7662    -114.929E-03
           11415         77.9381         89.7726         39.4268     259.399E-03
           11416         80.9821         93.0647         38.7389     725.339E-03
           11417         80.2413         92.2799         38.9940     553.008E-03
           11418         80.1662         92.1665         38.7536     795.613E-03
           11419         80.9182         92.9599         38.4936     969.472E-03
           11420         84.4560         96.7651         38.0097     930.768E-03
           11421         84.7612         97.1557         38.4106     746.560E-03
           11422         84.1158         96.5170         38.8892     586.765E-03
           11423         83.8021         96.1210         38.4909     769.939E-03
           11424         87.2324         99.3579         35.5984         1.55407
           11425         86.7279         98.9045         36.0741         1.43472
           11426         86.3463         98.4676         35.9944         1.68330
           11427         86.8520         98.9220         35.5198         1.80184
           11428         87.0086         99.3659         36.9206     899.846E-03
           11429         87.2781         99.5755         36.4427     987.705E-03
           11430         87.6168         99.9549         36.5064     817.870E-03
           11431         87.3475         99.7455         36.9844     732.934E-03
           11432         88.6858         100.915         35.4182     622.542E-03
           11433         88.9835         101.166         35.0507     525.172E-03
           11434         88.8761         101.120         35.4048     337.078E-03
           11435         88.5796         100.868         35.7718     434.052E-03
           11436         88.6964         101.001         35.8048    -225.182E-03
           11437         88.7025         100.965         35.5779    -417.161E-03
           11438         88.3257         100.677         36.2325    -454.764E-03
           11439         88.3259         100.718         36.4582    -265.810E-03
           11440         88.6885         100.912         35.3892    -646.570E-03
           11441         88.6134         100.788         35.1835    -869.999E-03
           11442         88.2555         100.488         35.6367    -880.887E-03
           11443         88.3316         100.612         35.8436    -657.003E-03
           11444         86.1742         98.3375         36.2780        -1.54181
           11445         85.7579         97.8673         36.2102        -1.73365
           11446         85.3378         97.4883         36.6207        -1.58941
           11447         85.7533         97.9577         36.6914        -1.39816
           11448         83.7157         95.8793         37.5292        -1.32889
           11449         83.5893         95.6870         37.2325        -1.59075
           11450         82.7844         94.8764         37.6415        -1.42974
           11451         82.9240         95.0791         37.9340        -1.16929
           11452         80.1640         92.2173         39.1940    -383.442E-03
           11453         80.9953         93.0959         38.8710    -624.739E-03
           11454         80.6247         92.6495         38.5844    -911.156E-03
           11455         79.7822         91.7631         38.9154    -663.521E-03
           11456         76.4369         88.1303         39.9164     241.171E-03
           11457         75.4921         87.0768         40.1360     481.146E-03
           11458         75.5922         87.1892         40.3126     802.800E-03
           11459         76.5346         88.2450         40.0971     563.612E-03
           11460         73.8964         85.2810         40.4434     634.115E-03
           11461         74.8528         86.3597         40.2359     507.421E-03
           11462         75.2068         86.7543         40.0146     95.4270E-03
           11463         74.2611         85.6950         40.2336     219.898E-03
           11464         72.0357         83.0090         41.2957         2.66047
           11465         71.0498         81.8015         41.4523         3.11758
           11466         71.4730           82.25         41.5028         3.38839
           11467         72.4528         83.4545         41.3501         2.93153
           11468         67.8676         77.8604         42.1229         4.04662
           11469         67.1807         77.0280         42.3700         4.01654
           11470         66.5713         76.1704         42.4874         4.50624
           11471         67.2502         77.0002         42.2407         4.53960
           11472         63.5163         71.7325         43.2909         6.32533
           11473         64.2156         72.7749         43.0450         5.97735
           11474         64.0273         72.5955         43.2978         5.71292
           11475         63.3260         71.5504         43.5463         6.06076
           11476         61.7671         68.8671         43.6559         7.59630
           11477         61.6396         68.5854         43.4528         7.90705
           11478         62.3384         69.6658         43.0083         7.72979
           11479         62.4740         69.9533         43.2161         7.41644
           11480         59.7522         65.3835         44.8513         8.48959
           11481         60.2032         66.2488         44.6555         8.16051
           11482         59.8482         65.6936         45.2320         7.99316
           11483         59.4111         64.8321         45.4335         8.32303
           11484         57.5962         60.8077         44.9950         10.5078
           11485         58.0256         61.7652         44.8756         10.1646
           11486         57.8356         61.3088         45.5385         10.0722
           11487         57.4196         60.3551         45.6589         10.4130
           11488         55.6074         55.6940         46.3791         11.8656
           11489         55.9645         56.5102         46.6955         11.5025
           11490         55.7405         55.4462         47.7302         11.5616
           11491         55.3988         54.6372         47.4160         11.9192
           11492         53.9886         51.6587         46.2259         12.8747
           11493         54.1044         52.3642         45.6442         12.8063
           11494         54.4644         52.8613         46.2332         12.6292
           11495         54.3512         52.1617         46.8039         12.7014
           11496         53.0271         49.3337         46.1040         13.2535
           11497         53.5572         50.2788         46.5704         13.0783
           11498         53.6795         49.6432         47.6443         13.0674
           11499         53.1589         48.6959         47.1756         13.2452
           11500         50.1903         40.8549         47.6441         13.2473
           11501         49.8760         41.4646         46.4764         13.3587
           11502         50.4686         42.2758         46.9545         13.4183
           11503         50.7657         41.6564         48.1044         13.3132
           11504         47.8635         37.6798         46.0413         12.7302
           11505         47.7038         38.1273         45.3378         12.8459
           11506         48.4767         38.9895         45.9861         13.0135
           11507         48.6291         38.5451         46.6859         12.8971
           11508         45.3285         34.3448         44.6076         11.7941
           11509         46.3986         35.7269         45.1780         12.2398
           11510         47.0077         35.6616         46.3683         12.1316
           11511         45.9573         34.2824         45.8018         11.6787
           11512         45.3754         32.3685         46.6734         10.7012
           11513         44.0110         31.3374         45.2658         10.3996
           11514         44.1498         32.2992         44.5372         10.9685
           11515         45.5106         33.3218         45.9427         11.2699
           11516         43.4441         28.7612         46.9735         8.26012
           11517         43.0667         29.0901         45.9336         8.84725
           11518         44.3759         30.2469         47.0875         9.33381
           11519         44.7320         29.9162         48.1274         8.74664
           11520         40.3142         24.3738         45.5195         4.78227
           11521         41.7633         25.8520         46.8391         5.56263
           11522         42.4963         25.9339         48.1074         4.71357
           11523         41.1019         24.4549         46.7879         3.93322
           11524         41.7453         23.5757         48.1544         1.04589
           11525         42.9876         25.1243         49.4655         2.05379
           11526         44.0784         25.7441         50.8544         1.02923
           11527         42.9094         24.1962         49.5431     20.1280E-03
           11528         41.9969         24.7106         48.1191         2.98486
           11529         40.6653         23.1163         46.7686         2.09129
           11530         39.7008         22.8612         45.4373         3.03966
           11531         40.5488         21.8698         46.7887    -20.2971E-03
           11532         41.8488         23.6581         48.2765        -1.02108
           11533         40.8977         23.3083         47.0431        -2.06454
           11534         42.9098         24.2002         49.5435    -19.0094E-03
           11535         44.1425         25.7928         50.9308    -999.223E-03
           11536         43.1512         25.2492         49.6635        -2.00055
           11537         42.7884         27.1174         47.4997        -6.51506
           11538         41.7434         26.0242         46.6600        -5.84195
           11539         42.3742         26.1785         47.6538        -5.38123
           11540         43.3980         27.2857         48.4959        -6.06284
           11541         44.0099         28.9178         47.8569        -8.04708
           11542         44.3319         29.6752         47.6474        -8.72486
           11543         42.8819         28.7560         45.9394        -8.61305
           11544         42.5509         27.9990         46.1522        -7.93345
           11545         46.6415         33.0293         48.3064        -10.7473
           11546         46.8125         33.7772         47.8653        -11.1979
           11547         45.7090         33.0988         46.5283        -11.0895
           11548         45.5224         32.3498         46.9669        -10.6342
           11549         49.2144         37.3680         48.8500        -12.4471
           11550         48.9386         36.7293         48.9232        -12.2390
           11551         49.7434         37.0707         50.1025        -12.2100
           11552         50.0040         37.7093         50.0177        -12.4201
           11553         50.8766         41.4837         48.4787        -13.2718
           11554         50.2934         40.4100         48.2408        -13.1491
           11555         50.9790         40.2209         49.7370        -13.0107
           11556         51.5366         41.2902         49.9693        -13.1333
           11557         53.0228         48.4514         47.0684        -13.2787
           11558         52.6440         47.2819         47.2480        -13.3842
           11559         53.0901         47.1646         48.5032        -13.2807
           11560         53.4434         48.3303         48.3225        -13.1752
           11561         53.5766         50.9638         45.7908        -13.0387
           11562         53.4174         50.0791         46.3747        -13.1313
           11563         53.9261         50.8225         47.0774        -12.9281
           11564         54.0909         51.7068         46.4991        -12.8373
           11565         55.9625         57.1222         45.0400        -11.7337
           11566         55.6289         56.5994         44.4862        -11.9715
           11567         55.3026         55.6216         44.9836        -12.1539
           11568         55.6340         56.1457         45.5328        -11.9169
           11569         57.1383         59.6881         45.6334        -10.7001
           11570         56.9065         59.2265         45.2143        -11.0170
           11571         56.4915         58.0809         45.9333        -11.1934
           11572         56.7189         58.5449         46.3512        -10.8738
           11573         57.5904         60.7910         45.1470        -10.4464
           11574         57.2839         59.9752         46.2329        -10.3242
           11575         57.7343         61.0749         45.7437        -10.0733
           11576         60.2067         66.1046         44.0393        -8.69427
           11577         59.8311         65.4553         44.4469        -8.73919
           11578         60.0528         65.9116         44.5526        -8.43786
           11579         60.4347         66.5646         44.1508        -8.38839
           11580         62.2532         69.9044         44.0434        -6.52783
           11581         62.2614         69.7917         43.7630        -6.94499
           11582         61.5342         68.6163         44.1272        -7.27774
           11583         61.5241         68.7328         44.4098        -6.86039
           11584         65.8883         75.5167         42.9906        -3.50278
           11585         64.9667         74.2700         43.3898        -3.85258
           11586         64.8108         74.1652         43.5588        -3.32375
           11587         65.7383         75.4121         43.1590        -2.97531
           11588         67.3485         77.4883         42.4972        -2.47734
           11589         67.5075         77.6332         42.3983        -2.84328
           11590         66.7929         76.7150         42.6690        -3.09885
           11591         66.6269         76.5650         42.7725        -2.72839
           11592         71.4442         82.4878         41.0264    -592.694E-03
           11593         72.4611         83.6589         40.6952    -271.250E-03
           11594         72.4461         83.6269         40.8041    -878.614E-03
           11595         71.4364         82.4529         41.1320        -1.19590
           11596         74.3172         85.7529         40.0934     215.043E-03
           11597         74.7031         86.1714         39.8743     608.722E-03
           11598         75.5486         87.1151         39.6970     548.407E-03
           11599         75.1632         86.6999         39.9202     162.526E-03
           11600         80.6682         92.5769         37.8883         1.72567
           11601         81.0411         93.0231         38.0425         1.40937
           11602         79.8363         91.7775         38.5910         1.03877
           11603         79.4492         91.3206         38.4422         1.35292
           11604         84.2340         96.2205         36.3958         2.18646
           11605         83.3853         95.3099         36.5767         2.40730
           11606         84.0995         95.9558         35.9961         2.80115
           11607         84.9523         96.8687         35.8138         2.57881
           11608         87.4938         99.6752         35.7359         1.28368
           11609         87.7415         99.8087         35.0977         1.63429
           11610         88.0022         100.126         35.2343         1.36388
           11611         89.6110         101.623         34.0262     986.828E-03
           11612         89.0780         101.145         34.4851         1.05207
           11613         89.0614         101.070         34.2664         1.39582
           11614         89.5946         101.548         33.8076         1.33109
           11615         89.0991         101.223         34.7285     778.953E-03
           11616         89.4858         101.557         34.3164     650.535E-03
           11617         89.3684         101.500         34.6392     396.971E-03
           11618         88.2688         100.359         34.9568        -1.37306
           11619         88.7845         100.813         34.4697        -1.44142
           11620         88.5484         100.534         34.4027        -1.72208
           11621         88.0333         100.081         34.8913        -1.65327
           11622         86.3172         98.3624         35.6715        -1.98130
           11623         85.7923         97.7839         35.6887        -2.21495
           11624         85.2333         97.2888         36.2230        -1.96584
           11625         82.0779         93.9465         36.9934        -2.43127
           11626         82.6644         94.4745         36.5378        -2.87838
           11627         81.6058         93.3433         36.8232        -3.04272
           11628         81.0247         92.8185         37.2774        -2.59150
           11629         81.6428         93.5540         37.3830        -2.08375
           11630         80.6803         92.5438         37.6853        -2.02566
           11631         80.4396         92.3504         38.0373        -1.61753
           11632         81.3960         93.3589         37.7390        -1.67968
           11633         74.8943         86.3468         39.6363        -1.26742
           11634         75.3893         86.9058         39.5408        -1.12099
           11635         75.9443         87.4918         39.2749        -1.46354
           11636         75.4439         86.9270         39.3718        -1.61472
           11637         73.1392         84.4294         40.4866     193.965E-03
           11638         73.3103         84.6201         40.5308     516.550E-03
           11639         74.1201         85.5343         40.1839    -105.949E-03
           11640         70.5513         81.3701         41.4309         1.92468
           11641         71.5553         82.5501         41.1648         1.75715
           11642         71.8006         82.8652         41.0514         1.31672
           11643         70.8112         81.7105         41.3194         1.47855
           11644         65.9706         75.6885         43.0261         3.09327
           11645         65.7145         75.2817         43.0699         3.57893
           11646         66.9071         76.8000         42.5716         3.43892
           11647         67.1753         77.2095         42.5248         2.95381
           11648         63.2028         71.4511         43.7683         5.80114
           11649         63.7703         72.3294         43.5524         5.42894
           11650         63.3851         71.8564         43.8937         5.21909
           11651         62.8190         70.9758         44.0862         5.60121
           11652         59.0203         64.0579         45.7694         8.50562
           11653         58.9063         63.7207         45.4769         8.93118
           11654         59.2956         64.5008         45.1388         8.74815
           11655         57.1177         59.5325         48.0481         9.48878
           11656         56.9003         58.8702         48.7009         9.43748
           11657         56.7273         58.2995         48.6062         9.83723
           11658         56.9411         58.9705         47.9452         9.88895
           11659         55.2337         53.9402         47.8239         12.0239
           11660         55.1967         53.3145         48.5940         12.0226
           11661         54.8833         52.4436         48.4764         12.3040
           11662         54.9122         53.0908         47.6937         12.3034
           11663         54.5868         49.6205         50.5088         12.5520
           11664         54.7481         48.9269         51.6039         12.4549
           11665         54.3648         48.1581         51.0963         12.7305
           11666         54.2037         48.8459         50.0150         12.8277
           11667         54.0484         47.2443         50.9386         12.9231
           11668         53.6307         46.2364         50.6726         13.0850
           11669         53.2490         46.6673         49.3389         13.2389
           11670         53.6842         47.6767         49.6087         13.0777
           11671         52.8658         42.8224         51.5141         13.0804
           11672         53.5445         43.4806         52.4596         12.9796
           11673         53.6010         42.5078         53.2530         12.8315
           11674         52.9146         41.8489         52.3058         12.9314
           11675         50.9301         38.5873         50.9944         12.5459
           11676         51.0264         39.5892         50.3578         12.8337
           11677         51.8612         40.1734         51.4839         12.8241
           11678         51.7744         39.1688         52.1211         12.5339
           11679         47.3497         33.2288         49.4084         10.6213
           11680         47.5851         33.8092         49.2390         10.9777
           11681         48.4243         34.1888         50.4008         10.9383
           11682         48.1918         33.6128         50.5568         10.5829
           11683         48.5594         31.7442         53.3627         8.09742
           11684         47.8967         31.6757         52.1617         8.60528
           11685         48.7139         32.5162         52.7298         9.12654
           11686         49.3530         32.5921         53.9317         8.61368
           11687         45.8629         28.7093         51.7253         5.43672
           11688         45.1252         28.5319         50.4766         6.17857
           11689         46.3353         29.6668         51.5102         6.87220
           11690         47.0357         29.8440         52.7582         6.13129
           11691         46.3853         27.8960         53.5057         1.02465
           11692         47.5466         29.1303         54.7115         2.04261
           11693         48.6631         30.0148         56.1072         1.03875
           11694         47.5647         28.7801         54.9015     19.2066E-03
           11695         46.6986         29.0753         53.0438         4.61909
           11696         45.5017         27.8690         51.9320         3.83323
           11697         44.6206         27.5028         50.6134         4.65094
           11698         45.2499         26.5086         52.2482    -18.1785E-03
           11699         46.4178         27.9182         53.5452    -997.995E-03
           11700         45.3737         27.2034         52.2284        -1.97753
           11701         47.5646         28.7801         54.9015    -19.2741E-03
           11702         48.6961         30.0484         56.1433        -1.05536
           11703         47.6114         29.1873         54.7874        -2.03174
           11704         45.9751         30.4643         49.8538        -8.54384
           11705         46.9601         31.3835         50.6952        -8.96879
           11706         46.4802         31.4406         49.7038        -9.38354
           11707         45.4783         30.5134         48.8548        -8.96556
           11708         47.6199         33.0727         50.0572        -10.3868
           11709         47.5252         32.5340         50.4621        -9.92458
           11710         48.5724         33.1514         51.7483        -9.96507
           11711         48.6575         33.6920         51.3403        -10.4297
           11712         51.3703         39.7882         50.8598        -12.8155
           11713         50.1179         39.2167         48.9286        -12.8927
           11714         50.5194         38.7878         50.0566        -12.6970
           11715         52.2540         43.6984         49.5132        -13.3293
           11716         52.8453         43.7624         50.7594        -13.1948
           11717         53.0934         44.9115         50.4181        -13.2192
           11718         52.5246         44.8460         49.1704        -13.3546
           11719         54.1237         48.2811         50.2853        -12.8781
           11720         53.7557         48.2597         49.2833        -13.0413
           11721         53.5243         47.1578         49.6308        -13.1435
           11722         53.9081         47.1794         50.6299        -12.9806
           11723         54.6358         51.4416         48.7715        -12.5041
           11724         54.4822         51.7892         47.7892        -12.6140
           11725         54.1498         50.7666         47.8702        -12.8271
           11726         54.3243         50.4245         48.8523        -12.7189
           11727         54.8566         52.2079         48.6868        -12.3155
           11728         54.7756         51.2906         49.4935        -12.3637
           11729         54.9854         52.0518         49.4001        -12.1792
           11730         56.5074         57.7401         47.5248        -10.7182
           11731         56.2619         56.8376         48.3064        -10.7549
           11732         56.5242         57.6151         48.5209        -10.2753
           11733         56.7830         58.5173         47.7398        -10.2396
           11734         57.0900         59.4568         48.3434        -9.33488
           11735         56.9445         59.0936         48.9868        -9.05024
           11736         57.2856         60.1838         48.6955        -8.54354
           11737         57.4391         60.5450         48.0523        -8.82895
           11738         57.8867         61.7328         47.6486        -8.38688
           11739         57.9908         61.8802         47.0745        -8.77007
           11740         57.5399         60.6943         47.4751        -9.21278
           11741         60.5916         67.4399         45.5412        -6.33751
           11742         60.5200         67.4922         45.8302        -5.78062
           11743         61.3270         68.8608         45.3041        -5.36703
           11744         61.3893         68.8063         45.0153        -5.92445
           11745         63.7584         72.8176         44.2039        -3.03113
           11746         62.8232         71.4715         44.7410        -3.39233
           11747         62.7137         71.4275         44.9173        -2.70084
           11748         63.6573         72.7731         44.3796        -2.33949
           11749         66.6888         76.7624         42.8369        -1.65168
           11750         65.6775         75.4805         43.3216        -1.77054
           11751         65.7896         75.6751         43.3027        -1.05870
           11752         66.8090         76.9584         42.8199    -940.663E-03
           11753         68.2008         78.6814         42.1936    -212.616E-03
           11754         68.9156         79.5374         41.8828     288.027E-03
           11755         69.5618         80.3047         41.6351    -40.4323E-03
           11756         68.8529         79.4564         41.9390    -530.734E-03
           11757         76.2849         87.6912         38.7439         2.94707
           11758         75.5865         87.0043         39.1260         2.37050
           11759         74.6750         85.9720         39.4028         2.59004
           11760         75.3703         86.6567         39.0210         3.16737
           11761         79.7538         91.3196         37.3294         3.50355
           11762         80.6168         92.1482         36.8597         3.90279
           11763         81.5067         93.1424         36.6499         3.57262
           11764         80.6409         92.3111         37.1178         3.17593
           11765         84.0523         95.7748         35.6641         3.45281
           11766         84.8995         96.6866         35.4507         3.18823
           11767         83.2546         95.0451         36.2099         3.06527
           11768         87.3193         99.0269         34.1675         3.38697
           11769         86.5919         98.2302         34.3715         3.82603
           11770         87.5279         99.0949         33.8351         4.05795
           11771         88.2565         99.8917         33.6307         3.61742
           11772         90.2308         102.131         33.3475         1.24412
           11773         89.5843         101.478         33.6267         1.74698
           11774         90.2210         102.062         33.1666         1.66014
           11775         90.9676         102.760         32.7192         1.54112
           11776         91.6203         103.370         32.3190         1.32296
           11777         91.4488         103.252         32.5225     855.217E-03
           11778         90.7953         102.644         32.9222         1.07369
           11779         90.4393         102.390         33.4070    -178.417E-03
           11780         90.1848         102.171         33.6597    -410.251E-03
           11781         89.8175         101.871         34.0916    -227.375E-03
           11782         90.0646         102.084         33.8442     277.536E-06
           11783         89.7186         101.578         33.4506        -1.85269
           11784         89.1175         101.038         33.9244        -1.82746
           11785         89.2796         101.247         34.0037        -1.45693
           11786         89.8770         101.783         33.5313        -1.48171
           11787         86.8725         98.7182         34.7105        -2.78553
           11788         87.7008         99.5390         34.3151        -2.68186
           11789         87.8921         99.6398         34.0035        -3.09802
           11790         87.0519         98.8064         34.3971        -3.20545
           11791         84.2394         95.9356         35.5346        -3.60390
           11792         83.4584         95.0783         35.7235        -3.90638
           11793         82.5643         94.2433         36.2564        -3.53374
           11794         83.3429         95.0991         36.0672        -3.23112
           11795         75.2121         86.5657         39.2127        -2.58678
           11796         76.2635         87.7352         38.8729        -2.45428
           11797         76.8981         88.3503         38.5128        -2.99597
           11798         75.8415         87.1788         38.8535        -3.13021
           11799         74.1167         85.3480         39.5948        -2.61957
           11800         74.5990         85.7879         39.2977        -3.28608
           11801         73.3117         84.3460         39.7849        -3.32762
           11802         72.8339         83.9050         40.0801        -2.66078
           11803         67.5383         77.8115         42.4579         1.61518
           11804         67.1389         77.3535         42.6671         1.15942
           11805         66.0292         75.9318         43.1358         1.72201
           11806         66.4326         76.3909         42.9272         2.17713
           11807         65.3360         75.1161         43.5594     566.012E-03
           11808         65.6395         75.4757         43.3879         1.18148
           11809         66.7722         76.9268         42.8347     609.554E-03
           11810         66.4765         76.5665         43.0060    -6.55411E-03
           11811         62.0016         70.1390         45.1052         4.23769
           11812         62.4386         70.6697         44.7051         4.65884
           11813         63.3626         72.1075         44.2448         4.00427
           11814         62.9243         71.5782         44.6447         3.58085
           11815         60.2204         66.5980         45.4948         7.10148
           11816         61.1159         68.2165         44.9584         6.51452
           11817         60.7818         67.8273         45.5159         6.03909
           11818         59.8987         66.2189         46.0484         6.62671
           11819         57.6859         61.9915         49.0947         6.26855
           11820         58.0404         62.7248         48.4807         6.45109
           11821         58.3318         63.5578         48.3018         5.77037
           11822         57.9492         62.7997         48.9109         5.58625
           11823         56.6484         58.0824         50.1679         8.80390
           11824         56.4127         57.0771         50.4836         9.26392
           11825         56.5032         57.4304         49.6978         9.63770
           11826         56.7510         58.4401         49.3836         9.17751
           11827         55.8172         54.6098         50.1261         10.9251
           11828         55.8714         54.1368         51.2701         10.6111
           11829         55.6311         53.0256         51.3407         11.0997
           11830         55.5578         53.4908         50.1934         11.4151
           11831         55.7019         51.8976         52.8289         10.9565
           11832         55.8539         51.4542         53.8527         10.6920
           11833         55.6984         50.5383         53.7934         11.1518
           11834         55.5331         50.9805         52.7652         11.4126
           11835         55.8743         48.2872         55.4413         11.4550
           11836         55.8106         47.4127         55.6381         11.6793
           11837         55.4023         47.6690         54.3514         12.0262
           11838         55.4880         48.5457         54.1694         11.7983
           11839         55.0812         46.8605         53.9388         12.3320
           11840         55.2302         46.2314         54.6553         12.2830
           11841         54.9149         45.8656         54.0773         12.4890
           11842         54.7689         46.4910         53.3512         12.5461
           11843         54.6922         41.2739         56.1897         12.2419
           11844         54.5469         41.8058         55.5957         12.3961
           11845         55.0066         42.0872         56.3224         12.2832
           11846         55.1603         41.5652         56.9122         12.1320
           11847         54.1561         40.3420         55.7463         12.2021
           11848         54.3678         40.0211         56.3536         12.0246
           11849         53.9212         39.4979         55.8732         12.0067
           11850         53.7108         39.8230         55.2699         12.1823
           11851         54.2087         39.0966         56.6853         11.7334
           11852         53.6179         38.4123         56.0893         11.6602
           11853         53.3241         38.8180         55.2718         11.9331
           11854         49.5153         33.3397         53.3312         9.55798
           11855         50.2831         34.0466         53.9875         9.87691
           11856         50.5678         33.9091         54.7084         9.47589
           11857         49.8288         33.2136         54.0654         9.17253
           11858         51.2142         33.5891         56.3705         8.37586
           11859         51.3533         34.0154         56.0825         8.99142
           11860         52.3258         34.5908         57.3033         8.94366
           11861         52.2043         34.1638         57.5966         8.33612
           11862         48.7295         30.6335         55.3945         4.63778
           11863         49.7455         31.5438         56.2460         5.48348
           11864         50.7590         32.1917         57.7030         4.76412
           11865         49.7832         31.2834         56.8523         3.91849
           11866         50.9175         32.0914         58.6682         1.08404
           11867         52.0365         33.0271         59.8167         2.20124
           11868         53.1451         34.1025         61.1904         1.14125
           11869         52.0949         33.1660         60.0443     21.1592E-03
           11870         50.8619         32.1072         58.3095         3.06674
           11871         51.9450         32.9809         59.2925         4.10131
           11872         53.0688         33.9040         60.8010         3.23778
           11873         49.8491         31.0026         57.5020    -20.6665E-03
           11874         50.9578         32.1283         58.7091        -1.14453
           11875         49.8754         31.1724         57.3541        -2.17619
           11876         52.0946         33.1631         60.0442    -27.5664E-03
           11877         53.1867         34.1328         61.2336        -1.19746
           11878         52.1215         33.0959         59.8960        -2.31599
           11879         49.4226         31.3252         55.8267        -5.58227
           11880         50.0098         32.0298         56.0991        -6.44988
           11881         48.7437         31.2521         54.4118        -6.80924
           11882         48.1247         30.5439         54.1387        -5.93486
           11883         50.9886         33.3097         56.2826        -8.11015
           11884         52.1075         33.8819         57.7864        -7.87100
           11885         52.4688         34.4713         57.7517        -8.56786
           11886         51.3672         33.8968         56.2483        -8.80083
           11887         51.9553         35.0180         56.0982        -9.84102
           11888         51.8250         35.3410         55.5079        -10.2863
           11889         50.7430         34.4958         54.3802        -10.0593
           11890         50.8819         34.1879         54.9728        -9.61864
           11891         52.4857         37.1064         55.0957        -11.3538
           11892         52.0170         37.5480         53.8697        -11.7851
           11893         51.0974         36.7402         52.8876        -11.6491
           11894         51.5640         36.3063         54.1103        -11.2148
           11895         53.4285         39.5951         54.8975        -12.2035
           11896         53.8381         39.1731         55.9433        -11.9141
           11897         54.5441         39.8925         56.7630        -11.9166
           11898         54.1325         40.3205         55.7176        -12.2024
           11899         53.9768         42.9770         53.7201        -12.7718
           11900         54.6196         42.8588         55.1251        -12.5200
           11901         54.7944         43.9609         54.8689        -12.5348
           11902         54.1792         44.0816         53.4634        -12.7882
           11903         54.6831         46.6436         53.0200        -12.6034
           11904         55.0163         46.9753         53.7061        -12.3644
           11905         54.9911         47.8492         53.0914        -12.3309
           11906         54.6636         47.5172         52.4110        -12.5663
           11907         55.3282         47.4582         54.2710        -12.0994
           11908         55.5383         47.8976         54.6407        -11.8585
           11909         55.4317         48.4494         54.0308        -11.8851
           11910         55.2194         48.0079         53.6600        -12.1262
           11911         55.7553         53.9953         50.6583        -10.9879
           11912         55.8196         53.6936         51.6659        -10.6080
           11913         56.0197         54.8578         51.3346        -10.1603
           11914         55.9751         55.1636         50.3341        -10.5400
           11915         56.2744         56.4103         50.2052        -9.93664
           11916         56.3764         57.0267         49.2710        -10.1388
           11917         56.0529         55.7754         49.3940        -10.7430
           11918         56.3309         56.9290         52.1146        -7.81368
           11919         56.4737         57.8732         51.8337        -7.14201
           11920         56.6447         58.5162         51.0155        -7.46391
           11921         56.4882         57.5706         51.2967        -8.13161
           11922         57.7760         61.9683         48.6839        -6.94574
           11923         58.1115         62.8874         48.3953        -6.41532
           11924         58.5294         63.6444         47.6195        -6.78674
           11925         58.1761         62.7202         47.8981        -7.31629
           11926         59.5664         66.3055         47.2261        -4.19452
           11927         60.2612         67.5370         46.6344        -3.87025
           11928         60.3738         67.5801         46.3652        -4.52975
           11929         59.6862         66.3504         46.9584        -4.85376
           11930         61.6647         69.9604         45.7084        -2.35220
           11931         62.5679         71.3071         45.1278        -1.95412
           11932         61.8188         70.0797         45.4990        -3.09808
           11933         63.4527         72.6158         44.6538    -774.715E-03
           11934         63.5876         72.7563         44.4927        -1.57404
           11935         62.4217         71.1641         45.2890        -1.15469
           11936         66.8531         76.9779         42.7907         1.48780
           11937         66.1407         76.1335         43.1696     664.081E-03
           11938         65.4062         75.1904         43.5570     863.041E-03
           11939         66.1071         76.0256         43.1727         1.69379
           11940         74.2070         85.1402         39.2414         4.43274
           11941         73.3212         84.3060         39.7367         3.62982
           11942         71.9344         82.6886         40.2867         3.88996
           11943         72.8080         83.5137         39.7876         4.69807
           11944         76.2224         87.3084         38.3857         4.65593
           11945         75.1703         86.2852         38.9244         4.03861
           11946         75.2611         86.1662         38.7040         5.05285
           11947         83.7164         94.9019         35.0663         5.78165
           11948         84.7262         95.9345         34.6542         5.73671
           11949         84.8266         96.1630         34.7369         5.22759
           11950         83.8297         95.1460         35.1458         5.27308
           11951         82.4839         93.7526         35.6897         5.36319
           11952         83.6709         95.0975         35.3397         4.79983
           11953         82.3323         93.7125         35.8831         4.88751
           11954         88.5320         100.022         33.3133         4.31476
           11955         89.6078         101.035         32.8054         4.46317
           11956         90.2894         101.800         32.6047         3.87059
           11957         89.2068         100.781         33.1141         3.73002
           11958         90.9255         102.593         32.5119         2.61473
           11959         91.7900         103.424         32.0871         2.44612
           11960         91.8168         103.512         32.1655         1.86562
           11961         90.9515         102.684         32.5888         2.03522
           11962         94.0292         105.670         31.2654     724.564E-03
           11963         93.6011         105.270         31.4285     174.848E-03
           11964         92.9535         104.641         31.6622     647.033E-03
           11965         93.3874         105.040         31.4999         1.19690
           11966         92.0545         103.585         31.9171        -3.24194
           11967         91.0606         102.613         32.3314        -3.41483
           11968         91.1150         102.744         32.3648        -2.79052
           11969         92.1092         103.714         31.9536        -2.61459
           11970         86.7806         98.4537         34.3393        -3.62307
           11971         87.8246         99.4366         33.7860        -3.81186
           11972         87.2703         98.7784         33.8678        -4.37064
           11973         86.2146         97.7838         34.4236        -4.17802
           11974         84.5090         95.8972         34.9317        -5.00417
           11975         83.5752         94.8850         35.2486        -5.28359
           11976         82.6894         94.0779         35.7317        -4.88836
           11977         83.6202         95.0892         35.4158        -4.60985
           11978         79.6617         90.5952         36.6571        -6.21036
           11979         78.6902         89.4791         36.9881        -6.51116
           11980         77.7585         88.6514         37.4976        -5.92886
           11981         78.7222         89.7602         37.1672        -5.62831
           11982         77.5104         88.7619         37.9337        -4.36994
           11983         78.2599         89.4211         37.4963        -5.01597
           11984         76.8813         87.8815         37.9967        -5.26108
           11985         76.1387         87.2272         38.4323        -4.61188
           11986         73.9933         84.9662         39.3830        -4.12135
           11987         72.4005         83.1488         40.0250        -4.24781
           11988         71.7360         82.5398         40.4278        -3.45106
           11989         68.2708         78.4661         41.9795        -3.44780
           11990         68.5613         78.9435         41.9215        -2.62036
           11991         70.2425         80.8523         41.0854        -3.20181
           11992         69.9689         80.3819         41.1385        -4.03351
           11993         62.9278         71.9052         45.0125     146.131E-03
           11994         63.0485         72.0560         44.9061     864.793E-03
           11995         64.0189         73.3928         44.3105     434.804E-03
           11996         63.9095         73.2432         44.4163    -284.452E-03
           11997         60.0892         67.5350         47.0572         2.11102
           11998         59.2943         66.1537         47.7805         2.40719
           11999         59.4640         66.2955         47.5026         3.34560
           12000         60.2501         67.6729         46.7783         3.04831
           12001         56.8128         59.6903         51.0868         5.89614
           12002         57.0390         60.6362         50.6038         5.30325
           12003         56.7944         60.0602         51.3135         4.73285
           12004         56.5743         59.1162         51.7959         5.32554
           12005         56.1705         55.7782         53.3759         7.57495
           12006         56.1451         55.3061         54.1339         7.23321
           12007         56.1302         54.7477         54.3018         7.69212
           12008         56.1553         55.2206         53.5513         8.03103
           12009         56.1362         53.7280         54.7675         8.31967
           12010         56.2035         52.8697         55.6538         8.34027
           12011         56.1406         52.4901         55.1267         9.15065
           12012         56.0785         53.3503         54.2409         9.13300
           12013         55.9356         52.4383         53.7790         10.1145
           12014         56.0954         51.9204         54.9230         9.76482
           12015         56.0263         50.9358         54.9993         10.3441
           12016         56.6911         47.4943         58.0480         10.7323
           12017         56.6897         48.3080         57.9992         10.2952
           12018         57.1442         47.8187         59.3445         9.91356
           12019         57.1538         47.0061         59.3889         10.3535
           12020         56.1060         46.2934         56.8296         11.6339
           12021         56.5660         45.9759         58.0355         11.3437
           12022         56.4072         45.2185         57.8952         11.5921
           12023         55.9404         45.5371         56.6890         11.8815
           12024         56.6283         43.5404         58.9017         11.6360
           12025         56.4721         42.7979         58.8718         11.7066
           12026         55.8432         42.9407         57.5614         12.0136
           12027         56.0105         43.6829         57.5911         11.9441
           12028         57.2464         40.9755         61.0447         11.1510
           12029         57.8141         40.8079         62.1165         10.8561
           12030         57.4781         40.2306         61.7939         10.8436
           12031         56.9061         40.3946         60.7227         11.1386
           12032         57.0927         39.6812         61.4245         10.7921
           12033         58.0680         40.1711         62.8392         10.5472
           12034         57.6834         39.6190         62.4664         10.4962
           12035         56.2719         37.3619         61.6765         9.50392
           12036         55.4682         37.1888         60.4114         9.84553
           12037         55.8631         37.8207         60.5439         10.2393
           12038         56.6488         37.9905         61.8066         9.89644
           12039         56.7418         36.5795         63.6677         7.23250
           12040         55.4588         35.9136         61.9803         7.53362
           12041         55.7506         36.3159         61.8839         8.30728
           12042         57.0121         36.9865         63.5740         8.00215
           12043         56.1477         36.0395         63.8034         5.23712
           12044         54.8584         35.2265         62.2210         5.44383
           12045         55.1081         35.4428         62.0238         6.63474
           12046         56.3691         36.2564         63.5993         6.42795
           12047         55.3160         36.0197         63.6464         1.16947
           12048         56.3810         36.6473         64.7667         2.20593
           12049         57.4518         37.9046         66.0667         1.06020
           12050         56.4523         37.2780         64.9491     26.2593E-03
           12051         55.3429         35.6620         63.3609         3.46575
           12052         56.5598         36.4280         64.5803         4.23968
           12053         57.5525         37.4087         65.9911         2.98286
           12054         54.2981         35.2659         62.5275    -27.7528E-03
           12055         55.3778         36.0905         63.7204        -1.09341
           12056         54.3366         34.9584         62.4292        -2.26550
           12057         54.6195         35.0133         62.3098        -4.34078
           12058         56.2095         36.1485         64.0543        -4.66566
           12059         55.8675         35.8821         63.2972        -5.72579
           12060         54.2678         34.7504         61.5534        -5.40333
           12061         57.1243         36.7003         64.7233        -5.84618
           12062         56.9842         36.6701         64.2001        -6.70992
           12063         55.7289         35.8591         62.7705        -6.59789
           12064         57.9695         37.3702         65.0456        -7.38838
           12065         56.8946         36.7206         63.7662        -7.39369
           12066         58.0681         37.3131         65.4867        -6.69922
           12067         58.3987         38.6134         64.3501        -9.36757
           12068         57.2957         38.1713         62.7793        -9.67607
           12069         57.1797         37.7243         62.9898        -9.21812
           12070         58.2972         38.1684         64.5587        -8.90732
           12071         57.3013         39.9278         61.6479        -10.8045
           12072         58.1569         40.0756         63.0327        -10.4741
           12073         58.0920         40.7027         62.6374        -10.7088
           12074         57.2527         40.5508         61.2505        -11.0400
           12075         57.2924         41.9891         60.7287        -11.2739
           12076         57.2654         41.3156         60.9375        -11.2048
           12077         58.0170         41.2820         62.2843        -10.8575
           12078         58.0280         41.9478         62.0763        -10.9259
           12079         56.8543         43.8987         59.2503        -11.4852
           12080         57.4122         43.9422         60.3969        -11.1271
           12081         57.2302         44.7941         59.8180        -11.1069
           12082         56.6924         44.7477         58.6724        -11.4699
           12083         56.9947         46.0765         59.0576        -10.9350
           12084         57.3720         45.5658         60.0215        -10.7649
           12085         57.5001         46.0679         60.2928        -10.4299
           12086         57.1192         46.5826         59.3176        -10.6028
           12087         56.3100         49.7114         56.4792        -10.2852
           12088         56.0802         50.0891         55.5217        -10.5585
           12089         56.0838         49.2602         55.7733        -10.8869
           12090         56.3265         48.8825         56.7309        -10.6134
           12091         55.9356         52.1776         53.8435        -10.2729
           12092         56.0454         51.8612         54.7291        -9.90869
           12093         56.0634         52.8145         54.3181        -9.52289
           12094         55.9666         53.1300         53.4344        -9.88605
           12095         56.1335         53.3676         54.7434        -8.70915
           12096         56.0711         53.7259         53.9213        -9.07308
           12097         56.1370         52.4566         55.1408        -9.15882
           12098         56.3097         57.1606         52.5765        -6.93935
           12099         56.2428         56.3952         52.9522        -7.41949
           12100         56.1486         55.9571         53.7399        -6.84649
           12101         56.2142         56.7225         53.3674        -6.36785
           12102         56.8933         60.3642         51.0451        -4.78553
           12103         57.2848         61.5146         50.2580        -4.59123
           12104         57.3240         61.2981         49.9607        -5.62757
           12105         56.9414         60.1490         50.7434        -5.82231
           12106         59.3839         66.2434         47.6446        -2.85111
           12107         59.0561         65.6985         48.0300        -2.57870
           12108         59.4152         66.4232         47.7375        -1.83768
           12109         59.7588         66.9860         47.3594        -2.12078
           12110         60.5896         68.4492         46.7597    -13.5408E-03
           12111         60.0252         67.5324         47.2349    -617.154E-03
           12112         59.7003         67.0023         47.5411    -95.1628E-03
           12113         60.2645         67.9124         47.0700     508.979E-03
           12114         62.3216         70.8136         45.4534         2.71551
           12115         63.3194         72.2297         44.7671         2.68611
           12116         63.0004         71.9139         45.0050         1.68017
           12117         62.0201         70.5105         45.6953         1.70360
           12118         66.3209         75.5449         42.8106         5.56181
           12119         67.1105         76.7018         42.4206         4.99618
           12120         65.8897         75.3937         43.1856         4.00720
           12121         65.1039         74.2438         43.5767         4.57343
           12122         76.0355         85.7746         37.5465         8.84909
           12123         76.6763         86.7765         37.4576         8.09242
           12124         74.6170         84.7221         38.5014         7.51506
           12125         73.9779         83.7199         38.5893         8.27160
           12126         81.4896         91.9518         35.4826         7.93934
           12127         81.6421         92.3642         35.6090         7.19442
           12128         79.4367         90.1154         36.5708         7.01359
           12129         79.2840         89.7026         36.4455         7.75405
           12130         85.8862         96.3962         33.6451         8.07212
           12131         86.4843         97.2177         33.5752         7.41772
           12132         84.2863         95.0072         34.4571         7.39808
           12133         83.7101         94.2008         34.5311         8.04261
           12134         92.1148         103.460         31.8620         4.55802
           12135         91.9348         103.152         31.9274         5.34250
           12136         93.6008         104.905         31.5177         4.80092
           12137         93.7888         105.204         31.4577         4.01355
           12138         92.6777         104.146         31.7125         3.64444
           12139         93.7888         105.282         31.3985         3.25892
           12140         93.8542         105.417         31.3671         2.49215
           12141         92.7368         104.286         31.6808         2.87640
           12142         96.3151         107.997         31.0358     771.152E-03
           12143         95.8551         107.522         31.0128     134.097E-03
           12144         95.1671         106.801         31.0371     769.436E-03
           12145         95.6389         107.276         31.0606         1.40635
           12146         95.1746         106.814         31.0285    -437.072E-03
           12147         96.3175         108.002         31.0254    -532.912E-03
           12148         95.6457         107.291         31.0411        -1.10412
           12149         94.0716         105.414         31.4857        -4.65512
           12150         92.9085         104.228         31.6484        -4.67099
           12151         93.6728         105.101         31.4760        -3.90989
           12152         94.8303         106.278         31.3187        -3.89278
           12153         89.3372         100.634         32.8231        -5.15653
           12154         90.2061         101.570         32.5429        -4.72358
           12155         91.1257         102.416         32.1650        -4.98398
           12156         90.2534         101.480         32.4622        -5.41227
           12157         85.2090         95.6230         33.8401        -8.31758
           12158         85.3170         95.9396         33.9623        -7.73473
           12159         86.8768         97.5403         33.3713        -7.63461
           12160         86.7692         97.2297         33.2466        -8.21601
           12161         79.0704         89.1489         36.3054        -8.62358
           12162         77.7664         87.9786         37.0125        -8.03645
           12163         78.7676         89.2415         36.7293        -7.50606
           12164         80.0756         90.4160         36.0228        -8.09218
           12165         75.6275         86.1454         38.2503        -6.59502
           12166         74.6494         84.9587         38.6050        -6.92908
           12167         73.6873         84.1179         39.1624        -6.17960
           12168         74.6633         85.3018         38.8073        -5.84617
           12169         69.2601         79.1079         41.2573        -5.78826
           12170         70.6276         80.6157         40.5388        -6.16558
           12171         70.7152         80.3997         40.3470        -7.13078
           12172         69.3373         78.8961         41.0660        -6.74783
           12173         65.0673         74.1711         43.5912        -4.66938
           12174         65.9743         75.4410         43.1208        -4.27929
           12175         66.6356         76.1124         42.6823        -4.96908
           12176         65.7361         74.8500         43.1551        -5.36981
           12177         62.0124         70.5432         45.6870        -1.26489
           12178         62.6996         71.4314         45.1864        -2.21500
           12179         62.0264         70.3971         45.6744        -2.62829
           12180         61.3433         69.5142         46.1762        -1.67673
           12181         59.8650         67.2670         47.4223    -122.745E-03
           12182         60.2140         67.8022         47.1082        -1.07203
           12183         59.5979         66.7318         47.7034        -1.47071
           12184         59.2416         66.1927         48.0174    -523.424E-03
           12185         57.6366         62.8532         49.8847         2.47555
           12186         57.1451         61.6067         50.6594         2.87265
           12187         57.4378         62.1568         50.1034         3.63092
           12188         57.9413         63.4012         49.3373         3.23312
           12189         56.2008         57.9794         53.2252         4.08129
           12190         56.0732         57.4270         53.9091         3.46367
           12191         56.0209         56.6359         54.4000         4.17712
           12192         56.1467         57.1850         53.7114         4.79207
           12193         56.1439         56.0158         53.8643         6.58915
           12194         56.0956         55.3054         54.8706         6.10711
           12195         56.1063         54.5982         55.1427         6.75602
           12196         56.2014         53.2637         55.9498         7.55622
           12197         56.3249         52.4410         56.8909         7.51154
           12198         56.3265         52.0442         56.5958         8.29603
           12199         57.1647         48.3428         59.4961         9.43753
           12200         57.6487         47.6707         60.8257         9.14172
           12201         57.6246         47.1457         60.6643         9.62255
           12202         57.6263         45.2964         60.6194         10.6481
           12203         57.5112         44.6475         60.4641         10.9210
           12204         56.9499         44.9627         59.1680         11.2715
           12205         57.0683         45.6123         59.3238         10.9982
           12206         59.1631         42.6184         63.9580         10.3134
           12207         58.8134         42.8989         63.2855         10.4646
           12208         59.1885         43.1163         63.9498         10.1975
           12209         59.5370         42.8397         64.6093         10.0482
           12210         59.7974         41.7691         65.2073         10.0453
           12211         60.0572         42.2178         65.5745         9.88132
           12212         60.6206         42.0098         66.5527         9.60269
           12213         60.3628         41.5600         66.1918         9.76413
           12214         59.8610         39.8865         65.9536         9.54278
           12215         60.4312         40.0223         66.8191         9.30261
           12216         60.3087         39.7273         66.7740         9.18082
           12217         59.7305         39.5936         65.9048         9.41710
           12218         59.9107         38.8186         66.8221         8.38958
           12219         60.1913         38.7740         67.4159         7.93000
           12220         59.2851         38.2696         66.3195         7.95605
           12221         59.0092         38.3177         65.7238         8.41828
           12222         60.1547         38.5268         67.9165         6.78785
           12223         60.6865         38.8390         68.7997         6.13979
           12224         59.7490         38.3072         67.7687         5.94237
           12225         59.2140         37.9964         66.8855         6.59084
           12226         62.1408         39.6885         70.6696         5.68264
           12227         61.1994         39.2025         69.6206         5.50167
           12228         61.6323         39.3208         69.8515         6.31936
           12229         59.5316         39.7095         68.4210     947.914E-03
           12230         60.5167         40.0889         69.5146         1.79267
           12231         61.5365         41.4141         70.6886     865.043E-03
           12232         60.5923         41.0385         69.5937     18.1556E-03
           12233         59.5760         39.0407         68.3570         2.65512
           12234         60.5873         39.4919         69.4297         3.29843
           12235         61.4984         40.5408         70.5853         2.43590
           12236         60.5791         40.1912         69.5913        -1.68442
           12237         59.5779         39.7782         68.4740    -877.550E-03
           12238         60.5927         41.0420         69.5938    -16.4077E-03
           12239         61.5583         41.4552         70.7125    -824.729E-03
           12240         61.5241         40.6042         70.6240        -2.33781
           12241         60.6247         39.5834         69.4996        -3.12752
           12242         59.6527         39.1676         68.4668        -2.47113
           12243         59.7789         38.7881         68.4008        -3.80640
           12244         61.5206         39.9744         70.4344        -3.71497
           12245         60.7006         39.1832         69.3415        -4.39776
           12246         60.0353         38.4778         67.7201        -6.91368
           12247         60.7768         38.8620         68.8224        -6.36711
           12248         61.4914         39.2531         69.5261        -6.72373
           12249         60.7500         38.8773         68.4159        -7.26193
           12250         59.3022         38.5854         65.9792        -8.57309
           12251         60.3322         38.8936         67.5003        -8.08918
           12252         60.6559         39.3201         67.6643        -8.46898
           12253         59.6405         39.0192         66.1430        -8.95259
           12254         60.1419         40.1609         66.2719        -9.55187
           12255         60.8904         40.4426         67.3643        -9.28222
           12256         60.5734         40.8060         66.7215        -9.57234
           12257         59.8359         40.5276         65.6303        -9.83787
           12258         57.9578         44.3100         61.4337        -10.7045
           12259         57.7601         43.3390         61.2078        -11.0191
           12260         58.3263         43.7069         62.2577        -10.5945
           12261         57.7399         46.3611         60.8665        -10.0274
           12262         58.0893         46.4285         61.7601        -9.51994
           12263         57.7898         47.1310         61.0912        -9.40713
           12264         57.4570         47.0653         60.2089        -9.91310
           12265         57.7872         48.0474         61.4034        -8.38051
           12266         57.7999         47.7341         61.2936        -8.77824
           12267         58.2192         47.2152         62.3158        -8.54765
           12268         58.2123         47.5273         62.4346        -8.14645
           12269         57.0176         49.7952         59.4347        -8.13487
           12270         56.7273         50.4608         58.4180        -8.30366
           12271         56.7568         50.0210         58.3481        -8.81964
           12272         57.0496         49.3559         59.3657        -8.64887
           12273         56.3840         52.2555         57.3130        -7.27222
           12274         56.2364         52.9663         56.3209        -7.48702
           12275         56.3024         52.3445         56.4860        -8.08454
           12276         56.4606         51.6330         57.4783        -7.87105
           12277         56.1924         56.9697         53.4667        -5.75423
           12278         56.0749         56.0336         54.4156        -5.55806
           12279         56.0635         56.5923         54.3079        -4.63644
           12280         56.1926         57.5346         53.3608        -4.83361
           12281         55.8990         56.6966         54.8861        -1.78541
           12282         55.9944         57.4724         54.0642        -2.34891
           12283         55.9702         56.5561         54.7401        -3.34058
           12284         55.8800         55.7801         55.5635        -2.78001
           12285         57.1730         61.9545         50.6950    -628.652E-03
           12286         57.1057         61.6742         50.8124        -1.75820
           12287         56.6327         60.3149         51.8232        -1.77424
           12288         56.6820         60.5880         51.7046    -648.736E-03
           12289         59.2962         66.2866         47.9247    -840.679E-03
           12290         58.8757         65.5467         48.3819    -387.173E-03
           12291         59.2818         66.2614         47.9978     356.094E-03
           12292         60.1869         67.0614         47.1003         4.66918
           12293         61.0945         68.0984         46.2982         5.90081
           12294         61.7307         69.3404         45.7791         5.20272
           12295         60.8333         68.3029         46.5795         3.96972
           12296         64.7809         73.0715         43.5667         6.89336
           12297         64.0856         71.7964         43.8985         7.67954
           12298         65.5764         73.2880         42.8244         8.82645
           12299         66.2638         74.5636         42.4929         8.04027
           12300         72.6258         81.4449         38.7655         9.92856
           12301         70.5417         79.3818         40.0205         9.12724
           12302         69.8951         78.1630         40.1017         10.0363
           12303         71.9796         80.2254         38.8473         10.8379
           12304         78.2713         88.0154         36.4249         9.28939
           12305         75.4532         84.7648         37.5341         9.67616
           12306         77.6821         87.0036         36.4129         10.1166
           12307         85.1328         95.0400         33.4094         9.55748
           12308         84.8961         94.4270         33.0934         10.3380
           12309         87.1958         96.8756         32.2314         10.0298
           12310         87.4480         97.4900         32.5470         9.24757
           12311         90.1967         101.127         32.3444         6.67051
           12312         91.9083         102.957         31.8669         6.12155
           12313         90.2145         101.333         32.4079         5.88564
           12314         99.0688         111.436         33.3477     507.615E-03
           12315         98.7962         111.008         32.7321     10.3232E-03
           12316         98.3688         110.391         32.0521     640.934E-03
           12317         98.6559         110.823         32.6579         1.13911
           12318         97.9937         109.915         31.9141        -1.89088
           12319         98.6470         110.810         32.6375        -1.12677
           12320         98.8290         111.098         33.1245        -1.54748
           12321         98.1941         110.213         32.3920        -2.31181
           12322         97.6042         109.379         32.1158        -3.83630
           12323         96.4747         107.937         31.6228        -4.84106
           12324         96.2975         107.773         31.5387        -4.56495
           12325         97.4408         109.220         32.0310        -3.56294
           12326         93.6272         104.517         31.3556        -6.74033
           12327         93.4724         104.481         31.4869        -6.30257
           12328         94.9707         106.218         31.4546        -5.44296
           12329         95.1131         106.253         31.3241        -5.88510
           12330         88.5354         99.0802         32.6390        -7.96253
           12331         88.3720         98.6876         32.4795        -8.57874
           12332         86.6143         96.8365         33.0877        -8.83227
           12333         85.9087         95.4930         32.6849        -10.2349
           12334         86.2083         96.1421         32.9675        -9.50917
           12335         88.2318         98.2800         32.2235        -9.20994
           12336         87.9195         97.6311         31.9406        -9.93646
           12337         76.8013         86.1180         36.8549        -9.96176
           12338         75.3210         84.8451         37.7548        -9.17329
           12339         76.6468         86.5854         37.3765        -8.50397
           12340         78.1330         87.8686         36.4839        -9.28430
           12341         68.1887         76.1489         41.0741        -9.86069
           12342         67.7898         76.2804         41.5703        -8.55716
           12343         69.7790         78.5381         40.4147        -8.97442
           12344         70.2066         78.4165         39.9122        -10.2729
           12345         63.0471         71.4181         44.8728        -4.67437
           12346         63.8485         72.2135         44.2449        -5.75374
           12347         63.1731         71.0935         44.6822        -6.23619
           12348         62.3653         70.2976         45.3091        -5.16021
           12349         60.4618         67.8378         46.9024        -3.44363
           12350         60.9988         68.4218         46.3991        -4.51442
           12351         60.3185         67.1845         47.0005        -4.94030
           12352         59.7783         66.6011         47.5047        -3.86907
           12353         58.4092         64.6633         48.9321    -130.973E-03
           12354         58.0029         63.8216         49.4845    -449.647E-03
           12355         57.8314         63.4789         49.6886     195.694E-03
           12356         58.2411         64.3206         49.1426     508.869E-03
           12357         56.8096         60.9568         51.4002     967.723E-03
           12358         57.1644         61.9138         50.7245     819.212E-03
           12359         57.0928         61.7493         50.8707     77.5972E-03
           12360         56.7479         60.8035         51.5530     219.650E-03
           12361         55.8512         56.2330         55.2960         1.73442
           12362         55.8317         55.5203         56.0304         1.42509
           12363         55.8726         55.0883         56.3587         2.26801
           12364         55.8862         55.7894         55.6249         2.57961
           12365         56.0893         53.7589         57.4491         3.82901
           12366         56.2485         52.9193         58.2996         4.07320
           12367         56.2567         53.0305         57.8244         5.01243
           12368         56.0987         53.8710         56.9734         4.76855
           12369         56.4739         52.1030         58.3686         6.02411
           12370         56.7176         51.2904         59.2866         6.11309
           12371         56.7367         51.0821         59.0092         6.87761
           12372         56.4926         51.8965         58.0925         6.78806
           12373         57.3631         49.5922         60.8968         6.89749
           12374         57.8288         48.8211         62.1025         6.72962
           12375         57.8674         48.5108         61.9564         7.35505
           12376         57.3997         49.2736         60.7473         7.52410
           12377         58.6143         46.3828         63.0541         8.81422
           12378         59.1828         46.1955         64.3430         8.18376
           12379         59.5473         45.4516         64.9287         8.47361
           12380         58.9617         45.6340         63.6351         9.10163
           12381         60.7139         44.1354         66.8709         8.52265
           12382         61.2100         44.1363         67.7958         8.05477
           12383         61.6582         43.7247         68.4896         8.03642
           12384         61.1551         43.7274         67.5719         8.49783
           12385         60.7928         42.8210         66.8098         9.29937
           12386         60.8708         43.1690         66.9692         9.08874
           12387         61.5714         42.8692         68.1415         8.77833
           12388         61.4946         42.5225         67.9835         8.99054
           12389         60.7403         42.3904         66.7222         9.46859
           12390         61.4208         42.1877         67.8570         9.14451
           12391         61.3012         41.8023         67.6853         9.28262
           12392         62.6385         41.2758         69.8492         8.64227
           12393         62.8210         41.5486         70.0935         8.55137
           12394         63.7599         41.4627         71.5120         8.10922
           12395         63.5818         41.1935         71.2765         8.19629
           12396         62.5128         39.8389         70.4128         7.48143
           12397         61.7501         39.6207         69.2765         7.93370
           12398         62.2706         39.9109         69.8764         7.97630
           12399         63.0273         40.1228         71.0021         7.53022
           12400         63.1971         40.1836         71.8724         5.81942
           12401         63.6986         40.6163         72.6570         5.15913
           12402         62.6395         40.1289         71.4488         5.02031
           12403         65.4824         42.4664         75.0859         3.42947
           12404         65.6478         43.0490         75.3540         2.71438
           12405         64.2505         42.1691         73.7241         2.80089
           12406         64.0819         41.5993         73.4434         3.52393
           12407         63.4549         42.9926         72.8610     799.095E-03
           12408         64.2883         43.0943         73.8291         1.49893
           12409         65.2874         44.4869         74.9370     714.312E-03
           12410         64.4830         44.3900         73.9657     12.6363E-03
           12411         62.5141         41.7081         71.8002        -1.61430
           12412         62.5710         42.7684         71.8151    -14.5814E-03
           12413         63.4911         43.0186         72.9021    -806.493E-03
           12414         62.3962         40.8557         71.5611        -2.98802
           12415         63.0995         41.0905         72.3167        -3.41246
           12416         62.2381         40.2247         71.1887        -4.13374
           12417         61.1390         39.3483         69.7201        -4.90473
           12418         62.0714         39.8898         70.8593        -4.73239
           12419         62.1151         39.7413         70.7387        -5.36055
           12420         61.2100         39.1967         69.6193        -5.54654
           12421         62.3794         39.7240         70.8232        -6.07297
           12422         62.9540         39.9984         71.3988        -6.36084
           12423         62.0781         39.5335         70.1066        -7.00982
           12424         61.7014         39.5204         69.2741        -7.83226
           12425         62.2352         39.9070         69.8346        -7.97232
           12426         61.1902         39.7138         68.2200        -8.60926
           12427         61.2398         41.0004         67.7358        -9.27973
           12428         61.0178         41.3917         67.2853        -9.44532
           12429         60.3583         41.1973         66.2693        -9.73663
           12430         59.8828         43.4360         65.2072        -9.65436
           12431         59.2862         43.3656         64.1210        -10.0568
           12432         59.6481         42.7204         64.8057        -10.0268
           12433         60.2617         42.7944         65.8947        -9.62494
           12434         59.1270         45.3839         63.9522        -9.10717
           12435         58.8565         45.2096         63.3453        -9.51078
           12436         59.1939         44.7460         63.9781        -9.50921
           12437         59.4617         44.9249         64.5752        -9.10176
           12438         59.4846         46.6921         65.4645        -6.56604
           12439         60.1231         45.9794         66.4859        -6.76497
           12440         60.5564         45.8157         67.4164        -6.10362
           12441         59.9003         46.5229         66.3930        -5.90002
           12442         57.8653         49.1712         62.8097        -4.96491
           12443         58.0462         48.7965         62.9712        -5.64703
           12444         58.5862         48.1223         64.2325        -5.22140
           12445         58.4081         48.4991         64.0696        -4.53693
           12446         56.8466         51.1307         60.7451        -3.32442
           12447         57.1491         50.5097         61.5748        -3.33956
           12448         57.1753         50.4827         61.7733        -2.77189
           12449         56.8679         51.0944         60.9479        -2.75509
           12450         56.3844         52.2901         59.5588        -2.00240
           12451         56.5681         51.6899         60.3602        -1.26022
           12452         56.3432         52.3280         59.6216    -702.791E-03
           12453         56.1639         52.9292         58.8218        -1.44481
           12454         56.2859         59.0968         52.8024         1.63605
           12455         56.5930         59.8283         52.1130         2.91029
           12456         56.8763         60.8817         51.3565         2.41607
           12457         56.5698         60.1543         52.0387         1.14284
           12458         58.2437         64.0068         49.2252         2.77386
           12459         57.7155         62.7675         49.9326         3.27645
           12460         58.3062         63.6114         49.2032         4.55077
           12461         58.8340         64.8490         48.4948         4.04761
           12462         59.9088         65.4737         47.4123         7.27079
           12463         60.4833         66.8072         46.7918         6.62271
           12464         59.5882         65.8010         47.7194         5.28591
           12465         59.0088         64.4673         48.3391         5.93378
           12466         71.4842         79.0369         38.7502         11.8923
           12467         69.2593         76.8811         40.2562         10.9624
           12468         68.7582         75.5877         40.2516         12.0628
           12469         70.9883         77.7419         38.7464         12.9933
           12470         76.2434         81.8395         34.6593         15.8175
           12471         79.1526         84.7962         32.8136         16.1293
           12472         79.1033         85.8092         33.4932         14.6780
           12473         76.1879         82.8523         35.3397         14.3663
           12474         90.0616         98.5201         28.9258         11.8034
           12475         89.7571         98.8116         29.9871         10.9002
           12476         87.1444         95.8860         30.9936         11.7085
           12477         87.4628         95.5906         29.9358         12.6174
           12478         84.6107         93.1402         32.0455         12.1338
           12479         87.1708         96.4372         31.6646         10.7954
           12480         84.6219         93.6909         32.7170         11.2216
           12481         89.4960         99.0001         30.8902         10.2052
           12482         92.0743         101.482         29.3489         9.93401
           12483         91.8275         101.668         30.2534         9.24593
           12484         89.5370         99.4392         31.4568         9.43811
           12485         91.6217         101.776         30.9501         8.72324
           12486         91.6705         102.118         31.3822         8.06592
           12487         89.5696         99.7813         31.8884         8.78257
           12488         95.3560         106.206         30.6851         6.59315
           12489         95.2124         106.250         31.1399         6.19896
           12490         93.4938         104.193         31.1174         7.27479
           12491         93.6520         104.150         30.6603         7.67620
           12492         93.5299         104.436         31.3964         6.68745
           12493         95.0892         106.235         31.3381         5.86775
           12494         95.0857         106.358         31.4506         5.32574
           12495         93.5119         104.560         31.5073         6.14768
           12496         96.9665         108.689         31.3040        -1.96549
           12497         97.7899         109.673         31.6607        -1.25408
           12498         97.1819         108.929         31.5554        -2.60627
           12499         98.3593         110.377         32.0355    -606.236E-03
           12500         99.0692         111.436         33.3461    -509.743E-03
           12501         66.3268         45.9008         76.0453    -16.0014E-03
           12502         67.1529         45.8660         77.0646    -711.553E-03
           12503         66.2180         44.4260         76.0444        -1.49980
           12504         65.3574         44.4622         75.0230    -802.285E-03
           12505         67.1127         44.5172         77.0798        -2.03371
           12506         67.9600         45.7505         78.0436        -1.31351
           12507         68.7998         45.7752         79.0363        -1.75148
           12508         67.9717         44.5456         78.0726        -2.46978
           12509         65.2882         41.6608         74.6695        -4.55255
           12510         64.2280         41.1113         73.4112        -4.61612
           12511         64.5131         41.7656         73.9117        -3.72391
           12512         65.5838         42.3183         75.1749        -3.66952
           12513         64.0258         40.4551         72.4821        -6.86325
           12514         64.7500         40.7632         73.5518        -6.30521
           12515         65.5631         41.0666         74.5095        -6.33081
           12516         64.8408         40.7592         73.4467        -6.88554
           12517         64.5080         40.9324         72.7384        -7.57869
           12518         63.6352         40.8016         71.4696        -8.01745
           12519         63.3322         40.5625         71.1294        -7.98833
           12520         64.1999         40.6967         72.3923        -7.54757
           12521         66.1983         41.5135         75.0133        -6.97399
           12522         65.2854         41.3808         73.7377        -7.39135
           12523         65.4245         41.2563         73.9652        -7.27923
           12524         66.3406         41.3848         75.2386        -6.86194
           12525         66.9101         41.7113         76.0042        -6.60110
           12526         65.9617         41.6212         74.6895        -7.04185
           12527         67.1514         41.6033         76.3276        -6.53328
           12528         63.9661         43.0192         72.1434        -6.82858
           12529         64.4132         42.9905         72.8719        -6.41265
           12530         63.7599         43.3919         72.0085        -6.37276
           12531         63.3205         43.4156         71.2790        -6.79439
           12532         62.3080         43.9270         69.7549        -7.09654
           12533         61.9128         44.3728         69.2415        -6.88728
           12534         61.3539         44.5031         68.2471        -7.37822
           12535         61.7441         44.0567         68.7600        -7.58800
           12536         61.0809         45.2877         68.1566        -6.35709
           12537         61.6540         45.0355         69.2264        -5.72604
           12538         61.1197         45.5635         68.4854        -5.47028
           12539         58.9587         47.8791         65.2724        -4.01746
           12540         58.6945         48.2768         64.9547        -3.21916
           12541         58.1376         48.8965         63.7546        -3.73465
           12542         57.2122         50.3814         61.5578        -3.95628
           12543         57.5421         49.8010         62.4144        -3.81647
           12544         57.4786         49.9240         62.4307        -3.19304
           12545         56.5415         51.6895         60.3858     51.1637E-03
           12546         56.8556         51.0542         61.2574    -580.897E-03
           12547         57.1361         50.4385         62.0463     298.593E-03
           12548         56.8238         51.0732         61.1739     927.540E-03
           12549         55.9630         54.1726         57.2757         2.54640
           12550         56.1250         53.1957         58.3063         2.72373
           12551         56.1864         53.2719         57.9973         3.87093
           12552         56.0228         54.2493         56.9632         3.69554
           12553         56.5589         53.2500         57.2850         6.63825
           12554         56.4282         54.3263         56.1622         6.57495
           12555         56.1833         54.3541         56.5723         5.05650
           12556         56.3211         53.2666         57.7063         5.11657
           12557         57.4427         58.3588         51.8028         8.82287
           12558         56.7369         57.5785         53.0621         6.91486
           12559         56.7882         55.8976         54.1876         8.02108
           12560         57.5336         56.6849         52.9171         9.93843
           12561         60.4661         65.1428         46.9131         9.44766
           12562         60.0076         63.6700         47.5287         10.2342
           12563         61.3477         64.8267         46.1912         11.8580
           12564         61.8039         66.3047         45.5800         11.0761
           12565         65.0122         67.4435         42.8727         15.6139
           12566         65.3923         69.1886         42.3797         14.4366
           12567         63.3947         67.6747         44.1602         12.6152
           12568         62.9817         65.9208         44.6511         13.7944
           12569         74.2122         74.8927         35.0998         20.7786
           12570         70.5493         71.6897         38.1823         19.2975
           12571         71.5390         70.0616         37.6296         21.8297
           12572         75.2555         73.2929         34.5224         23.3095
           12573         77.7055         78.2013         32.3477         21.6484
           12574         76.9365         79.5377         33.1354         19.4126
           12575         73.4558         76.2384         35.8698         18.5426
           12576         82.8736         87.3155         29.6114         17.8207
           12577         82.3713         88.1429         30.7283         16.1256
           12578         79.6636         83.9625         31.7046         17.8269
           12579         69.7875         48.5829         79.9697    -9.85233E-03
           12580         70.5058         48.3810         80.8888    -526.324E-03
           12581         69.6161         46.9830         79.9452        -1.12995
           12582         68.8758         47.1827         79.0268    -612.786E-03
           12583         70.3579         46.8901         80.8409        -1.51984
           12584         71.1779         48.0918         81.7418    -976.757E-03
           12585         71.8328         47.8926         82.5502        -1.32429
           12586         71.0269         46.6918         81.6491        -1.86746
           12587         71.6440         45.5602         82.3896        -2.75539
           12588         72.2520         46.3752         83.1129        -2.33191
           12589         72.7968         46.2905         83.7617        -2.44382
           12590         72.1906         45.4810         83.0350        -2.86797
           12591         68.7257         42.5823         78.6673        -4.87389
           12592         69.4475         43.0331         79.6021        -4.47740
           12593         69.7627         42.9291         79.9496        -4.62451
           12594         69.0436         42.4793         79.0156        -5.01958
           12595         68.5808         41.9016         78.2917        -5.73095
           12596         68.3507         41.8088         77.9608        -5.92748
           12597         67.4867         41.5945         76.8291        -6.25339
           12598         67.6977         41.6916         77.1429        -6.05448
           12599         69.1458         41.8594         78.9924        -5.64853
           12600         69.0251         41.8558         78.8524        -5.63573
           12601         67.9803         41.7532         77.4661        -6.09511
           12602         68.1004         41.7512         77.6063        -6.10787
           12603         66.1687         42.0090         75.0616        -6.64747
           12604         67.0274         41.9423         76.2643        -6.21733
           12605         66.6561         42.1382         75.8263        -6.13620
           12606         65.8014         42.2049         74.6243        -6.56477
           12607         66.2064         42.5056         75.4038        -5.65411
           12608         65.1360         42.7497         73.9008        -6.13939
           12609         65.3599         42.5245         74.1008        -6.42262
           12610         66.4253         42.2881         75.6000        -5.93466
           12611         64.2058         43.4377         72.8183        -5.66000
           12612         63.5344         43.6362         71.7927        -6.08485
           12613         64.4364         43.1934         73.0431        -5.94582
           12614         61.7777         45.2036         69.6569        -4.82306
           12615         61.2548         45.6818         68.9510        -4.50496
           12616         60.6066         46.0396         67.7833        -5.15292
           12617         60.2124         46.7569         67.6794        -2.78710
           12618         60.7914         46.2540         68.6031        -2.76606
           12619         61.1631         46.0203         69.2719        -2.03144
           12620         60.5628         46.5112         68.3429        -2.04233
           12621         59.2398         47.7062         66.3083    -9.56741E-03
           12622         59.8560         47.1343         67.3423    -291.223E-03
           12623         60.2725         46.7190         68.0260     475.748E-03
           12624         59.6551         47.3021         66.9970     761.612E-03
           12625         57.9116         49.1767         63.5963         2.47450
           12626         58.4237         48.5776         64.7174         1.73371
           12627         58.9484         47.8747         65.5333         2.92719
           12628         58.4528         48.4713         64.4137         3.66776
           12629         57.7813         49.4818         62.2928         5.54384
           12630         58.3497         48.6530         62.9193         6.83018
           12631         58.1073         49.2598         61.6928         7.80804
           12632         57.5046         50.0820         61.0634         6.53242
           12633         56.9567         51.3355         59.6192         6.18784
           12634         56.7348         52.1218         58.6198         6.35709
           12635         56.5319         52.3172         58.8051         5.07415
           12636         56.7561         51.5068         59.8002         4.91126
           12637         57.7218         52.6806         56.4176         10.7351
           12638         57.6472         54.3137         54.7248         10.8125
           12639         56.8470         54.5410         55.3842         8.36983
           12640         56.9532         52.9349         57.0534         8.29830
           12641         67.8828         60.2211         43.8591         23.7985
           12642         71.2871         63.1670         40.4877         25.8845
           12643         68.8411         64.9627         40.9092         22.3827
           12644         65.5686         62.0249         44.2387         20.3223
           12645         72.9419         50.8002         83.5810    -5.05826E-03
           12646         73.5353         50.4124         84.3746    -404.490E-03
           12647         72.6678         49.0724         83.4627    -856.491E-03
           12648         72.0575         49.4591         82.6692    -457.089E-03
           12649         73.2534         48.7703         84.2018        -1.17235
           12650         74.0914         49.9068         85.1177    -769.878E-03
           12651         74.6046         49.4660         85.7841        -1.07166
           12652         73.7777         48.3300         84.8675        -1.47417
           12653         73.8368         46.7057         84.9984        -2.28298
           12654         73.1767         45.9824         84.2155        -2.62235
           12655         73.4640         47.0132         84.5477        -2.10203
           12656         73.8696         44.5562         85.0156        -3.25483
           12657         73.5159         44.7384         84.5961        -3.22776
           12658         74.1289         45.2939         85.3450        -2.90955
           12659         74.4773         45.1042         85.7596        -2.93743
           12660         71.4933         42.5367         82.0149        -4.62317
           12661         70.7524         42.4172         81.0796        -4.89713
           12662         71.1313         42.7184         81.5760        -4.65276
           12663         71.8796         42.8350         82.5149        -4.38382
           12664         71.4258         42.0188         81.9513        -4.60239
           12665         71.5912         41.9236         82.1927        -4.39264
           12666         70.5332         41.8316         80.8655        -4.78035
           12667         70.3729         41.9222         80.6232        -4.98915
           12668         71.2468         41.5983         81.9201        -3.76510
           12669         71.2665         41.6841         81.8939        -4.01696
           12670         72.1864         41.6073         83.0268        -3.68683
           12671         72.1765         41.5175         83.0577        -3.44065
           12672         70.2853         41.7400         80.7295        -4.09049
           12673         71.2584         41.5374         82.0012        -3.38294
           12674         70.2876         41.6777         80.8085        -3.70685
           12675         67.8267         42.3224         78.0517        -2.61678
           12676         68.2727         42.1759         78.5515        -2.88689
           12677         69.1500         41.8686         79.6786        -2.31628
           12678         68.7028         42.0124         79.1759        -2.04733
           12679         62.9710         44.6441         71.6775        -3.39446
           12680         63.8769         44.1280         72.9554        -3.15478
           12681         64.2260         44.0076         73.5490        -2.27836
           12682         63.2980         44.5283         72.2699        -2.51496
           12683         63.7815         44.2808         73.0839    -865.875E-03
           12684         63.8974         44.1982         73.2627     130.424E-03
           12685         62.8063         44.8597         71.7769    -262.529E-03
           12686         62.7202         44.9439         71.6054        -1.26086
           12687         62.4317         45.0202         71.1675         1.83164
           12688         61.6106         45.6346         70.0558     913.088E-03
           12689         62.4658         45.0854         71.2972     390.180E-03
           12690         63.2908         44.4782         72.4076         1.30561
           12691         59.6390         47.1242         66.4693         4.09319
           12692         60.4593         46.2188         67.4724         5.32653
           12693         59.9547         46.6975         66.3086         6.15158
           12694         59.1164         47.6032         65.3060         4.91853
           12695         61.7959         44.7194         67.3953         9.84317
           12696         62.1617         44.4850         68.6460         8.69121
           12697         63.6373         43.1080         70.1188         9.95729
           12698         63.2980         43.3429         68.8669         11.1096
           12699         63.0547         44.1761         64.3174         15.5877
           12700         62.9521         43.8617         65.9879         13.8932
           12701         65.0061         41.8474         67.8317         15.4060
           12702         65.1350         42.1630         66.1590         17.1007
           12703         66.9833         47.2074         55.6068         24.4347
           12704         65.1641         46.2464         58.1669         21.7121
           12705         67.9611         43.3863         60.0755         24.0397
           12706         69.8134         44.3408         57.5183         26.7697
           12707         67.0537         55.6510         47.4229         24.4224
           12708         64.4485         53.6400         50.5241         21.8616
           12709         66.6712         51.2889         51.3959         24.5561
           12710         69.3233         53.2947         48.2910         27.1233
           12711         61.9072         47.7093         58.8786         17.3079
           12712         64.0761         45.3347         60.4185         19.4864
           12713         62.9448         48.6204         56.6272         19.5338
           12714         75.7783         52.5588         86.8643    -2.31630E-03
           12715         76.2640         51.9040         87.5581    -346.754E-03
           12716         75.4430         50.5752         86.7020    -712.291E-03
           12717         74.9401         51.2288         86.0075    -369.399E-03
           12718         75.8821         49.9478         87.2949        -1.01620
           12719         76.7071         51.0921         88.1945    -668.788E-03
           12720         77.1137         50.2307         88.7652    -978.008E-03
           12721         76.3055         49.0934         87.8684        -1.32617
           12722         75.5340         46.7471         87.0275        -2.20513
           12723         76.2760         47.0796         87.9108        -2.00263
           12724         76.0973         46.2546         87.7052        -2.30067
           12725         75.3580         45.9241         86.8234        -2.50196
           12726         76.5331         45.5704         88.2255        -2.40644
           12727         75.7868         45.3903         87.3341        -2.59719
           12728         76.8445         46.4326         88.5978        -2.10860
           12729         74.2971         42.7799         85.4978        -3.54280
           12730         73.3811         42.7788         84.3749        -3.87644
           12731         74.1926         43.3495         85.3732        -3.54338
           12732         75.1112         43.3517         86.4930        -3.20941
           12733         74.4669         41.8815         85.7428        -3.18695
           12734         74.7674         41.6907         86.1211        -2.92442
           12735         73.9037         41.5857         85.0964        -3.15096
           12736         73.6129         41.7725         84.7236        -3.41300
           12737         73.2128         41.3196         84.3358        -2.88691
           12738         74.1497         41.2202         85.4421        -2.62404
           12739         74.2440         41.0524         85.5811        -2.31335
           12740         73.2999         41.1505         84.4731        -2.57664
           12741         72.4418         41.1726         83.4964        -2.49943
           12742         71.9958         41.2018         82.9990        -2.35824
           12743         71.0072         41.4599         81.7816        -2.91742
           12744         71.4496         41.4289         82.2761        -3.05248
           12745         68.4523         41.9674         78.9893    -198.104E-03
           12746         68.9851         41.6650         79.6188     617.709E-03
           12747         67.7429         42.2004         78.1315     542.619E-03
           12748         67.2263         42.5018         77.5035    -272.659E-03
           12749         68.7758         41.5248         79.2578         2.24876
           12750         69.3304         41.1381         79.7986         3.12588
           12751         68.0953         41.7148         78.3410         3.02861
           12752         67.5500         42.1025         77.7932         2.15150
           12753         66.9024         41.9731         76.5091         4.89471
           12754         67.3161         41.8763         77.1520         4.32952
           12755         68.1702         41.3506         78.0809         4.80840
           12756         67.7616         41.4406         77.4373         5.37960
           12757         65.1886         42.6646         73.9332         6.25816
           12758         64.7374         42.8307         73.0734         6.98860
           12759         63.5981         43.7057         71.8792         6.03971
           12760         64.0639         43.5396         72.7385         5.31049
           12761         63.9693         43.0409         71.2043         8.83537
           12762         65.6266         41.6577         72.8767         9.93896
           12763         65.3180         41.7250         71.7903         11.0615
           12764         69.5020         39.9328         64.7034         23.3321
           12765         68.3101         39.8838         66.6329         20.7620
           12766         71.4860         36.9148         69.3955         22.3124
           12767         72.6821         36.9546         67.4713         24.8867
           12768         78.2939         53.8901         89.8086    -489.697E-06
           12769         78.6741         52.9805         90.3977    -284.931E-03
           12770         77.9002         51.5514         89.6051    -604.148E-03
           12771         77.4999         52.4589         89.0146    -321.764E-03
           12772         78.2672         50.9379         90.1055    -788.718E-03
           12773         79.0765         51.6754         91.0240    -599.165E-03
           12774         79.1444         50.5271         91.1942    -863.578E-03
           12775         78.3399         49.8022         90.2739        -1.05543
           12776         80.0048         47.7398         92.3286        -1.27341
           12777         79.3550         47.8310         91.5602        -1.36117
           12778         79.6207         49.0215         91.8405        -1.12799
           12779         80.2634         48.9302         92.6073        -1.03616
           12780         77.3112         45.6797         89.1547        -2.18973
           12781         76.9329         44.8493         88.6968        -2.45439
           12782         76.1549         44.7400         87.7681        -2.67075
           12783         76.7013         41.9117         88.4006        -2.37016
           12784         75.7093         41.7646         87.2317        -2.67362
           12785         75.4451         42.1740         86.9068        -2.92840
           12786         76.4316         42.3292         88.0776        -2.62154
           12787         76.2085         40.8743         87.8528        -1.81017
           12788         77.2036         40.7883         88.9880        -1.58168
           12789         77.3813         40.4534         89.1899        -1.23623
           12790         76.3794         40.5395         88.0546        -1.46480
           12791         74.4919         40.6572         85.9150        -1.60311
           12792         75.4930         40.3957         87.0594        -1.27349
           12793         75.5038         40.2290         87.0789    -970.555E-03
           12794         74.5030         40.4943         85.9414        -1.30554
           12795         74.8289         39.7100         86.3066     546.996E-03
           12796         73.6578         40.0623         85.0022     407.466E-03
           12797         73.3442         40.3279         84.6584    -161.658E-03
           12798         74.5068         39.9763         85.9630    -22.8996E-03
           12799         71.5522         40.6601         82.6018     818.953E-03
           12800         70.2479         41.1490         81.1006     688.236E-03
           12801         69.6967         41.4922         80.4645    -224.425E-03
           12802         70.9848         41.0046         81.9660    -88.9469E-03
           12803         70.6001         40.5700         81.2737         3.17832
           12804         71.1783         40.1422         81.7831         4.05945
           12805         69.8937         40.7090         80.3049         4.00649
           12806         69.1344         40.8865         79.2303         4.82586
           12807         69.8481         40.3472         79.8367         5.71961
           12808         68.8786         40.8136         78.6947         5.70033
           12809         69.6256         38.7108         76.9400         11.6596
           12810         69.5374         38.4611         76.0017         12.9493
           12811         67.3400         40.0648         73.7893         12.1241
           12812         67.4462         40.3140         74.7268         10.8353
           12813         76.3587         32.2951         78.6779         19.4798
           12814         77.2032         31.5980         77.4089         21.7235
           12815         73.8014         34.3681         74.0708         21.0132
           12816         72.9492         35.0565         75.3449         18.7715
           12817         74.7941         34.0051         72.4863         23.4410
           12818         70.4897         37.2687         70.9855         19.8867
           12819         80.4823         54.8352         92.3962    -5.49135E-03
           12820         80.9103         53.7743         93.0506    -205.152E-03
           12821         80.2589         52.0355         92.4251    -511.636E-03
           12822         79.8039         53.0837         91.7719    -311.590E-03
           12823         81.3376         52.8313         93.6621    -344.662E-03
           12824         81.4464         55.2019         93.5409    -5.52500E-03
           12825         81.8561         54.2554         94.1548    -143.200E-03
           12826         80.6217         47.6341         93.0564        -1.15561
           12827         80.8292         48.6280         93.2839        -1.00147
           12828         81.3681         48.4398         93.9221    -924.493E-03
           12829         81.1651         47.4455         93.6941        -1.07684
           12830         79.5053         45.8253         91.7467        -1.63320
           12831         78.8151         45.8332         90.9359        -1.79612
           12832         79.0854         46.7644         91.2538        -1.60970
           12833         79.7731         46.7572         92.0648        -1.44711
           12834         80.6029         44.9903         93.0141        -1.39058
           12835         80.3813         44.2866         92.7384        -1.47279
           12836         79.7120         44.3096         91.9632        -1.66315
           12837         79.9356         45.0138         92.2387        -1.58050
           12838         79.5835         41.5928         91.7215        -1.37746
           12839         80.3889         41.6363         92.6368        -1.19325
           12840         80.6006         41.1519         92.8487    -997.754E-03
           12841         79.7907         41.1088         91.9333        -1.17818
           12842         78.6110         39.9833         90.5551    -706.140E-03
           12843         77.5960         40.0901         89.4231    -895.565E-03
           12844         78.3906         40.3473         90.3226        -1.04695
           12845         77.8928         39.7346         89.7421    -472.074E-03
           12846         76.8196         39.8746         88.5496    -607.982E-03
           12847         76.5280         40.2287         88.2288        -1.03297
           12848         76.0630         39.3388         87.6673     637.418E-03
           12849         76.3608         39.0490         87.9578         1.18930
           12850         75.1182         39.4223         86.5955         1.10005
           12851         78.0474         38.0870         89.6709         2.25129
           12852         77.5212         38.1337         89.0601         2.57263
           12853         76.7945         38.5167         88.3246         2.20522
           12854         77.3246         38.4692         88.9378         1.88346
           12855         73.7075         39.1109         84.6492         4.01451
           12856         74.8951         38.6684         85.9839         3.90093
           12857         75.5100         38.2021         86.4913         4.68181
           12858         74.3203         38.6464         85.1589         4.79643
           12859         72.4641         39.1380         82.8098         5.85412
           12860         73.8337         38.5727         84.3714         5.75789
           12861         74.7101         37.9007         85.0551         6.69373
           12862         73.3357         38.4712         83.5012         6.78295
           12863         72.5971         38.4561         82.3035         7.80345
           12864         73.2071         37.8174         82.5502         8.87743
           12865         71.3289         38.7728         80.5085         8.64871
           12866         70.7503         39.4139         80.2739         7.57537
           12867         81.6779         29.6568         87.3143         15.8894
           12868         80.9095         31.0443         87.6991         14.3064
           12869         84.2759         29.0292         91.2300         13.9661
           12870         85.0421         27.6343         90.8505         15.5486
           12871         83.4915         30.4870         91.3535         12.6625
           12872         86.7565         28.7635         94.8161         12.0624
           12873         87.5388         27.3005         94.6949         13.3643
           12874         74.7884         34.8481         81.3608         14.0784
           12875         77.8368         32.8464         84.5019         14.3143
           12876         78.2548         31.9483         83.7777         15.9266
           12877         75.2050         33.9507         80.6356         15.6917
           12878         82.4311         28.4315         86.6548         17.7126
           12879         79.0145         30.7307         83.1143         17.7492
           12880         83.1494         55.7179         95.5750    -190.638E-06
           12881         83.4648         54.8442         96.0547    -76.5080E-03
           12882         83.0296         53.7302         95.6300    -179.900E-03
           12883         82.7020         54.6034         95.1504    -103.076E-03
           12884         83.8796         55.8892         96.4507     695.908E-06
           12885         84.1466         54.9971         96.8681    -58.2329E-03
           12886         83.7433         53.9524         96.4725    -135.713E-03
           12887         83.1996         49.7929         96.0435    -505.626E-03
           12888         83.5215         50.4787         96.4029    -413.343E-03
           12889         83.7121         49.7067         96.6451    -440.014E-03
           12890         83.3873         49.0191         96.2763    -524.223E-03
           12891         82.9329         47.7516         95.7524    -697.658E-03
           12892         82.8382         46.6483         95.6310    -782.038E-03
           12893         82.2025         46.5644         94.8961    -916.852E-03
           12894         82.2977         47.6628         95.0145    -829.390E-03
           12895         83.3040         43.5038         96.0392    -712.447E-03
           12896         83.0768         42.7758         95.7374    -724.679E-03
           12897         82.4735         43.0152         95.0731    -869.569E-03
           12898         82.7079         43.7421         95.3787    -854.912E-03
           12899         83.1299         41.3993         95.6943    -565.295E-03
           12900         83.0139         40.8650         95.5200    -485.668E-03
           12901         82.4622         41.0291         94.9213    -610.340E-03
           12902         82.5816         41.5593         95.0961    -684.358E-03
           12903         81.5857         39.5089         93.8178    -215.435E-03
           12904         81.3232         40.1179         93.5821    -492.651E-03
           12905         82.2479         39.9825         94.5927    -359.253E-03
           12906         82.5156         39.3714         94.8271    -81.5535E-03
           12907         80.2113         38.8118         92.2331     309.671E-03
           12908         79.4809         38.9103         91.4376     281.688E-03
           12909         79.1478         39.2530         91.1021    -24.1880E-03
           12910         79.8788         39.1604         91.9022    -3.29501E-03
           12911         79.3951         38.1987         91.2417         1.25253
           12912         78.6089         38.6356         90.4342     873.768E-03
           12913         79.2562         38.6059         91.1519     697.518E-03
           12914         80.0404         38.1705         91.9568         1.07508
           12915         82.4153         36.1249         94.1180         3.11390
           12916         83.2588         35.7139         94.9490         3.27738
           12917         82.9415         35.6463         94.5391         3.69530
           12918         82.0983         36.0614         93.7101         3.53302
           12919         83.5195         35.0314         94.9204         4.60530
           12920         82.1383         35.5813         93.5020         4.65328
           12921         81.8187         35.9261         93.2992         4.11342
           12922         83.1901         35.3798         94.7102         4.06909
           12923         83.5370         34.4773         94.5605         6.00693
           12924         83.6984         34.1277         94.5065         6.69672
           12925         81.9827         34.8246         92.7448         6.74780
           12926         81.8363         35.1729         92.8139         6.05983
           12927         78.8498         35.7311         89.1285         7.77516
           12928         77.2749         36.6220         87.6595         7.21862
           12929         78.2436         36.4396         88.8839         6.65244
           12930         79.8071         35.5528         90.3399         7.20466
           12931         89.1536         28.7569         98.1441         10.1893
           12932         89.8625         27.3671         98.1611         11.2116
           12933         86.0408         30.1516         94.7997         11.0344
           12934         88.4615         30.0277         97.9796         9.41402
           12935         85.7393         31.1018         95.0895         9.98930
           12936         85.4234         31.9377         95.2142         9.17116
           12937         88.1623         30.8557         98.1116         8.60103
           12938         84.5294         56.0166         97.2313     1.17683E-03
           12939         84.7489         55.0838         97.5898    -45.1852E-03
           12940         84.3774         54.0645         97.2269    -104.904E-03
           12941         85.0989         56.1101         97.9161     1.50923E-03
           12942         85.2729         55.1326         98.2187    -35.3733E-03
           12943         84.9345         54.1062         97.8927    -82.4699E-03
           12944         83.8921         48.8319         96.8645    -471.512E-03
           12945         84.0882         50.4771         97.0684    -343.626E-03
           12946         84.2581         49.6116         97.2836    -372.036E-03
           12947         84.0424         48.1411         97.0380    -482.263E-03
           12948         83.5819         47.3474         96.4991    -596.265E-03
           12949         83.4275         48.0239         96.3264    -590.202E-03
           12950         83.4070         44.3340         96.2013    -712.057E-03
           12951         83.8265         44.2315         96.6705    -620.255E-03
           12952         83.7282         43.4045         96.5105    -625.466E-03
           12953         83.5310         41.2212         96.1245    -473.713E-03
           12954         83.2761         41.8693         95.8949    -601.876E-03
           12955         83.6792         41.6879         96.3292    -509.588E-03
           12956         82.6335         37.8958         94.7732     766.691E-03
           12957         83.3717         37.7629         95.5612     715.557E-03
           12958         83.7554         37.2619         95.9000         1.02201
           12959         83.0094         37.3960         95.1065         1.07384
           12960         83.0609         36.5783         94.9952         1.98370
           12961         82.2296         36.7932         94.1166         2.07247
           12962         81.6986         37.3188         93.6420         1.60713
           12963         82.5244         37.1076         94.5185         1.51841
           12964         84.6504         35.4408         96.4709         2.70875
           12965         83.8905         35.5744         95.6402         3.02045
           12966         82.9777         36.1619         94.7842         2.65455
           12967         83.7434         36.0273         95.6214         2.34604
           12968         84.1893         35.0169         95.7477         3.95065
           12969         85.1738         34.7045         96.7923         3.67700
           12970         85.6448         34.3329         97.1723         4.08371
           12971         84.6595         34.6438         96.1263         4.35705
           12972         90.1232         31.9021         101.205         5.49831
           12973         88.8191         32.2864         99.8277         5.88570
           12974         88.4163         32.6026         99.5486         5.48120
           12975         89.7442         32.2137         100.946         5.09794
           12976         87.6859         32.0357         98.2304         7.30772
           12977         88.5889         32.0035         99.3470         6.66797
           12978         90.7403         30.9716         101.402         6.65102
           12979         89.8320         30.9936         100.288         7.29760
           12980         92.5814         30.4329         103.332         6.11823
           12981         94.9837         30.0338         105.977         4.88717
           12982         95.4167         29.2285         106.141         5.36848
           12983         93.0132         29.6163         103.476         6.62397
           12984         98.5576         31.8263         110.529     782.628E-03
           12985         97.3103         31.2617         109.045         1.83378
           12986         97.0585         31.3018         108.817         1.37146
           12987         98.3175         31.8481         110.292     331.923E-03
           12988         99.3024         33.0755         111.574        -1.69719
           12989         98.8274         32.4074         110.947    -986.996E-03
           12990         98.5118         32.1566         110.536        -1.50804
           12991         99.0042         32.8134         111.167        -2.21537
           12992         98.2612         32.6077         110.164        -4.00633
           12993         98.4578         33.1179         110.412        -4.58277
           12994         99.0542         33.5706         111.227        -3.96892
           12995         98.8765         33.0476         110.985        -3.39285
           12996         92.6669         32.9433         104.151        -5.33882
           12997         93.3054         32.8038         104.721        -5.73034
           12998         94.0415         32.5014         105.527        -5.20757
           12999         93.4064         32.6369         104.954        -4.82006
           13000         88.2613         34.9288         99.3910        -7.37286
           13001         88.8309         34.6815         100.121        -6.73787
           13002         87.5547         35.2956         98.9002        -6.57117
           13003         86.9906         35.5393         98.1699        -7.20852
           13004         83.8460         37.7621         95.7729        -4.01322
           13005         84.6933         37.3971         96.6616        -3.90744
           13006         84.2845         37.7758         96.3245        -3.52119
           13007         83.4371         38.1386         95.4330        -3.62509
           13008         79.4547         39.9370         91.2575        -3.40072
           13009         79.3110         40.1606         91.1839        -2.87822
           13010         78.1505         40.6425         89.9288        -2.79469
           13011         78.2938         40.4182         90.0068        -3.31502
           13012         77.0533         41.6591         88.8933    -986.059E-03
           13013         77.3881         41.4299         89.2460        -1.30185
           13014         78.0974         41.3050         90.0451        -1.19482
           13015         77.7563         41.5375         89.6868    -879.170E-03
           13016         74.0425         43.4471         85.3820         2.17242
           13017         74.7049         43.2649         86.1878         1.78390
           13018         75.4144         43.3151         87.0093         1.76353
           13019         74.7450         43.4979         86.1996         2.15184
           13020         72.9674         44.0084         83.9408         3.44211
           13021         72.0444         43.9847         82.7940         3.76705
           13022         72.1595         43.8847         82.9744         3.54452
           13023         73.0880         43.9098         84.1220         3.21710
           13024         72.8053         45.1207         83.6642         3.65241
           13025         73.0443         44.9821         83.9608         3.62399
           13026         73.5795         45.2584         84.6234         3.38737
           13027         73.3415         45.3969         84.3289         3.41607
           13028         71.2910         45.5482         81.8275         3.61153
           13029         70.6542         45.0152         81.0188         4.02802
           13030         71.2596         45.0487         81.7540         3.98881
           13031         71.8977         45.5813         82.5632         3.57232
           13032         66.4456         43.6600         75.9501         4.33528
           13033         67.2613         43.9122         76.8958         4.45338
           13034         67.7947         44.4971         77.6261         3.84954
           13035         66.9794         44.2383         76.6787         3.72933
           13036         64.5877         43.4001         73.9714         2.97758
           13037         63.5215         42.5219         72.6609         3.50947
           13038         64.0372         42.5901         73.1866         3.98314
           13039         65.0760         43.4590         74.4821         3.44160
           13040         58.6447         40.1176         67.3043     20.2833E-03
           13041         57.7020         39.0286         66.2485         1.00100
           13042         58.8454         39.7240         67.4925         1.88151
           13043         59.7457         40.8120         68.5506     901.568E-03
           13044         58.0612         38.8970         66.4830         2.83603
           13045         59.2259         39.6201         67.7035         3.49310
           13046         59.9787         40.4401         68.7124         2.54165
           13047         56.5341         38.1685         64.9480     25.9146E-03
           13048         55.6213         37.1839         63.9040         1.09061
           13049         56.8447         38.0459         65.2060         2.06802
           13050         54.7604         36.2965         62.8341         2.14468
           13051         53.8168         35.5386         61.5979         3.05824
           13052         55.1815         36.5706         62.9014         4.13696
           13053         56.0666         37.3194         64.1338         3.21512
           13054         56.2945         37.5279         63.5516         5.96877
           13055         55.5646         37.1106         62.5438         6.31239
           13056         56.3126         37.8097         63.0535         7.06714
           13057         56.9919         38.1493         64.0409         6.69787
           13058         53.9987         36.3353         60.2730         7.13713
           13059         54.5936         36.8742         60.7324         7.56733
           13060         55.3094         37.2056         61.8051         7.17624
           13061         54.7276         36.6506         61.3504         6.74550
           13062         57.7649         40.6324         62.9319         9.70296
           13063         57.2253         39.9254         62.4968         9.48791
           13064         56.5280         39.9912         61.2261         9.93303
           13065         57.0797         40.7027         61.6635         10.1467
           13066         56.5241         41.9280         59.8764         10.9899
           13067         56.7941         41.4937         60.6385         10.6916
           13068         55.9377         40.9883         59.4353         10.8411
           13069         55.6756         41.4291         58.6609         11.1440
           13070         57.3323         43.5602         60.4437         11.0906
           13071         56.7611         43.0835         59.6208         11.2497
           13072         56.4143         43.7081         58.6069         11.5327
           13073         56.9733         44.1850         59.4228         11.3750
           13074         57.3578         45.7249         59.4374         11.3155
           13075         56.7184         45.9610         57.9535         11.6842
           13076         56.8746         46.8736         57.8224         11.6117
           13077         57.4896         46.6259         59.3034         11.2437
           13078         57.9630         48.7476         59.5650         10.6309
           13079         57.7976         49.5337         58.8513         10.6243
           13080         58.0687         49.7586         59.5029         10.2672
           13081         58.2487         48.9883         60.2225         10.2714
           13082         57.6685         53.6157         56.4471         9.85200
           13083         57.8334         53.4860         57.2258         9.48577
           13084         57.8288         52.5814         57.6952         9.73528
           13085         57.6495         52.7174         56.9003         10.1049
           13086         58.3933         59.6252         54.0246         7.23857
           13087         58.1980         58.4647         54.8516         7.46252
           13088         58.1345         58.1845         54.3314         8.23657
           13089         58.3254         59.3460         53.5020         8.01192
           13090         59.3876         63.4492         51.9934         5.67790
           13091         59.8835         64.7524         51.1060         5.49459
           13092         59.8744         64.8990         51.4741         4.62245
           13093         59.3754         63.5959         52.3610         4.80503
           13094         61.1855         67.8258         49.8953         3.55800
           13095         61.1257         67.5789         49.6954         4.40336
           13096         61.8593         68.9136         48.8306         4.40282
           13097         61.9235         69.1643         49.0316         3.55714
           13098         62.7189         70.7025         48.7924         1.13549
           13099         62.3811         70.1178         48.9612         1.89244
           13100         63.0946         71.2654         48.2671         2.01965
           13101         63.4437         71.8526         48.0999         1.26658
           13102         64.8392         73.6730         47.4320        -2.64998
           13103         65.7156         74.9077         46.8046        -2.75265
           13104         65.7996         74.8590         46.7847        -3.61298
           13105         64.9178         73.6210         47.4098        -3.50866
           13106         67.5922         77.4898         45.5915        -2.47132
           13107         68.6973         78.8737         44.9612        -2.76877
           13108         68.7990         78.8196         44.9355        -3.80194
           13109         67.6790         77.4303         45.5688        -3.50629
           13110         72.2453         82.4924         43.0832        -6.11700
           13111         73.5811         84.1003         42.4825        -6.03729
           13112         74.3070         84.5500         42.0246        -7.30154
           13113         72.9670         82.9391         42.6189        -7.38682
           13114         79.8839         90.8642         39.7549        -7.23391
           13115         78.6296         89.6723         40.3033        -6.61383
           13116         79.3162         90.5772         40.0996        -6.08181
           13117         80.5668         91.7689         39.5499        -6.70153
           13118         83.7196         95.0507         38.3488        -7.04233
           13119         85.2053         96.5165         37.7632        -7.37637
           13120         84.9344         96.0380         37.7675        -7.98505
           13121         83.4474         94.5734         38.3531        -7.64980
           13122         93.5598         104.794         34.7508        -8.28050
           13123         92.2399         103.352         35.1274        -8.62238
           13124         91.3786         102.630         35.4876        -8.16325
           13125         92.6939         104.064         35.1154        -7.83135
           13126         95.7932         107.115         34.1105        -8.01790
           13127         96.4868         107.962         33.9722        -7.47353
           13128         97.7470         109.222         33.6256        -7.46268
           13129         97.0450         108.372         33.7610        -8.00517
           13130         102.477         114.423         32.4714        -4.82483
           13131         103.235         115.253         32.3182        -4.25661
           13132         103.975         116.023         32.3706        -4.37234
           13133         103.220         115.192         32.5195        -4.95459
           13134         104.931         117.099         31.8865        -2.26729
           13135         105.019         117.182         32.0233        -2.85714
           13136         103.913         116.004         32.0845        -3.33759
           13137         103.820         115.926         31.9502        -2.75471
           13138         106.042         118.307         31.8351    -634.549E-03
           13139         105.416         117.629         31.7765        -1.18254
           13140         104.936         117.116         31.6644    -630.878E-03
           13141         105.570         117.795         31.7273    -82.7176E-03
           13142         105.632         117.860         32.0449         2.38497
           13143         106.484         118.822         32.2278         1.89844
           13144         106.365         118.678         32.0274         1.19013
           13145         105.501         117.714         31.8445         1.67524
           13146         103.900         115.954         32.3064         4.16742
           13147         104.405         116.515         32.1304         3.46554
           13148         103.290         115.344         32.1584         3.62910
           13149         102.792         114.789         32.3355         4.32109
           13150         98.7054         110.332         33.3992         6.80828
           13151         99.3122         111.022         33.2323         6.38149
           13152         98.3218         110.035         33.4805         6.39209
           13153         97.7146         109.342         33.6518         6.82155
           13154         96.4086         107.627         33.8743         8.35326
           13155         96.8787         108.264         33.8289         7.79854
           13156         95.0765         106.446         34.3517         7.86175
           13157         94.6108         105.806         34.3970         8.41560
           13158         92.6818         103.898         35.0404         8.32452
           13159         93.4784         104.883         34.8687         7.72437
           13160         91.8089         103.275         35.4553         7.47654
           13161         91.0132         102.287         35.6278         8.07591
           13162         87.9340         99.3805         36.8089         7.28218
           13163         86.8503         98.3920         37.2540         6.82198
           13164         85.8151         97.2173         37.5715         7.16514
           13165         86.8991         98.2078         37.1362         7.62982
           13166         78.0034         89.2527         40.6479         5.60270
           13167         78.6839         89.7564         40.2983         6.53251
           13168         80.4490         91.6754         39.6149         6.58377
           13169         79.7568         91.1675         39.9610         5.65385
           13170         67.6510         77.6218         45.5373         2.04540
           13171         67.4443         77.2288         45.6938         2.91009
           13172         68.8168         78.8740         44.9341         3.63828
           13173         69.0063         79.2655         44.7828         2.77366
           13174         64.1889         72.9734         47.7165     294.331E-03
           13175         65.2609         74.4901         46.9941     887.347E-03
           13176         65.4434         74.7945         46.7345    -16.1293E-03
           13177         64.3840         73.2774         47.4556    -609.009E-03
           13178         60.6099         66.7279         50.7168        -3.31534
           13179         61.1127         67.7535         50.1321        -3.03468
           13180         61.1222         67.6714         49.9054        -3.79144
           13181         60.6193         66.6368         50.4876        -4.06514
           13182         59.9850         65.1826         51.3027        -4.52783
           13183         60.2080         65.7827         51.1652        -3.89659
           13184         60.3842         66.0320         50.6183        -4.69912
           13185         59.1007         62.6125         52.6855        -5.64421
           13186         58.8409         61.8608         53.5046        -5.24664
           13187         59.1019         62.8277         53.1358        -4.49836
           13188         59.3725         63.5798         52.3190        -4.89399
           13189         58.0059         57.3747         54.5919        -8.65543
           13190         57.9804         56.7768         55.4737        -8.37485
           13191         58.1017         57.6357         55.2952        -7.81778
           13192         58.1379         58.2337         54.4138        -8.09742
           13193         58.0460         55.0691         57.4580        -8.15399
           13194         57.9425         55.4301         56.5950        -8.54218
           13195         57.9221         54.5710         57.0200        -8.89454
           13196         58.0379         54.2110         57.8804        -8.50826
           13197         57.8819         53.5411         57.4550        -9.28785
           13198         57.9388         52.6093         58.0728        -9.51987
           13199         58.1635         52.4465         59.0232        -9.02184
           13200         58.0903         53.3740         58.4054        -8.79090
           13201         58.0700         49.8292         59.4806        -10.2487
           13202         57.8064         49.5339         58.8808        -10.6085
           13203         57.9790         48.7668         59.5959        -10.6143
           13204         58.2486         49.0613         60.1976        -10.2551
           13205         58.1820         45.6909         61.1459        -10.8393
           13206         57.8313         46.3969         60.1364        -11.0384
           13207         57.2993         45.8031         59.2847        -11.3436
           13208         57.6415         45.0977         60.2938        -11.1431
           13209         57.0936         43.1253         60.2301        -11.1005
           13210         57.6118         42.6759         61.4109        -10.7604
           13211         58.1751         43.3782         62.0907        -10.6584
           13212         57.6565         43.8270         60.9102        -10.9989
           13213         58.1202         41.4017         63.0398        -9.99649
           13214         57.5278         41.6333         61.8517        -10.4175
           13215         56.8162         40.9103         61.0733        -10.3763
           13216         57.4102         40.6786         62.2620        -9.95573
           13217         57.3684         39.1917         63.4032        -8.56453
           13218         58.1160         39.9360         64.0869        -8.84727
           13219         57.3163         39.8299         62.7363        -9.33941
           13220         56.5582         39.0875         62.0512        -9.05659
           13221         56.1473         37.8392         62.6142        -7.51549
           13222         55.6145         37.3049         62.3483        -6.82907
           13223         56.7935         37.9135         63.9660        -6.36645
           13224         57.3032         38.4535         64.2318        -7.05210
           13225         56.1733         37.4164         63.5420        -5.63843
           13226         55.0833         36.7007         62.1224        -5.99920
           13227         54.5663         36.2600         61.7939        -5.31837
           13228         55.6651         36.9784         63.1983        -4.97141
           13229         55.5809         37.1612         63.8644    -983.275E-03
           13230         56.5324         38.1683         64.9458    -20.1997E-03
           13231         57.6681         39.0163         66.2130    -924.255E-03
           13232         56.7611         38.0097         65.1307        -1.88640
           13233         53.2269         35.1090         60.6346        -4.19218
           13234         54.5755         36.1632         62.1287        -4.37843
           13235         53.2158         35.2097         60.2999        -5.13999
           13236         59.7015         40.7904         68.5010    -857.831E-03
           13237         58.7648         39.6913         67.4105        -1.76406
           13238         58.6436         40.1177         67.3029    -17.9728E-03
           13239         59.8364         40.3616         68.5597        -2.45499
           13240         60.7296         41.3125         69.6463        -1.63554
           13241         61.7368         41.8487         70.7497        -2.26399
           13242         60.8673         40.8958         69.6612        -3.08392
           13243         60.0988         40.1732         68.6366        -3.84482
           13244         61.8679         41.4496         70.7377        -3.54925
           13245         61.1152         40.7308         69.7121        -4.30980
           13246         59.8737         39.9672         67.3399        -6.93309
           13247         60.1018         40.2825         67.3518        -7.44715
           13248         59.1680         39.8290         66.0965        -7.70977
           13249         58.9270         39.5126         66.0848        -7.19091
           13250         60.0860         41.1206         66.5479        -8.70429
           13251         59.4739         40.6298         65.8843        -8.61161
           13252         60.1571         40.7234         66.9875        -8.18778
           13253         60.7734         41.2109         67.6588        -8.27927
           13254         60.5943         42.9760         66.4505        -9.39562
           13255         59.9474         43.2460         65.2553        -9.78516
           13256         59.3692         42.6854         64.5052        -9.91899
           13257         60.0111         42.4161         65.7004        -9.52923
           13258         58.7197         44.0092         62.8032        -10.5018
           13259         59.2200         44.6049         63.5172        -10.2656
           13260         58.6577         45.1019         62.2877        -10.5843
           13261         58.1635         44.5047         61.5744        -10.8209
           13262         58.2204         48.0132         60.4418        -10.5379
           13263         58.5661         47.3733         61.4084        -10.3905
           13264         58.8419         47.8033         61.9276        -10.0421
           13265         58.4904         48.4449         60.9579        -10.1891
           13266         58.7010         48.7316         61.4075        -9.87657
           13267         58.4539         49.3432         60.6478        -9.94158
           13268         58.1287         54.8901         58.1049        -7.72929
           13269         58.1157         55.5902         57.6759        -7.45826
           13270         58.0400         55.7707         57.0334        -7.87951
           13271         58.4298         60.0214         54.9066        -5.54722
           13272         58.3206         59.1925         55.0597        -6.45715
           13273         58.2056         58.1981         56.1235        -6.25290
           13274         58.2966         59.0217         55.9711        -5.34400
           13275         58.8792         62.2006         53.8269        -4.02386
           13276         59.1764         63.2393         53.3272        -3.22627
           13277         59.4038         63.8650         52.6362        -3.70193
           13278         60.9228         67.1269         51.2524         2.52806
           13279         60.9902         67.4972         50.9875         1.38062
           13280         60.1653         65.8411         52.1083     369.821E-03
           13281         60.0612         65.4654         52.3836         1.51651
           13282         65.1468         74.2405         47.1459         1.81248
           13283         64.0615         72.6991         47.9543         1.33386
           13284         64.1253         72.6417         47.9709         2.49749
           13285         65.2339         74.1831         47.1627         2.98253
           13286         66.5986         75.3730         46.2255         5.82094
           13287         68.1119         76.8953         45.2284         7.27066
           13288         69.1177         78.4875         44.6442         6.52877
           13289         67.6277         76.9819         45.6244         5.09775
           13290         75.0694         84.4594         41.2312         9.73597
           13291         73.2449         82.5049         42.1844         9.28520
           13292         73.6644         82.4415         41.7249         10.4681
           13293         75.4898         84.3716         40.7602         10.9201
           13294         81.4746         90.9274         38.0910         11.2977
           13295         81.3920         91.2943         38.4413         10.3561
           13296         79.0863         88.9648         39.5139         9.89798
           13297         79.1598         88.5980         39.1622         10.8427
           13298         85.4237         96.0521         37.2691         9.34517
           13299         87.3313         97.7902         36.4022         9.97481
           13300         88.9268         99.7173         36.0456         9.30085
           13301         87.0125         97.9718         36.8986         8.68356
           13302         95.5429         106.322         33.7271         9.53185
           13303         95.2296         105.718         33.4335         10.1490
           13304         97.5492         108.199         32.8302         9.71563
           13305         97.8735         108.801         33.1234         9.09723
           13306         98.0624         109.193         33.3271         8.59333
           13307         98.3946         109.706         33.3935         8.05050
           13308         96.0854         107.114         33.8089         8.89524
           13309         101.781         113.478         32.8719         6.62712
           13310         101.565         113.321         32.8835         6.29703
           13311         100.033         111.657         33.1167         6.83858
           13312         100.259         111.819         33.1018         7.16732
           13313         108.785         122.086         35.4987     964.240E-03
           13314         108.288         121.228         34.2505         1.75147
           13315         108.337         121.481         35.1098         1.98402
           13316         108.823         122.329         36.3690         1.19799
           13317         108.934         122.295         35.6607     10.7671E-03
           13318         108.670         121.727         34.4996     584.806E-03
           13319         109.041         122.648         36.6750     390.918E-03
           13320         107.690         120.626         34.6716        -2.97827
           13321         107.674         120.681         34.9924        -3.07321
           13322         106.672         119.268         33.9748        -4.16203
           13323         106.684         119.212         33.6573        -4.06494
           13324         103.730         115.641         32.8254        -5.92984
           13325         105.280         117.481         33.1006        -5.00342
           13326         105.352         117.533         33.2192        -5.34636
           13327         103.812         115.690         32.9340        -6.27648
           13328         94.7583         105.930         34.3472        -8.49834
           13329         96.4678         107.602         33.7831        -8.59770
           13330         95.1506         106.017         33.9567        -9.32763
           13331         93.4451         104.348         34.5448        -9.21654
           13332         94.6731         105.235         33.7370        -10.0117
           13333         97.8213         108.801         33.2089        -8.97400
           13334         97.3331         108.019         32.9763        -9.66499
           13335         86.9082         97.4864         36.6496        -9.64519
           13336         86.8055         97.0300         36.4043        -10.4468
           13337         84.5800         94.7904         37.2889        -10.2099
           13338         84.6802         95.2428         37.5344        -9.40920
           13339         76.9161         86.3648         40.3306        -10.2274
           13340         79.1132         88.4713         39.1293        -10.9916
           13341         78.5690         87.3203         39.0392        -12.0155
           13342         76.3630         85.2131         40.2378        -11.2509
           13343         69.6790         79.3915         44.3929        -5.93962
           13344         70.9190         80.9071         43.7395        -6.03426
           13345         71.3728         81.1681         43.4619        -6.94268
           13346         70.1068         79.6346         44.1071        -6.83874
           13347         67.2034         76.3683         45.8660        -5.26629
           13348         67.6215         76.6214         45.5601        -6.24469
           13349         66.6638         75.2522         46.1748        -6.42415
           13350         66.2436         74.9981         46.4801        -5.44737
           13351         62.5655         70.4304         49.1374    -310.201E-03
           13352         62.3941         70.0745         49.4092        -1.10183
           13353         61.6643         68.8556         50.1006    -585.304E-03
           13354         61.8460         69.2153         49.8304     207.659E-03
           13355         60.8340         67.2074         51.1855        -1.15908
           13356         60.7925         66.9107         51.3996        -2.30613
           13357         60.1497         65.5887         52.3014        -1.91914
           13358         60.1995         65.8849         52.0885    -772.745E-03
           13359         58.3805         59.8054         56.0611         3.71958
           13360         58.2549         58.6505         56.9477         4.11185
           13361         58.2731         58.7575         56.3724         5.09119
           13362         58.3985         59.9116         55.4908         4.70069
           13363         58.2294         55.8585         58.5302         6.16752
           13364         58.1737         55.8980         57.9858         6.79532
           13365         58.1509         56.7658         57.3317         6.49949
           13366         58.2041         56.7261         57.8734         5.87278
           13367         58.2169         55.2210         58.5585         6.93809
           13368         58.1577         55.0873         58.1851         7.47136
           13369         58.1167         55.7696         57.6109         7.33090
           13370         58.2132         51.0314         59.5591         9.60332
           13371         58.4847         51.1792         60.3698         9.06120
           13372         58.6929         50.3689         61.1479         9.10536
           13373         58.4147         50.2443         60.3379         9.63955
           13374         59.4292         45.0042         63.7849         10.1411
           13375         59.5138         45.5326         63.8113         10.0381
           13376         60.0443         45.3041         64.8568         9.74215
           13377         59.9648         44.7748         64.8294         9.84659
           13378         59.2850         41.8545         64.7598         9.65340
           13379         60.0260         41.8687         66.0035         9.25842
           13380         59.6708         41.2886         65.7387         9.10180
           13381         58.9244         41.2823         64.4962         9.49813
           13382         61.1895         41.0922         68.4640         7.78028
           13383         60.2082         40.6846         67.1220         8.06756
           13384         60.2533         40.9909         66.9258         8.45575
           13385         61.2183         41.4007         68.2644         8.16147
           13386         60.2976         40.1092         68.1348         6.25924
           13387         59.2074         39.4655         66.8271         6.31106
           13388         59.0878         39.5143         66.3761         7.00004
           13389         60.1744         40.1687         67.6869         6.94759
           13390         61.3992         40.7223         69.7108         5.49978
           13391         60.3028         40.0850         68.3547         5.69371
           13392         61.3893         40.7355         69.5006         6.05741
           13393         58.2273         38.8440         65.7481         6.12839
           13394         57.3836         38.2294         64.8600         5.89143
           13395         57.8452         38.7369         64.9258         6.95665
           13396         53.9736         35.7450         61.3236         4.72115
           13397         54.8079         36.4387         61.9716         5.59201
           13398         55.9797         37.2590         63.5497         4.99090
           13399         85.5880         56.1786         98.5043     1.71090E-03
           13400         85.7195         55.1558         98.7552    -28.5319E-03
           13401         85.4171         54.1097         98.4703    -65.8982E-03
           13402         85.9966         56.2296         98.9956     1.59362E-03
           13403         86.0878         55.1696         99.1972    -24.1900E-03
           13404         85.8235         54.0947         98.9569    -54.6354E-03
           13405         85.4085         51.1119         98.5984    -180.236E-03
           13406         85.1043         50.2200         98.2607    -244.373E-03
           13407         84.9492         51.2254         98.0572    -214.315E-03
           13408         85.2623         52.1163         98.3943    -150.329E-03
           13409         84.6714         46.6370         97.7322    -442.412E-03
           13410         84.4968         47.5505         97.5544    -434.050E-03
           13411         84.9070         48.4116         98.0373    -343.839E-03
           13412         85.0737         47.4952         98.2144    -352.279E-03
           13413         85.2843         43.9323         98.2906    -393.785E-03
           13414         85.5673         43.3451         98.5640    -354.266E-03
           13415         85.3023         42.7445         98.2211    -374.423E-03
           13416         85.0153         43.3318         97.9473    -414.322E-03
           13417         84.9193         41.3267         97.6702    -322.514E-03
           13418         84.5456         41.0317         97.2291    -334.851E-03
           13419         84.2801         41.5619         96.9852    -412.569E-03
           13420         84.6545         41.8552         97.4261    -399.479E-03
           13421         85.2255         39.0789         97.7572     10.6486E-03
           13422         85.1085         39.5001         97.6811    -64.6211E-03
           13423         85.5512         39.5311         98.1680    -95.6380E-03
           13424         85.6599         39.1113         98.2344    -17.9652E-03
           13425         85.8748         37.3987         98.2283     457.031E-03
           13426         86.1426         37.6450         98.5561     284.100E-03
           13427         86.6786         37.1122         99.0535     346.910E-03
           13428         86.4135         36.8646         98.7270     520.723E-03
           13429         85.9999         36.7361         98.2565     743.798E-03
           13430         85.5230         36.6626         97.7261     920.153E-03
           13431         85.0139         37.1643         97.2566     775.842E-03
           13432         85.4902         37.2400         97.7868     600.380E-03
           13433         86.2354         35.1039         98.1692         2.09598
           13434         86.8221         35.0490         98.8130         1.72552
           13435         87.6379         34.4643         99.5627         1.93543
           13436         87.0511         34.5175         98.9187         2.30627
           13437         87.1227         34.1027         98.8473         3.02986
           13438         87.6375         33.7109         99.2783         3.39038
           13439         86.5472         34.0644         98.1368         3.74940
           13440         86.0441         34.4546         97.7188         3.38499
           13441         89.8420         32.5931         101.339         3.76796
           13442         90.6854         32.3060         102.194         3.55864
           13443         90.7438         32.1820         102.183         3.90833
           13444         89.8924         32.4711         101.318         4.11464
           13445         94.4194         30.9531         105.750         3.96127
           13446         94.5815         30.6007         105.757         4.50483
           13447         92.9593         30.8199         103.984         5.27865
           13448         92.7870         31.1647         103.977         4.73709
           13449         91.1319         31.3325         102.080         5.81562
           13450         86.3235         56.2704         99.3881     1.51403E-03
           13451         86.3805         55.1691         99.5489    -22.2284E-03
           13452         86.1588         54.0696         99.3583    -47.5999E-03
           13453         86.0268         52.0168         99.2973    -109.375E-03
           13454         86.1260         51.2473         99.4337    -132.748E-03
           13455         85.9273         50.2219         99.2171    -171.642E-03
           13456         85.8124         50.9776         99.0732    -155.072E-03
           13457         86.0603         48.0036         99.3540    -232.556E-03
           13458         86.1080         49.1456         99.4260    -196.337E-03
           13459         86.2945         48.9001         99.6379    -187.556E-03
           13460         86.2523         47.7515         99.5669    -228.724E-03
           13461         85.5092         47.4161         98.7103    -303.139E-03
           13462         85.6736         48.0312         98.9122    -269.167E-03
           13463         85.8191         47.3582         99.0621    -270.723E-03
           13464         85.6615         46.7446         98.8628    -305.283E-03
           13465         86.5177         42.0569         99.5042    -312.675E-03
           13466         86.6054         42.6762         99.6594    -328.958E-03
           13467         86.8129         42.0477         99.8281    -345.082E-03
           13468         86.7287         41.4296         99.6720    -328.984E-03
           13469         86.4922         40.1383         99.2678    -234.389E-03
           13470         86.8869         39.7456         99.6497    -259.451E-03
           13471         86.8493         39.1373         99.5305    -189.587E-03
           13472         86.4494         39.5294         99.1467    -165.772E-03
           13473         87.4961         38.0177         100.073    -228.931E-03
           13474         87.4214         38.4803         100.059    -293.304E-03
           13475         87.6742         38.1667         100.286    -371.446E-03
           13476         87.7510         37.7054         100.300    -307.821E-03
           13477         87.7023         36.0989         99.9882     356.044E-03
           13478         87.1945         36.3929         99.4917     457.478E-03
           13479         87.1453         36.7125         99.4927     326.351E-03
           13480         87.6543         36.4206         99.9922     224.874E-03
           13481         88.0547         35.4764         100.254     527.065E-03
           13482         87.6280         35.8503         99.8629     557.533E-03
           13483         88.1266         35.7260         100.378     323.584E-03
           13484         89.6527         33.5452         101.552         1.42295
           13485         88.9078         33.9301         100.832         1.58171
           13486         88.7855         34.2431         100.782         1.19864
           13487         89.5094         33.8600         101.481         1.04095
           13488         90.9816         32.8593         102.821         1.19632
           13489         91.4897         32.7401         103.347     692.119E-03
           13490         92.1543         32.3559         103.958     812.776E-03
           13491         91.6446         32.4758         103.430         1.31641
           13492         94.4431         31.5067         106.155     922.160E-03
           13493         95.3280         31.3442         107.039     944.229E-03
           13494         94.9721         31.3236         106.630         1.68644
           13495         94.0841         31.4904         105.745         1.65133
           13496         93.8787         31.1928         105.287         3.60630
           13497         95.3281         31.1688         106.900         2.60325
           13498         95.8622         30.9475         107.370         2.96728
           13499         94.2626         31.3200         105.828         2.54150
           13500         96.0413         31.1817         107.708         1.74496
           13501         86.7363         56.3437         99.8812     830.824E-06
           13502         86.7220         55.2505         99.9525    -22.0057E-03
           13503         86.5888         54.0536         99.8710    -46.2271E-03
           13504         86.5879         55.1495         99.7991    -22.7869E-03
           13505         86.5031         51.7434         99.8631    -102.672E-03
           13506         86.5778         51.1811         99.9615    -116.072E-03
           13507         86.5347         49.9790         99.9212    -147.091E-03
           13508         86.4517         50.5351         99.8228    -138.789E-03
           13509         86.5831         49.5456         99.9757    -163.364E-03
           13510         86.5735         48.6897         99.9547    -184.063E-03
           13511         86.5160         49.1297         99.8950    -175.894E-03
           13512         86.6368         46.4448         99.9551    -247.401E-03
           13513         86.5798         46.2934         99.8836    -257.117E-03
           13514         86.5382         47.1001         99.8710    -238.823E-03
           13515         86.5957         47.2759         99.9425    -232.428E-03
           13516         86.7359         43.7983         99.8996    -330.193E-03
           13517         86.8571         43.2337         99.9871    -356.323E-03
           13518         86.8297         42.6517         99.9048    -356.189E-03
           13519         86.7088         43.2150         99.8215    -330.615E-03
           13520         87.1827         39.8605         99.9852    -357.568E-03
           13521         87.1586         40.3980         100.025    -401.542E-03
           13522         87.3728         39.8892         100.194    -475.365E-03
           13523         87.4018         39.3521         100.156    -430.750E-03
           13524         87.5730         38.9738         100.290    -481.510E-03
           13525         87.5844         38.5834         100.249    -411.201E-03
           13526         87.4060         38.9632         100.109    -358.950E-03
           13527         88.5894         36.2003         100.954    -418.323E-03
           13528         88.3028         36.4984         100.700    -263.601E-03
           13529         88.1304         36.9647         100.591    -348.500E-03
           13530         88.4139         36.6670         100.844    -503.438E-03
           13531         89.1857         35.3613         101.439    -542.573E-03
           13532         88.8154         35.7281         101.114    -300.305E-03
           13533         88.9529         35.8334         101.273    -658.617E-03
           13534         90.8245         33.3882         102.793     68.9881E-03
           13535         91.0748         33.3443         103.046    -328.137E-03
           13536         91.5443         32.9913         103.466    -243.706E-03
           13537         91.2934         33.0332         103.212     152.277E-03
           13538         92.4467         32.3377         104.270     263.439E-03
           13539         93.1553         32.0129         104.939     296.788E-03
           13540         92.8634         32.0314         104.627     846.791E-03
           13541         93.8877         31.9191         105.671    -934.988E-03
           13542         94.5821         31.7166         106.348        -1.00012
           13543         94.6428         31.6119         106.400    -383.331E-03
           13544         93.9472         31.8157         105.722    -317.546E-03
           13545         96.2117         31.2982         107.954     783.551E-03
           13546         97.2320         31.4404         109.059     407.257E-03
           13547         97.0584         31.4535         108.883    -316.991E-03
           13548         96.2795         31.3680         108.052     35.7059E-03
           13549         96.1173         31.4239         107.889    -658.993E-03
           13550         96.9074         31.5116         108.725        -1.01530
           13551         86.8242         56.4276         99.9800     69.1428E-06
           13552         86.7340         55.3755         99.9577    -24.2137E-03
           13553         86.6941         54.2850         99.9828    -46.0233E-03
           13554         86.7705         55.3371         100.004    -22.5038E-03
           13555         86.6361         53.3058         99.9650    -68.8336E-03
           13556         86.6173         54.2759         99.8920    -48.9930E-03
           13557         86.5074         53.0934         99.8225    -72.9368E-03
           13558         86.5414         52.1277         99.8976    -93.2745E-03
           13559         86.4655         49.7616         99.8411    -148.751E-03
           13560         86.4583         48.9172         99.8262    -174.132E-03
           13561         86.5268         48.7302         99.9019    -182.551E-03
           13562         86.5339         49.5773         99.9193    -154.289E-03
           13563         86.6133         48.2736         99.9918    -198.520E-03
           13564         86.6390         47.2149         99.9895    -228.903E-03
           13565         86.6193         47.8318         99.9872    -213.269E-03
           13566         86.6013         48.9000         99.9899    -180.665E-03
           13567         86.7193         44.9336         99.9628    -328.462E-03
           13568         86.6056         45.8603         99.8906    -284.231E-03
           13569         86.5428         45.2919         99.7876    -317.201E-03
           13570         86.6629         44.3647         99.8605    -361.797E-03
           13571         87.2117         40.6011         100.102    -634.279E-03
           13572         87.3644         39.9596         100.190    -653.328E-03
           13573         87.3539         40.2158         100.213    -571.228E-03
           13574         87.2040         40.8591         100.126    -550.815E-03
           13575         87.6417         38.1354         100.223        -1.18215
           13576         87.9106         37.5596         100.423        -1.23983
           13577         87.9810         37.7410         100.535        -1.04498
           13578         87.7146         38.3166         100.336    -988.744E-03
           13579         88.5136         36.5605         100.908        -1.27526
           13580         88.5028         36.7120         100.930        -1.07926
           13581         88.2310         37.1928         100.717        -1.06605
           13582         88.2414         37.0400         100.695        -1.26189
           13583         89.6784         34.9338         101.847        -1.51263
           13584         89.4065         35.2965         101.637        -1.29165
           13585         89.1675         35.5457         101.417        -1.51189
           13586         89.4389         35.1819         101.627        -1.73179
           13587         91.7651         33.1525         103.674        -1.86743
           13588         92.1566         32.8432         104.038        -1.54618
           13589         91.5820         33.1857         103.526        -1.14265
           13590         91.1983         33.4914         103.172        -1.46512
           13591         92.7000         32.7823         104.400        -3.73180
           13592         93.5231         32.3658         105.229        -3.25309
           13593         93.0039         32.5480         104.779        -2.71493
           13594         92.1812         32.9674         103.957        -3.19285
           13595         95.6460         31.6907         107.380        -2.33601
           13596         95.8075         31.7820         107.516        -2.96474
           13597         96.4200         31.7125         108.161        -2.73236
           13598         96.2458         31.6223         108.006        -2.11086
           13599         97.5927         31.9002         109.430        -2.74204
           13600         97.1555         31.7082         108.973        -2.16072
           13601         96.8659         31.8982         108.615        -3.30877
           13602         86.5873         56.5219         99.6845     862.062E-06
           13603         86.4151         55.3862         99.5738    -22.2905E-03
           13604         86.4613         54.2387         99.7084    -47.6221E-03
           13605         86.6161         55.3736         99.8163    -24.2177E-03
           13606         86.0800         52.5963         99.3391    -60.2765E-03
           13607         86.2441         52.0742         99.5506    -81.0995E-03
           13608         86.3401         53.3749         99.6116    -67.6592E-03
           13609         86.1843         53.9047         99.3984    -46.7908E-03
           13610         86.0257         49.5416         99.3335    -119.017E-03
           13611         86.2121         49.6331         99.5487    -134.233E-03
           13612         86.2223         50.9838         99.5509    -107.791E-03
           13613         86.0373         50.8999         99.3369    -88.8501E-03
           13614         86.9711         41.1045         99.8965    -655.518E-03
           13615         86.7860         41.8189         99.7712    -583.108E-03
           13616         86.6496         41.5682         99.5936    -655.872E-03
           13617         86.8376         40.8522         99.7199    -727.148E-03
           13618         86.5294         39.1558         99.1550        -1.28176
           13619         86.1975         39.3761         98.8220        -1.28809
           13620         86.2230         38.9786         98.7895        -1.45775
           13621         86.5638         38.7591         99.1309        -1.45045
           13622         86.7617         38.2874         99.2719        -1.59310
           13623         86.4642         38.2319         98.9299        -1.78295
           13624         86.8622         37.6534         99.2652        -1.94515
           13625         87.1567         37.7086         99.6046        -1.75421
           13626         87.4275         36.3827         99.5979        -2.81449
           13627         87.6509         36.4792         99.8852        -2.49176
           13628         87.0809         37.0222         99.3725        -2.34711
           13629         86.8557         36.9257         99.0848        -2.66961
           13630         90.3745         34.0819         102.273        -3.25775
           13631         89.5084         34.6214         101.442        -3.40102
           13632         89.6459         34.4570         101.483        -3.95993
           13633         90.5109         33.9172         102.315        -3.81567
           13634         91.7489         33.2352         103.438        -4.15122
           13635         92.1527         33.1070         103.748        -4.73125
           13636         93.0942         32.6584         104.709        -4.30801
           13637         94.7645         32.3696         106.252        -5.24198
           13638         95.0536         32.1582         106.633        -4.45809
           13639         94.3376         32.2974         105.917        -4.42881
           13640         86.0252         56.5992         98.9943    -3.84761E-03
           13641         85.7279         55.4082         98.7443    -11.2284E-03
           13642         85.8205         53.8886         98.9663    -31.0109E-03
           13643         86.0985         55.0723         99.2176    -26.0046E-03
           13644         85.4932         53.2116         98.6160    -14.3258E-03
           13645         85.4046         54.3534         98.4384    -6.75742E-03
           13646         85.0665         53.5723         98.0870     16.4966E-03
           13647         85.1626         52.4318         98.2634     8.40007E-03
           13648         84.7391         49.3582         97.8470     50.0368E-03
           13649         84.4743         48.7004         97.5424     84.3274E-03
           13650         84.6443         47.9539         97.7331     41.9792E-03
           13651         84.9042         48.6103         98.0378     9.05511E-03
           13652         85.1552         46.7564         98.2899    -93.3221E-03
           13653         85.3629         47.5197         98.5476    -95.0171E-03
           13654         85.0963         48.0636         98.2530    -34.0503E-03
           13655         84.8834         47.2999         97.9952    -27.9850E-03
           13656         84.7873         43.8685         97.7321    -280.055E-03
           13657         85.0240         43.2840         97.9539    -382.273E-03
           13658         85.3456         43.7016         98.3433    -366.656E-03
           13659         85.1101         44.2853         98.1205    -265.290E-03
           13660         85.3474         41.7104         98.1723    -688.815E-03
           13661         85.4436         42.1359         98.3203    -604.815E-03
           13662         85.0232         42.4480         97.8839    -523.863E-03
           13663         84.9202         42.0254         97.7312    -608.309E-03
           13664         86.3339         39.6182         99.0064        -1.17139
           13665         86.0989         39.9705         98.7965        -1.09363
           13666         85.9607         39.7321         98.6116        -1.21099
           13667         85.6324         38.6868         98.0867        -1.81547
           13668         86.0889         38.1319         98.4944        -1.99052
           13669         86.0114         38.7871         98.5256        -1.60845
           13670         85.3528         37.5438         97.5177        -3.00308
           13671         84.7899         37.6747         96.8904        -3.29187
           13672         85.5270         37.0588         97.5546        -3.64600
           13673         86.0911         36.9262         98.1831        -3.35354
           13674         86.8268         36.3268         98.8492        -3.60393
           13675         86.3058         36.4369         98.2275        -4.14361
           13676         87.2205         35.7861         99.0625        -4.41425
           13677         87.7380         35.6785         99.6825        -3.86977
           13678         89.5107         34.3549         100.947        -6.04623
           13679         89.7814         34.2583         101.360        -5.34301
           13680         88.3208         35.0125         99.9650        -5.21906
           13681         88.0461         35.1087         99.5461        -5.91589
           13682         85.1449         56.6372         97.9162    -1.83534E-03
           13683         84.7732         55.6393         97.5670     14.3294E-03
           13684         84.9284         54.5774         97.8494     17.6239E-03
           13685         85.2893         55.5747         98.1994     934.794E-06
           13686         84.5663         53.7306         97.4785     52.9318E-03
           13687         84.3763         54.6377         97.1786     46.9335E-03
           13688         83.9941         53.7429         96.7911     98.4581E-03
           13689         84.1915         52.8383         97.0892     103.424E-03
           13690         84.1590         50.3482         97.1565     147.100E-03
           13691         84.3064         49.5053         97.3436     125.462E-03
           13692         84.6375         50.1947         97.7188     71.5065E-03
           13693         84.4971         51.0379         97.5334     92.5207E-03
           13694         83.7207         48.2771         96.6713     226.254E-03
           13695         83.9955         48.8842         96.9880     173.851E-03
           13696         83.7241         49.5727         96.6645     228.006E-03
           13697         83.4441         48.9636         96.3469     287.355E-03
           13698         84.1162         44.0756         96.9943    -146.340E-03
           13699         84.3453         43.4450         97.2097    -270.024E-03
           13700         84.5601         44.5061         97.5176    -157.645E-03
           13701         84.1566         41.4154         96.8277    -740.282E-03
           13702         84.3125         41.9391         97.0509    -593.833E-03
           13703         83.8281         42.2620         96.5429    -458.147E-03
           13704         83.6698         41.7361         96.3208    -606.008E-03
           13705         84.6061         40.2769         97.1933        -1.16520
           13706         84.9661         40.1494         97.5730        -1.19196
           13707         84.8929         40.5557         97.5437        -1.03384
           13708         84.5340         40.6887         97.1643        -1.00351
           13709         84.1953         39.2421         96.5875        -1.83126
           13710         84.7142         39.2466         97.1630        -1.72079
           13711         84.2847         39.8772         96.7852        -1.39742
           13712         83.7659         39.8700         96.2089        -1.50591
           13713         83.9591         38.2920         96.1122        -2.92306
           13714         83.4496         38.3942         95.5418        -3.14805
           13715         82.7912         38.2667         94.6799        -4.03510
           13716         83.1074         37.9441         94.9082        -4.49917
           13717         84.1686         37.4421         96.0043        -4.48027
           13718         83.9433         56.5476         96.4520    -527.691E-06
           13719         83.4912         55.4806         96.0206     53.4972E-03
           13720         83.7362         54.5450         96.4126     87.0737E-03
           13721         84.1765         55.6108         96.8435     30.7769E-03
           13722         83.3259         53.5641         96.0012     161.313E-03
           13723         83.0178         54.3008         95.5643     140.629E-03
           13724         82.5459         53.0328         95.1040     260.531E-03
           13725         82.8636         52.3025         95.5377     282.009E-03
           13726         83.0683         50.9702         95.8525     314.973E-03
           13727         83.1136         50.0341         95.9393     333.585E-03
           13728         83.5613         50.3837         96.4549     246.675E-03
           13729         83.5055         51.3249         96.3543     228.957E-03
           13730         81.8743         47.6976         94.5300     650.489E-03
           13731         82.4326         47.8387         95.1790     514.407E-03
           13732         82.4841         48.8348         95.2290     490.117E-03
           13733         81.9287         48.6932         94.5810     625.548E-03
           13734         81.7569         44.3614         94.3450     429.432E-03
           13735         82.3973         44.4373         95.0753     272.317E-03
           13736         82.4051         45.2646         95.1132     391.082E-03
           13737         81.7682         45.1826         94.3829     548.933E-03
           13738         80.4675         42.9193         92.8260     328.336E-03
           13739         79.7059         42.9969         91.9660     520.143E-03
           13740         79.5762         42.5959         91.8049     335.958E-03
           13741         80.3405         42.5166         92.6641     142.431E-03
           13742         81.1234         40.8389         93.4034        -1.07807
           13743         81.4571         41.0503         93.7992    -880.705E-03
           13744         80.8781         41.3697         93.1859    -652.538E-03
           13745         80.5387         41.1581         92.7859    -847.629E-03
           13746         80.5522         39.4574         92.4292        -3.44648
           13747         79.6536         39.6832         91.3788        -3.91827
           13748         80.7558         39.2047         92.5522        -3.96077
           13749         82.4175         56.2575         94.6040     5.68606E-03
           13750         81.8867         54.9760         94.1109     129.033E-03
           13751         82.2219         53.9721         94.6290     211.926E-03
           13752         82.7351         55.2512         95.1205     87.3646E-03
           13753         80.9055         51.9445         93.2118     539.348E-03
           13754         81.4878         51.7283         93.9277     498.656E-03
           13755         81.7898         53.0310         94.1914     326.541E-03
           13756         81.2166         53.2572         93.4755     358.731E-03
           13757         80.7246         49.2822         93.1445     854.649E-03
           13758         81.3856         49.5749         93.9169     702.055E-03
           13759         81.4435         50.7170         93.9356     592.045E-03
           13760         80.7852         50.4249         93.1651     749.187E-03
           13761         81.2800         47.5539         93.8372     810.956E-03
           13762         81.2377         46.6598         93.7908     810.874E-03
           13763         81.8345         46.8033         94.4840     651.267E-03
           13764         79.9285         43.4193         92.2313     666.736E-03
           13765         79.1172         43.4678         91.3042     896.489E-03
           13766         78.8908         43.0425         91.0380     750.392E-03
           13767         78.6688         42.3296         90.7689     264.011E-03
           13768         77.8482         42.4337         89.8419     401.533E-03
           13769         77.9349         42.1214         89.9314     66.5395E-03
           13770         78.7586         42.0150         90.8570    -71.6884E-03
           13771         78.9514         40.9252         90.9627        -1.51619
           13772         78.7572         41.1595         90.7796        -1.16785
           13773         78.2905         41.0707         90.2285        -1.54523
           13774         80.5744         55.6876         92.3915    -860.542E-06
           13775         79.7959         54.1498         91.6352     255.545E-03
           13776         80.0974         52.7476         92.1625     489.184E-03
           13777         80.8522         54.2751         92.9220     230.372E-03
           13778         78.9820         52.7100         90.8030     534.329E-03
           13779         79.5307         55.2957         91.1453    -3.01667E-03
           13780         78.6976         53.8540         90.3139     277.592E-03
           13781         80.0601         50.0093         92.3207     906.373E-03
           13782         79.3369         49.5161         91.4792         1.11758
           13783         79.3291         48.4791         91.5132         1.25003
           13784         80.0492         48.9707         92.3531         1.03994
           13785         79.3207         46.8756         91.5413         1.37893
           13786         79.9975         47.1645         92.3361         1.17411
           13787         80.0182         47.9756         92.3462         1.12532
           13788         79.3419         47.6866         91.5509         1.33068
           13789         77.2823         45.5454         89.1356         2.06070
           13790         77.9443         45.7997         89.9224         1.83354
           13791         77.9668         46.2938         89.9414         1.82337
           13792         77.3057         46.0389         89.1547         2.05074
           13793         75.3193         43.6135         86.8661         2.13465
           13794         76.0958         43.4712         87.7948         1.77394
           13795         76.6449         43.6887         88.4285         1.77489
           13796         75.8657         43.8298         87.4980         2.13533
           13797         75.3022         43.0562         86.9066         1.37856
           13798         75.8147         42.8010         87.5149     967.718E-03
           13799         76.7876         42.8197         88.6305     925.418E-03
           13800         76.2768         43.0776         88.0301         1.32876
           13801         76.7771         52.3250         88.1330     563.722E-03
           13802         77.5561         53.4800         88.9462     289.827E-03
           13803         77.1915         54.2243         88.3766     383.817E-06
           13804         76.3969         53.0677         87.5594     275.614E-03
           13805         75.6137         51.9084         86.7453     582.241E-03
           13806         75.8990         53.5257         86.8620     2.84920E-03
           13807         75.1074         52.3647         86.0512     311.554E-03
           13808         75.8389         47.9872         87.3334         2.04344
           13809         75.3974         48.3025         86.7860         1.98296
           13810         74.6084         47.4892         85.8587         2.36932
           13811         75.0530         47.1751         86.4057         2.42968
           13812         74.9321         46.0351         86.2780         2.79963
           13813         74.6704         46.2868         85.9552         2.79818
           13814         73.9920         45.8380         85.1293         3.10174
           13815         74.2531         45.5861         85.4514         3.10300
           13816         73.3961         44.2698         84.4368         3.44483
           13817         74.1835         44.4639         85.4031         3.15256
           13818         73.9361         44.6227         85.0835         3.30736
           13819         73.1527         44.4283         84.1178         3.59877
           13820         72.5854         44.1469         83.4353         3.72661
           13821         73.7859         44.1292         84.9441         3.16118
           13822         74.5245         52.7134         85.2623     4.37789E-03
           13823         73.7236         51.5060         84.4479     375.514E-03
           13824         74.3202         51.1592         85.2382     683.985E-03
           13825         73.0698         51.7842         83.5809     6.86004E-03
           13826         72.2468         50.5332         82.7454     444.676E-03
           13827         72.9153         50.2560         83.6122     813.544E-03
           13828         74.0594         47.6476         85.1890         2.33711
           13829         73.3011         46.8770         84.2853         2.74651
           13830         73.8523         46.7191         84.9550         2.77873
           13831         73.1324         46.1195         84.0794         3.14647
           13832         73.6029         45.9720         84.6525         3.13925
           13833         74.3222         46.5705         85.5279         2.77137
           13834         71.5329         50.7362         81.8157     8.93533E-03
           13835         70.6889         49.4499         80.9578     522.137E-03
           13836         71.4201         49.2485         81.8869     958.041E-03
           13837         69.9161         49.5681         79.9702     11.5173E-03
           13838         69.0460         48.2555         79.0805     604.300E-03
           13839         69.8394         48.1397         80.0675         1.11506
           13840         70.6184         47.0544         81.0630         2.31027
           13841         71.3451         47.0094         81.9314         2.51865
           13842         72.0889         47.9669         82.7974         2.00942
           13843         71.3701         48.0122         81.9292         1.80108
           13844         69.4049         44.4472         79.4460         4.50838
           13845         70.0541         44.5420         80.2338         4.46820
           13846         70.0038         44.9207         80.2311         4.06877
           13847         68.2208         48.2797         78.0461     13.6416E-03
           13848         67.3229         46.9476         77.1194     697.194E-03
           13849         68.1718         46.9249         78.1520         1.28845
           13850         68.2296         45.8966         78.2505         2.38556
           13851         67.5342         45.0166         77.4046         3.02208
           13852         68.4176         45.1889         78.4266         3.27662
           13853         69.1023         46.0713         79.2697         2.64183
           13854         68.5904         44.6693         78.5527         3.98619
           13855         67.9951         44.1335         77.7604         4.49953
           13856         68.7202         44.2939         78.6187         4.54409
           13857         69.3148         44.8307         79.4108         4.02993
           13858         64.6008         45.3476         73.9667     17.5490E-03
           13859         63.6580         44.0814         72.9624     804.784E-03
           13860         64.6196         44.2799         74.0800         1.56991
           13861         65.5304         45.5474         75.0850     782.673E-03
           13862         52.1517         34.0033         60.0439     22.7211E-03
           13863         51.2160         33.1998         58.9454         1.04345
           13864         52.5735         34.4339         60.3622         2.09696
           13865         53.4476         35.2385         61.4580         1.07853
           13866         50.3408         32.4883         57.8386         2.03983
           13867         49.4611         31.8926         56.6726         2.88202
           13868         50.8029         33.1372         57.9739         3.78544
           13869         51.6388         33.7319         59.1411         2.94360
           13870         48.3209         32.1721         53.8872         6.57504
           13871         48.7089         32.1585         54.7215         5.87938
           13872         47.4293         30.9669         53.5068         5.30880
           13873         47.0160         30.9819         52.6704         6.00794
           13874         51.3299         35.0581         56.4486         8.12860
           13875         52.2484         35.9295         57.2079         8.59602
           13876         52.8090         36.0136         58.2386         8.11281
           13877         51.9076         35.1410         57.4803         7.64732
           13878         53.1350         38.9658         55.8876         10.9435
           13879         53.7297         38.7505         57.1929         10.4961
           13880         52.8248         37.7850         56.3812         10.2352
           13881         52.2199         37.9980         55.0759         10.6847
           13882         55.3301         44.8807         55.6487         12.2191
           13883         55.2272         45.9030         54.7211         12.3884
           13884         55.9871         46.6527         55.9105         12.1171
           13885         56.1055         45.6362         56.8378         11.9511
           13886         56.3078         51.1411         53.4348         12.0081
           13887         55.9487         50.3754         53.0196         12.2798
           13888         55.8569         51.3362         51.8012         12.3896
           13889         56.2245         52.1033         52.2105         12.1221
           13890         58.0733         58.7045         51.5326         9.93104
           13891         57.8077         57.5833         52.1688         10.1384
           13892         57.6861         57.4534         51.4041         10.6106
           13893         57.9614         58.5755         50.7678         10.4054
           13894         58.4898         60.1332         51.5042         9.11914
           13895         58.8667         61.4111         50.7282         8.86725
           13896         58.9243         61.6202         51.3518         8.21215
           13897         58.5485         60.3419         52.1276         8.46499
           13898         59.8413         64.1517         49.8368         7.72327
           13899         60.3872         65.4145         49.0872         7.50591
           13900         60.4105         65.6227         49.5447         6.82302
           13901         59.8622         64.3601         50.2942         7.04039
           13902         63.2674         70.9557         46.8170         5.71994
           13903         62.9949         70.3875         46.7331         6.30889
           13904         63.7864         71.5950         45.9775         6.34273
           13905         64.0691         72.1663         46.0572         5.75556
           13906         65.3938         74.5462         46.0963         3.19640
           13907         64.4561         73.1770         46.7228         3.45131
           13908         64.5163         73.1438         46.4113         4.20421
           13909         65.4512         74.5135         45.7923         3.94999
           13910         66.5043         76.1708         46.1891        -1.37380
           13911         65.6031         74.9479         46.7751        -1.20576
           13912         65.4815         74.8306         46.7745    -417.992E-03
           13913         66.3752         76.0530         46.1867    -585.855E-03
           13914         71.8593         82.7977         43.3142        -2.48316
           13915         72.1236         83.1813         43.1624        -1.82580
           13916         73.0676         84.2631         42.7388        -2.10590
           13917         72.8062         83.8804         42.8818        -2.76372
           13918         76.0257         87.5548         41.5067        -2.90824
           13919         76.6415         88.1846         41.2548        -3.33997
           13920         76.0717         87.5028         41.4943        -3.61714
           13921         75.4542         86.8724         41.7448        -3.18161
           13922         79.7377         91.3534         40.0227        -4.72783
           13923         80.2989         92.0171         39.8296        -4.44856
           13924         81.0972         92.7770         39.5028        -4.95498
           13925         80.5486         92.1255         39.6908        -5.23253
           13926         86.0493         97.8267         37.6534        -5.77756
           13927         84.7060         96.4907         38.1541        -5.49052
           13928         84.8801         96.7818         38.1440        -4.98668
           13929         86.2200         98.1166         37.6423        -5.27286
           13930         93.8771         105.589         34.8486        -6.56074
           13931         94.3362         105.953         34.6628        -6.93897
           13932         93.1420         104.703         35.0451        -7.16110
           13933         92.6808         104.338         35.2295        -6.78108
           13934         95.3804         107.350         34.4296        -5.28962
           13935         96.0075         107.879         34.1771        -5.72972
           13936         94.6761         106.520         34.6210        -5.95366
           13937         94.0473         105.989         34.8737        -5.51393
           13938         102.110         114.219         32.2444        -2.80749
           13939         102.992         115.082         32.0734        -2.93742
           13940         102.342         114.395         32.2767        -3.56874
           13941         101.455         113.529         32.4507        -3.43610
           13942         103.596         115.748         31.8094         1.22273
           13943         103.380         115.549         31.8533     766.553E-03
           13944         102.767         114.946         32.0124         1.07305
           13945         102.985         115.142         31.9681         1.53094
           13946         101.226         113.272         32.5366         3.78300
           13947         100.667         112.663         32.7249         4.35257
           13948         101.707         113.695         32.4955         4.33815
           13949         102.269         114.304         32.3074         3.76726
           13950         97.9518         109.879         33.5585         5.24092
           13951         98.8749         110.854         33.2650         4.78519
           13952         97.8079         109.842         33.6263         4.61583
           13953         96.8869         108.867         33.9195         5.07132
           13954         96.9913         108.851         33.8584         5.71214
           13955         95.8471         107.775         34.2505         5.45866
           13956         94.7826         106.635         34.5840         5.90210
           13957         95.9263         107.712         34.1923         6.15678
           13958         93.4914         105.257         34.9922         6.33331
           13959         93.7815         105.730         34.9687         5.49663
           13960         92.4972         104.360         35.3795         5.92321
           13961         84.7088         96.4936         38.1563         5.49210
           13962         85.7632         97.4671         37.7235         6.03412
           13963         86.9434         98.7746         37.3468         5.68235
           13964         85.8895         97.8011         37.7718         5.14339
           13965         80.7978         92.4866         39.6210         4.79952
           13966         82.3645         94.1632         39.0515         4.80937
           13967         81.7242         93.6336         39.3328         3.97440
           13968         80.1631         91.9569         39.9012         3.96347
           13969         75.0130         86.4233         41.9233         2.80251
           13970         74.5893         86.0288         42.0701         1.99619
           13971         73.2207         84.4554         42.6623         1.96179
           13972         73.6466         84.8595         42.5122         2.76673
           13973         69.2824         79.7992         44.4984     993.822E-03
           13974         70.5490         81.3213         43.9017         1.50415
           13975         70.7252         81.5834         43.7257     721.809E-03
           13976         69.4707         80.0638         44.3195     212.257E-03
           13977         66.0432         75.6003         46.0518        -1.53445
           13978         67.1342         77.0814         45.4811    -942.787E-03
           13979         67.5301         77.5722         45.0883        -1.58286
           13980         66.4422         76.0913         45.6592        -2.17445
           13981         62.3838         69.6802         47.9757        -5.08922
           13982         63.1158         70.9625         47.4988        -4.56187
           13983         63.3403         71.2267         47.0668        -5.02937
           13984         62.6194         69.9590         47.5401        -5.55949
           13985         61.0252         67.0530         49.0622        -6.07296
           13986         61.6440         68.3165         48.6684        -5.44908
           13987         61.9318         68.6785         47.9634        -6.12030
           13988         61.3135         67.4114         48.3606        -6.74176
           13989         60.3004         65.1012         48.8286        -8.01116
           13990         60.0084         64.5695         49.5661        -7.64738
           13991         60.4819         65.7268         49.3629        -6.97190
           13992         60.7807         66.2584         48.6270        -7.33665
           13993         58.4851         60.0911         51.7036        -9.00424
           13994         58.6153         60.6295         50.7766        -9.31145
           13995         58.2857         59.5314         50.9054        -9.87159
           13996         58.1682         58.9934         51.8327        -9.56520
           13997         57.8503         56.9320         53.9030        -9.46353
           13998         57.8388         57.3823         52.9613        -9.77661
           13999         57.6186         56.3156         53.2010        -10.2332
           14000         57.6431         55.8626         54.1424        -9.92030
           14001         56.6694         53.1301         52.6986        -11.7098
           14002         56.3826         53.0223         51.7603        -12.0133
           14003         56.1257         51.7118         52.2783        -12.1980
           14004         56.4309         51.8244         53.2172        -11.8963
           14005         56.3778         49.4553         54.9952        -11.9438
           14006         56.1400         49.8888         54.0040        -12.1185
           14007         55.8833         49.0625         53.9513        -12.2754
           14008         56.1363         48.6226         54.9497        -12.1031
           14009         55.1436         47.0401         53.6576        -12.5560
           14010         54.5215         46.2987         52.8031        -12.7222
           14011         54.6440         45.2966         53.8663        -12.5508
           14012         55.2719         46.0406         54.7221        -12.3852
           14013         53.1949         42.0591         53.4239        -12.2960
           14014         54.0067         42.7429         54.5091        -12.2257
           14015         53.8986         43.6482         53.5657        -12.4988
           14016         53.0944         42.9615         52.4781        -12.5686
           14017         53.7052         40.6005         55.5912        -11.5831
           14018         52.7418         39.7502         54.4903        -11.5242
           14019         53.1667         39.2107         55.7364        -11.0777
           14020         54.1332         40.0635         56.8344        -11.1378
           14021         54.2145         38.4358         58.3416        -10.0095
           14022         53.0999         37.5409         57.1455        -9.83139
           14023         53.6347         37.1868         58.4951        -9.08101
           14024         54.7507         38.0798         59.6903        -9.26690
           14025         48.3887         32.8198         53.2753        -7.62803
           14026         49.4453         33.4637         54.5939        -7.55945
           14027         49.8617         34.2034         54.5509        -8.29338
           14028         48.8186         33.5586         53.2326        -8.36220
           14029         51.4407         34.4273         57.4881        -6.71298
           14030         50.5107         33.8870         56.2273        -6.99693
           14031         49.8368         33.1013         55.8651        -6.22642
           14032         50.7846         33.6541         57.1238        -5.93848
           14033         48.9633         31.1321         56.3885        -1.15853
           14034         49.8907         31.8028         57.5009    -28.7348E-03
           14035         51.2336         33.2224         58.9548        -1.16930
           14036         50.3803         32.5523         57.8399        -2.30136
           14037         47.5926         29.5504         54.9016     20.5773E-03
           14038         46.6671         28.9506         53.7957         1.02054
           14039         48.0936         30.4986         55.2887         2.01808
           14040         48.9570         31.0989         56.3944         1.02001
           14041         45.8183         28.4849         52.6888         2.05384
           14042         45.0658         28.1843         51.6229         2.97750
           14043         46.5732         29.7325         53.1094         3.80807
           14044         47.2745         30.0335         54.1754         2.88497
           14045         47.5119         33.2663         51.0390         9.01169
           14046         48.2271         33.4400         52.2442         8.66426
           14047         47.3568         32.4995         51.6046         8.17593
           14048         46.6246         32.3278         50.4041         8.51745
           14049         49.6362         35.6828         52.4917         10.1352
           14050         48.7903         35.4598         51.1476         10.3394
           14051         49.7220         36.7984         51.5313         10.9385
           14052         50.5327         37.0053         52.8698         10.7302
           14053         51.0798         39.6485         51.3837         12.0297
           14054         50.9098         40.4257         50.3468         12.3569
           14055         51.9371         41.4533         51.4325         12.4611
           14056         52.1044         40.6754         52.4710         12.1307
           14057         52.2588         44.7012         49.0988         13.1259
           14058         52.4422         43.9529         50.2200         12.9563
           14059         51.5613         42.9702         49.2620         12.9380
           14060         51.3782         43.7196         48.1408         13.1083
           14061         52.9985         45.5604         49.9366         13.0966
           14062         52.1397         45.4904         48.0372         13.2517
           14063         52.8813         46.3561         48.8743         13.2221
           14064         54.2741         49.2258         49.3995         13.0883
           14065         54.3076         49.9062         48.7087         13.1278
           14066         54.6678         50.3878         49.2078         13.0089
           14067         54.6353         49.6881         49.9019         12.9800
           14068         56.0027         52.9050         50.4807         12.3794
           14069         55.7649         51.9627         50.8047         12.4957
           14070         55.5105         52.1818         49.6673         12.6933
           14071         55.7725         53.1271         49.3387         12.5830
           14072         57.9616         59.1794         48.5804         11.1393
           14073         58.3972         60.4267         47.9205         10.9264
           14074         58.5979         60.7713         48.7112         10.4566
           14075         58.1649         59.5232         49.3668         10.6698
           14076         59.2116         62.3391         48.7162         9.72136
           14077         59.7487         63.6536         48.0506         9.44920
           14078         59.7966         63.8180         48.7040         8.92571
           14079         59.2644         62.5054         49.3692         9.19910
           14080         60.3829         65.0498         47.4394         9.12938
           14081         61.0254         66.3783         46.8576         8.80737
           14082         60.9933         66.4185         47.4659         8.33391
           14083         60.3540         65.0895         48.0471         8.65636
           14084         65.8219         74.9574         45.3930         4.31767
           14085         66.7589         76.3157         44.9524         3.76463
           14086         66.3788         75.8651         45.3440         3.39500
           14087         69.0350         79.4248         44.0576         2.28933
           14088         68.8255         79.0920         44.0042         2.90998
           14089         70.0308         80.5997         43.4345         2.72356
           14090         70.2465         80.9275         43.4844         2.12138
           14091         73.6469         85.0323         42.2326     551.348E-03
           14092         73.6922         85.0919         42.2911     12.0830E-03
           14093         72.4385         83.6340         42.7589     392.456E-03
           14094         72.4398         83.6200         42.6983     915.580E-03
           14095         76.7651         88.5265         41.1633        -1.36246
           14096         76.7130         88.4245         41.2196        -1.98020
           14097         75.0862         86.6284         41.8366        -1.57031
           14098         75.1546         86.7406         41.7778    -953.851E-03
           14099         81.6052         93.6678         39.4549        -2.87110
           14100         82.6365         94.7868         39.1183        -2.70213
           14101         83.7690         95.9141         38.6976        -3.25981
           14102         82.7383         94.7979         39.0249        -3.44113
           14103         86.7536         99.0115         37.7278        -3.41631
           14104         86.7273         98.9182         37.6681        -3.82922
           14105         84.9300         97.1031         38.2940        -3.47020
           14106         84.9810         97.2166         38.3443        -3.06165
           14107         92.3173         104.443         35.6196        -4.67354
           14108         93.6773         105.855         35.1876        -4.34978
           14109         94.6457         106.729         34.7592        -4.77171
           14110         93.2891         105.323         35.1922        -5.09857
           14111         95.7269         107.917         34.4832        -4.07266
           14112         94.5345         106.776         34.9821        -3.96602
           14113         94.8583         107.195         35.0301        -3.42807
           14114         96.0390         108.325         34.5334        -3.53257
           14115         98.9738         111.194         33.3854        -3.12503
           14116         98.1425         110.374         33.7004        -3.33659
           14117         97.9017         110.198         33.8967        -3.02893
           14118         98.7325         111.017         33.5816        -2.81790
           14119         100.699         112.956         32.8248        -1.95704
           14120         101.267         113.473         32.5528        -2.07875
           14121         100.842         113.030         32.6804        -2.52703
           14122         100.273         112.512         32.9530        -2.40409
           14123         101.987         114.236         32.3421    -109.040E-03
           14124         102.503         114.719         32.1300     97.7565E-03
           14125         102.804         114.996         31.9976    -341.242E-03
           14126         102.284         114.508         32.2122    -550.464E-03
           14127         101.338         113.603         32.6102         1.28263
           14128         101.758         113.981         32.3949         1.40346
           14129         102.068         114.289         32.2781         1.01209
           14130         101.652         113.914         32.4923     887.834E-03
           14131         100.242         112.442         32.9025         2.71899
           14132         100.701         112.930         32.7848         2.24656
           14133         99.8299         112.130         33.2204         2.17852
           14134         99.3683         111.640         33.3397         2.64512
           14135         98.4788         110.813         33.7717         2.60541
           14136         98.0205         110.302         33.8316         3.09287
           14137         98.9147         111.135         33.4005         3.13519
           14138         93.7383         105.832         35.0811         4.77743
           14139         94.8464         106.975         34.7308         4.52350
           14140         93.8119         106.036         35.2014         4.10191
           14141         92.7113         104.899         35.5493         4.35406
           14142         89.2353         101.390         36.7260         4.39130
           14143         90.4486         102.652         36.3585         4.23723
           14144         89.4605         101.752         36.8117         3.66437
           14145         88.2548         100.495         37.1770         3.81445
           14146         83.8374         95.7475         38.5345         4.68371
           14147         85.2273         97.2131         38.0566         4.64038
           14148         84.6101         96.6790         38.3298         4.02311
           14149         83.2251         95.2153         38.8082         4.06286
           14150         81.0523         93.1908         39.7098         1.69955
           14151         82.6275         94.8578         39.2232         1.95439
           14152         82.3920         94.6479         39.3503         1.43686
           14153         80.8201         92.9764         39.8360         1.17919
           14154         75.2417         86.8343         41.7382         1.05644
           14155         73.9134         85.3227         42.2833         1.01091
           14156         75.9323         87.5461         41.5229         2.03415
           14157         73.0331         84.3275         42.6116     306.038E-03
           14158         72.1037         83.2339         43.0414     577.517E-03
           14159         72.9745         84.2218         42.7151         1.28211
           14160         68.3824         78.5603         44.3008        -2.71719
           14161         69.5176         80.0351         43.8521        -2.14276
           14162         69.9315         80.4869         43.4823        -2.66613
           14163         68.7970         79.0102         43.9295        -3.24007
           14164         64.4601         72.9209         46.1359        -4.94603
           14165         65.3423         74.2809         45.7145        -4.39166
           14166         65.6961         74.6822         45.2307        -4.85342
           14167         64.8127         73.3223         45.6526        -5.40727
           14168         63.2285         70.6913         46.3839        -6.53334
           14169         62.9165         70.3253         46.9396        -6.07048
           14170         63.6718         71.6232         46.5625        -5.51042
           14171         63.9845         71.9890         46.0049        -5.97236
           14172         62.1605         68.4359         45.7484        -8.53178
           14173         61.9500         68.1950         46.3972        -8.13637
           14174         62.7742         69.7063         46.0845        -7.53287
           14175         62.9893         69.9480         45.4408        -7.92796
           14176         59.0628         62.0879         47.0456        -10.6643
           14177         58.7819         61.3580         47.9142        -10.5619
           14178         59.2730         62.4961         48.0604        -10.0219
           14179         59.5693         63.2265         47.1896        -10.1273
           14180         57.9438         59.2826         48.0865        -11.2759
           14181         57.5814         58.2067         48.5951        -11.4698
           14182         57.8274         58.6353         49.3106        -11.0411
           14183         58.1891         59.7064         48.8057        -10.8494
           14184         56.1672         53.5361         50.2584        -12.2933
           14185         56.3660         54.4881         49.6601        -12.2193
           14186         56.0157         54.0123         48.9666        -12.4834
           14187         55.8137         53.0649         49.5596        -12.5566
           14188         55.3680         50.9786         50.6341        -12.7049
           14189         54.9197         50.5448         49.7748        -12.9063
           14190         54.7308         49.4720         50.3910        -12.9316
           14191         55.1872         49.9067         51.2493        -12.7298
           14192         54.5343         47.3563         51.9141        -12.8420
           14193         53.8963         46.7451         50.9299        -12.9945
           14194         53.8732         45.6874         51.8191        -12.8744
           14195         53.0860         43.9970         51.5579        -12.8136
           14196         52.2310         43.3257         50.3499        -12.8750
           14197         52.2255         42.2900         51.2704        -12.6310
           14198         51.2711         39.4824         51.9208        -11.8892
           14199         51.5640         38.7697         53.1189        -11.4534
           14200         52.4400         40.4638         53.2900        -11.9600
           14201         47.9074         33.8011         51.2264        -9.30901
           14202         47.8388         34.3089         50.5462        -9.84404
           14203         46.8156         33.4753         49.5085        -9.61456
           14204         46.8859         32.9685         50.1900        -9.07417
           14205         46.6342         31.8574         50.9366        -7.91680
           14206         47.6095         32.4824         52.1142        -7.92592
           14207         47.8391         33.0658         51.9059        -8.51108
           14208         46.8593         32.4456         50.7116        -8.50061
           14209         47.6957         31.0247         53.9996        -4.88907
           14210         47.0256         30.8187         52.8561        -5.68050
           14211         45.6710         29.4785         51.6437        -4.90451
           14212         46.3867         29.6889         52.7896        -4.11581
           14213         44.3025         26.7700         51.0860        -1.13610
           14214         45.2626         27.2367         52.2490    -25.2346E-03
           14215         46.6341         28.9565         53.7470        -1.13227
           14216         45.7566         28.4894         52.5836        -2.24068
           14217         42.9053         24.8917         49.5426     23.2854E-03
           14218         41.9939         24.5994         48.4354         1.13296
           14219         43.5173         26.4843         50.0340         2.16361
           14220         44.3445         26.7739         51.1422         1.05622
           14221         41.1945         24.5503         47.3218         2.35834
           14222         40.6649         24.7912         46.3933         3.50398
           14223         42.4045         26.6609         48.1027         4.31795
           14224         42.8581         26.4128         49.0310         3.17227
           14225         42.8074         28.3032         47.4239         6.44527
           14226         43.4035         29.3284         47.4922         7.32728
           14227         44.8887         30.5025         49.0713         7.60261
           14228         44.2947         29.4837         49.0084         6.72943
           14229         42.9034         29.6118         46.2710         8.02085
           14230         41.8826         29.1737         44.8725         8.13648
           14231         42.9183         30.4945         45.3741         8.88669
           14232         43.9212         30.9463         46.7743         8.77602
           14233         46.4388         35.5594         46.5889         11.2284
           14234         46.5418         35.0411         47.3378         10.8959
           14235         45.4107         33.9634         46.3379         10.5705
           14236         45.2997         34.4802         45.5912         10.9028
           14237         47.2527         38.5728         44.9944         12.3291
           14238         47.1104         39.2488         44.0032         12.5129
           14239         48.2801         40.4226         45.0805         12.7411
           14240         48.4173         39.7464         46.0713         12.5573
           14241         50.2292         44.2797         45.0230         13.2767
           14242         50.3132         43.4725         46.0889         13.1779
           14243         49.2648         42.3125         45.0910         13.0562
           14244         49.1755         43.1174         44.0249         13.1551
           14245         50.2038         45.2563         43.8566         13.3376
           14246         51.2097         46.3419         44.9137         13.4041
           14247         51.2354         45.3675         46.0845         13.3393
           14248         54.4217         51.3922         47.1970         13.1475
           14249         53.9074         50.9472         46.2534         13.2601
           14250         54.2838         52.2166         45.6045         13.1871
           14251         54.7856         52.6737         46.5452         13.0665
           14252         55.6463         55.2441         45.3801         12.8093
           14253         56.2108         56.5717         45.1259         12.5937
           14254         56.5298         56.6596         46.3328         12.4335
           14255         55.9853         55.3364         46.5898         12.6457
           14256         56.7019         56.6167         47.3085         12.2475
           14257         57.1437         58.1359         46.0460         12.1423
           14258         57.2951         58.0936         47.0162         11.9537
           14259         60.3421         64.9093         46.7340         9.61526
           14260         60.4034         64.9915         46.0596         9.94445
           14261         61.1703         66.5126         45.6017         9.51238
           14262         61.1007         66.4301         46.2723         9.18484
           14263         61.2141         66.5430         44.9931         9.81140
           14264         60.5902         65.3624         45.3045         10.1267
           14265         60.6202         65.4232         44.6535         10.3610
           14266         61.2554         66.6097         44.3349         10.0486
           14267         65.8114         74.2744         43.7066         7.08216
           14268         65.6261         74.0859         44.0748         6.85091
           14269         64.8565         72.9261         44.3922         7.18401
           14270         65.0527         73.1379         44.0266         7.40223
           14271         67.8459         77.4939         43.7740         4.96060
           14272         68.2958         78.1765         43.7507         4.43127
           14273         67.4038         77.0249         44.2590         4.49545
           14274         66.9639         76.3416         44.2826         5.02600
           14275         69.0992         79.3618         43.7185         3.39973
           14276         69.4892         79.7984         43.3960         3.68256
           14277         70.4143         81.0261         43.1264         3.02279
           14278         75.9952         87.6890         41.3311     802.616E-03
           14279         74.8470         86.3705         41.6611         1.27254
           14280         75.2002         86.7368         41.4991         1.74354
           14281         76.3397         88.0510         41.1673         1.27035
           14282         79.4373         91.4786         40.2548        -1.14697
           14283         78.0028         89.9192         40.7147    -881.079E-03
           14284         77.6298         89.5236         40.8412    -227.214E-03
           14285         79.0568         91.0868         40.3817    -491.403E-03
           14286         80.8798         93.0333         39.7945        -1.28541
           14287         81.5498         93.6995         39.5378        -2.01808
           14288         80.0911         92.1389         40.0029        -1.87889
           14289         87.0730         99.4336         37.7730        -2.81560
           14290         86.0756         98.4592         38.1889        -2.34115
           14291         87.2150         99.6729         37.9479        -2.16918
           14292         88.1976         100.629         37.5378        -2.63847
           14293         90.3560         102.773         36.7482        -3.06392
           14294         91.3241         103.790         36.5250        -2.86765
           14295         92.2313         104.624         36.0542        -3.29877
           14296         91.2572         103.604         36.2817        -3.49592
           14297         92.2370         104.732         36.3075        -2.77611
           14298         92.8460         105.395         36.2624        -2.53293
           14299         93.5622         106.068         35.8988        -2.73190
           14300         92.9560         105.409         35.9466        -2.97853
           14301         98.0423         110.451         34.1137        -2.38822
           14302         97.4286         109.882         34.4585        -2.39340
           14303         97.6889         110.193         34.5212        -2.07239
           14304         98.3048         110.763         34.1760        -2.06713
           14305         100.413         112.748         33.0910        -1.48627
           14306         99.9038         112.303         33.4492        -1.45539
           14307         100.085         112.506         33.4434        -1.08569
           14308         100.594         112.950         33.0858        -1.11642
           14309         100.407         112.852         33.4081    -18.6797E-03
           14310         100.391         112.833         33.4010     325.417E-03
           14311         100.895         113.262         33.0049     378.984E-03
           14312         100.908         113.279         33.0122     32.2079E-03
           14313         100.151         112.581         33.4511     948.080E-03
           14314         99.8755         112.354         33.6997     876.451E-03
           14315         99.6232         112.104         33.7937         1.13933
           14316         99.8948         112.327         33.5451         1.21420
           14317         98.2932         110.781         34.2670         1.91730
           14318         98.1940         110.757         34.5577         1.65429
           14319         97.5262         110.124         34.9002         1.77392
           14320         97.6255         110.149         34.6112         2.03375
           14321         95.7345         108.092         34.7762         3.20684
           14322         96.2416         108.639         34.7053         2.94171
           14323         95.4407         107.892         35.1117         2.80946
           14324         94.9384         107.350         35.1813         3.07430
           14325         93.7145         106.063         35.4522         3.47955
           14326         92.8540         105.253         35.8483         3.24861
           14327         92.3977         104.735         35.8854         3.58435
           14328         93.2651         105.553         35.4946         3.81521
           14329         89.4493         101.858         37.0295         2.98694
           14330         90.3593         102.801         36.8023         2.92048
           14331         89.7624         102.271         37.1820         2.45715
           14332         88.8548         101.327         37.4071         2.52123
           14333         88.2408         100.765         37.7680         2.00657
           14334         86.7615         99.2189         38.1274         2.03517
           14335         87.3667         99.7759         37.7646         2.55267
           14336         76.3916         88.1302         41.1804    -847.170E-03
           14337         75.0387         86.5918         41.6219        -1.21149
           14338         75.0554         86.6390         41.6742    -536.222E-03
           14339         76.4186         88.1782         41.2310    -171.641E-03
           14340         72.7509         83.8527         42.2418        -2.52601
           14341         73.8108         85.1085         41.9071        -2.23816
           14342         73.5129         84.6797         41.8453        -2.93911
           14343         72.4650         83.4242         42.1727        -3.22778
           14344         71.5753         82.2859         42.3788        -3.79762
           14345         70.7500         81.3410         42.7973        -3.59524
           14346         71.6320         82.4780         42.5934        -3.01974
           14347         66.4890         75.4531         43.9853        -6.10293
           14348         66.5419         75.4276         43.6857        -6.45938
           14349         65.7636         74.2918         44.0028        -6.79167
           14350         65.7102         74.3202         44.3095        -6.43166
           14351         61.4565         67.0032         44.9048        -9.65740
           14352         61.0657         66.2586         44.5798        -10.0873
           14353         60.5363         65.2542         45.2437        -10.1960
           14354         60.9176         65.9993         45.5711        -9.76360
           14355         60.2052         64.6492         44.6123        -10.6309
           14356         59.7463         63.7298         45.0239        -10.8065
           14357         60.0741         64.3374         45.6482        -10.3717
           14358         57.3612         58.7184         45.7083        -12.0709
           14359         56.9502         58.1198         45.0348        -12.3112
           14360         56.5228         56.9586         45.6753        -12.4621
           14361         56.9358         57.5588         46.3549        -12.2205
           14362         55.1205         53.3614         46.6337        -12.9688
           14363         54.7336         53.2493         45.5063        -13.0721
           14364         54.2198         51.9874         45.7336        -13.2049
           14365         54.6289         52.1050         46.8667        -13.1007
           14366         53.6426         48.5365         48.4573        -13.2360
           14367         54.1975         48.9885         49.4525        -13.0964
           14368         54.4496         50.1449         48.8443        -13.0866
           14369         53.9063         49.6925         47.8479        -13.2263
           14370         52.7360         46.8176         48.0420        -13.2963
           14371         53.3920         47.3360         49.1146        -13.1991
           14372         53.0005         48.0176         47.3847        -13.3336
           14373         50.2188         40.8982         48.5103        -12.6492
           14374         51.2791         41.6020         49.9793        -12.6508
           14375         51.3413         42.6961         49.0654        -12.9159
           14376         50.3046         41.9939         47.5985        -12.9137
           14377         47.7383         37.0032         47.5672        -11.6506
           14378         48.3005         37.8657         47.7585        -11.9255
           14379         47.5656         37.6969         46.5108        -11.9928
           14380         46.9870         36.8327         46.3087        -11.7233
           14381         46.9565         34.6118         48.5611        -10.4808
           14382         46.9013         34.0998         49.0016        -10.1114
           14383         48.0387         35.0166         50.1858        -10.3325
           14384         48.0831         35.5127         49.7413        -10.6940
           14385         44.4441         31.0764         47.6153        -8.60294
           14386         45.6671         32.0223         48.9004        -8.84512
           14387         45.6783         32.6212         48.2770        -9.42605
           14388         44.4514         31.6723         46.9876        -9.18621
           14389         43.6613         28.0312         49.2354        -5.05188
           14390         43.3445         28.3554         48.3500        -5.99931
           14391         41.7026         26.7733         46.7858        -5.35399
           14392         42.0666         26.4432         47.6750        -4.40181
           14393         39.5535         22.4146         45.6006        -1.26138
           14394         40.5306         22.5164         46.7897    -27.9667E-03
           14395         41.9354         24.5758         48.3627        -1.18416
           14396         41.0746         24.4744         47.1713        -2.41443
           14397         38.1401         20.1401         43.9883     33.8093E-03
           14398         37.2241         20.3541         42.8792         1.35151
           14399         38.8583         22.6911         44.5713         2.57205
           14400         39.6209         22.4711         45.6795         1.25473
           14401         36.3817         20.6812         41.6804         2.62436
           14402         35.4869         20.9352         40.3129         3.64544
           14403         37.6215         23.5696         42.2011         4.95262
           14404         38.3684         23.3217         43.5640         3.93278
           14405         38.0257         25.3815         41.5288         6.61196
           14406         37.1555         25.4091         40.0374         7.05291
           14407         38.7217         27.2362         41.0607         7.95653
           14408         39.5363         27.2002         42.5548         7.52450
           14409         40.8840         28.8701         43.3238         8.40302
           14410         40.5876         27.5136         44.1078         7.26694
           14411         43.5745         34.1643         42.6880         11.0706
           14412         43.3730         34.7339         41.7108         11.3103
           14413         44.7283         36.0875         42.7876         11.7136
           14414         44.9154         35.5182         43.7644         11.4740
           14415         45.8771         38.0007         42.9251         12.2376
           14416         45.7499         38.6580         41.9662         12.3797
           14417         46.9894         39.9058         43.0442         12.6550
           14418         46.7738         41.2083         41.1560         12.8039
           14419         46.5837         41.7113         40.1878         12.7989
           14420         47.7030         42.9795         41.0448         13.0097
           14421         47.8841         42.4751         42.0114         13.0158
           14422         50.8589         47.1804         43.0775         13.3838
           14423         49.9049         45.7740         42.5600         13.3170
           14424         49.2723         46.0180         40.8164         13.1962
           14425         50.2622         47.4340         41.3308         13.2735
           14426         53.6385         53.0261         42.3653         13.1273
           14427         54.3791         53.9057         43.2377         13.0706
           14428         54.0630         52.7877         44.0385         13.1855
           14429         53.3231         51.9025         43.1690         13.2477
           14430         55.1543         54.7952         44.3516         12.9443
           14431         54.7511         55.0325         42.5186         12.9252
           14432         55.5227         55.9205         43.6307         12.8047
           14433         56.7625         58.8431         42.3600         12.3517
           14434         56.1177         57.7613         42.1449         12.5297
           14435         56.1795         58.2246         41.3908         12.4203
           14436         56.8435         59.3122         41.6080         12.2458
           14437         61.3276         66.7429         43.6014         10.2543
           14438         62.0861         68.0691         43.3194         9.88990
           14439         62.0023         67.9336         44.0467         9.68584
           14440         64.1585         71.4275         42.6671         8.97307
           14441         64.9738         72.7170         42.6414         8.49119
           14442         64.4650         72.0031         43.2981         8.44901
           14443         63.6615         70.7090         43.3267         8.93318
           14444         70.1028         80.1826         42.2910         5.40443
           14445         69.9778         79.9564         42.1680         5.69607
           14446         70.7350         80.9181         41.9305         5.49149
           14447         70.8599         81.1434         42.0572         5.18753
           14448         71.8082         82.3048         41.7463         5.01718
           14449         71.2819         81.5731         41.6980         5.46675
           14450         72.0704         82.5346         41.4717         5.32735
           14451         72.6072         83.2696         41.5185         4.87947
           14452         74.1483         85.3152         41.4933         3.54059
           14453         74.6809         85.9891         41.4362         3.12090
           14454         73.7955         84.9701         41.7026         3.17377
           14455         73.2687         84.2960         41.7675         3.59601
           14456         79.4282         91.4784         40.4044         1.17714
           14457         78.5814         90.5167         40.6038         1.67570
           14458         79.3474         91.3625         40.4883         1.70452
           14459         80.1932         92.3190         40.2886         1.20814
           14460         87.1337         99.7393         38.5447        -1.01577
           14461         86.8548         99.4913         38.8556    -650.822E-03
           14462         88.0083         100.710         38.6601    -777.778E-03
           14463         88.2926         100.958         38.3458        -1.14222
           14464         90.6389         103.343         37.6004        -1.59500
           14465         91.3046         103.958         37.1604        -1.95101
           14466         90.3176         102.922         37.3052        -2.01402
           14467         89.6543         102.306         37.7416        -1.64941
           14468         94.8929         107.583         36.1040        -1.93389
           14469         95.6522         108.302         35.7058        -2.00907
           14470         95.2292         107.818         35.6141        -2.26288
           14471         94.4764         107.105         36.0086        -2.18849
           14472         96.3490         108.957         35.3203        -2.02541
           14473         97.0547         109.615         34.9264        -2.06032
           14474         96.7074         109.204         34.8231        -2.38048
           14475         96.0022         108.547         35.2179        -2.34532
           14476         98.6004         111.248         34.7409        -1.12940
           14477         98.3124         110.913         34.6498        -1.43430
           14478         97.7680         110.436         35.0904        -1.46570
           14479         98.0536         110.769         35.1836        -1.16033
           14480         99.1465         111.811         34.6208     498.700E-03
           14481         99.1280         111.828         34.7717     290.935E-03
           14482         98.7498         111.521         35.1861     449.167E-03
           14483         98.7579         111.492         35.0335     658.780E-03
           14484         97.5051         110.162         35.1324         1.57847
           14485         96.7919         109.489         35.5183         1.64496
           14486         96.8040         109.442         35.2864         1.83807
           14487         96.2409         108.904         35.5652         1.87320
           14488         96.3188         108.910         35.2734         2.10638
           14489         96.8899         109.454         34.9883         2.07365
           14490         93.3135         106.121         37.1282         1.56773
           14491         93.2898         106.159         37.4274         1.38154
           14492         92.4417         105.300         37.6774         1.32750
           14493         92.4846         105.284         37.3783         1.51069
           14494         89.1801         101.916         38.3201         1.04945
           14495         89.7398         102.530         38.3805     993.149E-03
           14496         89.1187         101.927         38.7628     684.598E-03
           14497         88.5582         101.310         38.6927     755.730E-03
           14498         81.8614         94.1561         39.9933    -831.075E-03
           14499         81.3498         93.5962         39.9945    -661.077E-03
           14500         82.3977         94.7309         39.6925    -123.262E-03
           14501         82.9102         95.2931         39.6933    -295.854E-03
           14502         78.9545         90.9513         40.4929        -1.27489
           14503         77.6814         89.5248         40.8030        -1.60228
           14504         77.6642         89.5342         40.7910        -1.10287
           14505         78.9437         90.9599         40.4793    -777.363E-03
           14506         76.3624         88.0201         41.0993        -2.00740
           14507         77.7747         89.5901         40.7641        -2.07155
           14508         76.4645         88.0874         41.0610        -2.47485
           14509         72.2156         82.9824         41.9766        -4.09457
           14510         70.6870         80.9934         42.2819        -4.95033
           14511         70.0500         80.2948         42.6919        -4.65762
           14512         67.4408         76.6795         43.3127        -6.15684
           14513         67.5217         76.9164         43.5744        -5.65418
           14514         68.8254         78.6622         43.0693        -5.23322
           14515         68.7392         78.4315         42.8123        -5.73070
           14516         67.0458         75.8292         42.4863        -7.34142
           14517         66.4183         74.8563         42.3136        -7.85109
           14518         65.7188         73.8814         42.7208        -7.99378
           14519         66.3322         74.8532         42.8868        -7.48092
           14520         62.6574         69.0175         42.5116        -9.82065
           14521         62.6661         69.0560         41.9186        -9.93092
           14522         61.6713         67.4211         42.1663        -10.3704
           14523         61.6669         67.3695         42.7659        -10.2690
           14524         60.5976         65.4377         43.7540        -10.6259
           14525         60.0026         64.3074         44.1673        -10.8689
           14526         60.8099         65.8000         44.1955        -10.3766
           14527         57.5650         60.2906         42.4085        -12.0710
           14528         58.2787         61.4388         42.8014        -11.8236
           14529         58.5636         62.1868         42.0362        -11.6841
           14530         57.8364         61.0376         41.6438        -11.9317
           14531         54.2494         54.7577         41.3595        -12.8937
           14532         54.3247         55.3856         40.5080        -12.7315
           14533         53.4439         54.1184         40.0014        -12.8082
           14534         53.3814         53.4901         40.8525        -12.9699
           14535         51.6030         50.9430         39.8620        -13.0306
           14536         50.6497         49.4833         39.5300        -13.0416
           14537         50.8328         49.1718         40.4053        -13.1698
           14538         51.7606         50.6149         40.7356        -13.1623
           14539         50.6062         47.2461         42.3784        -13.3551
           14540         49.7995         46.6768         41.2018        -13.2520
           14541         49.2594         45.3486         41.6115        -13.2350
           14542         50.0813         45.9189         42.7903        -13.3350
           14543         47.7948         41.5282         42.8939        -12.9251
           14544         48.2429         42.7748         42.4230        -13.0719
           14545         47.1763         42.0254         41.0468        -12.9053
           14546         46.7097         40.7763         41.5191        -12.7574
           14547         45.8709         37.2602         43.7173        -12.0213
           14548         46.0951         36.7213         44.7167        -11.8149
           14549         47.3311         38.0314         45.7246        -12.1392
           14550         47.1200         38.5779         44.7254        -12.3436
           14551         39.3932         30.2403         39.2305        -9.74098
           14552         38.2630         28.4871         39.0330        -8.96108
           14553         39.8970         29.3376         41.0595        -9.12476
           14554         40.9902         31.0769         41.2436        -9.91819
           14555         37.6651         25.8896         40.4729        -7.26070
           14556         39.0276         27.1013         41.7264        -7.71194
           14557         39.1638         27.9820         41.1233        -8.37447
           14558         37.7716         26.8047         39.8645        -7.90736
           14559         37.2376         24.5173         40.9045        -6.19763
           14560         35.8859         22.7103         39.9787        -5.21778
           14561         37.1713         23.0819         41.7821        -4.74682
           14562         38.4541         24.8700         42.7078        -5.72662
           14563         34.6581         17.9796         39.8770        -1.25404
           14564         33.6633         18.2979         38.5576        -2.39734
           14565         32.1710         15.7339         36.9386        -1.17560
           14566         33.3429         15.4133         38.2610    -29.7068E-03
           14567         32.6799         18.5222         37.1686        -3.25810
           14568         35.2428         20.5961         40.0927        -3.47301
           14569         34.3762         20.8173         38.7009        -4.33016
           14570         33.3427         15.4160         38.2611     32.0441E-03
           14571         32.2030         15.8021         36.9763         1.20944
           14572         33.7715         18.4700         38.6660         2.48161
           14573         34.7205         18.0869         39.9473         1.30595
           14574         31.1685         16.2894         35.6516         2.29791
           14575         30.9404         13.1210         35.3387     29.0910E-03
           14576         29.7143         13.6120         34.0128         1.11966
           14577         33.6831         21.3161         37.3777         5.15859
           14578         35.4852         23.4581         38.7917         6.16713
           14579         36.3458         23.3202         40.3161         5.53713
           14580         34.6292         21.1825         38.8963         4.52711
           14581         37.6194         27.8643         38.5177         8.72657
           14582         37.2199         28.3509         37.3500         9.04489
           14583         38.8686         30.0763         38.4631         9.72284
           14584         39.2272         29.5885         39.6311         9.40387
           14585         38.5802         30.6576         37.3532         9.97409
           14586         36.8961         28.9135         36.1903         9.34490
           14587         36.6310         29.5490         35.0797         9.56857
           14588         38.3486         31.2937         36.2425         10.1974
           14589         39.7243         34.4727         35.2351         10.9969
           14590         41.3575         36.0527         36.4739         11.4787
           14591         41.4528         35.2656         37.5407         11.3909
           14592         39.8335         33.6874         36.3034         10.9072
           14593         46.1583         43.1253         37.6405         12.6129
           14594         47.0589         44.3820         38.0050         12.7428
           14595         47.7114         44.5314         39.1980         12.9407
           14596         46.8254         43.2769         38.8355         12.8090
           14597         49.1418         47.2033         39.0240         12.9866
           14598         48.6873         45.9983         39.5118         13.0499
           14599         47.8167         45.5095         38.2324         12.8263
           14600         48.3049         46.7223         37.7359         12.7737
           14601         54.3568         55.5812         40.2669         12.6760
           14602         54.9184         56.7176         39.9726         12.4964
           14603         55.3399         56.9978         40.8529         12.5608
           14604         54.7932         55.8623         41.1421         12.7452
           14605         57.4373         61.3694         39.1591         11.5842
           14606         57.5573         61.2113         39.9969         11.7548
           14607         56.4810         59.4663         39.8406         12.0522
           14608         56.3381         59.6302         38.9975         11.8721
           14609         61.8134         67.7796         41.1845         10.3624
           14610         61.0735         66.5687         41.3365         10.6707
           14611         60.8689         66.3463         40.8370         10.7225
           14612         61.6202         67.5680         40.6844         10.4141
           14613         62.6237         69.1202         40.6862         10.0166
           14614         63.4864         70.4264         40.7882         9.65275
           14615         63.2937         70.0674         41.3873         9.72356
           14616         62.4428         68.7636         41.2889         10.0843
           14617         65.4197         73.3228         42.1081         8.52235
           14618         66.2571         74.5844         42.0963         8.05817
           14619         65.8003         73.9772         42.6298         8.02894
           14620         70.9598         80.8933         40.8333         6.51509
           14621         71.6644         81.8258         40.9217         6.16938
           14622         71.0037         80.9995         41.0855         6.33770
           14623         70.3065         80.0679         41.0008         6.68123
           14624         75.1198         86.2352         41.0304         4.51834
           14625         75.8418         87.1398         41.0047         4.09857
           14626         74.9701         86.1297         41.1190         4.20262
           14627         74.2552         85.2252         41.1436         4.62533
           14628         77.5342         89.3099         40.8243         2.21284
           14629         76.7672         88.3962         40.9680         2.72945
           14630         77.7759         89.5272         40.7984         2.70970
           14631         78.5485         90.4406         40.6590         2.19358
           14632         81.7833         94.0694         40.1633         1.22481
           14633         81.0007         93.2065         40.1963         1.22269
           14634         80.2145         92.3228         40.4006         1.68764
           14635         80.9949         93.1870         40.3683         1.68967
           14636         85.2438         97.8727         39.9275     588.910E-03
           14637         86.0452         98.7249         39.6866     262.636E-03
           14638         85.4553         98.0667         39.5637     204.799E-03
           14639         84.6614         97.2225         39.8042     529.479E-03
           14640         88.6137         101.477         39.3777    -259.126E-03
           14641         89.6253         102.536         39.1524    -474.152E-03
           14642         89.3061         102.141         38.8316    -642.503E-03
           14643         88.2815         101.071         39.0623    -429.270E-03
           14644         90.5997         103.432         38.2491        -1.05417
           14645         89.9389         102.779         38.5753    -843.313E-03
           14646         90.4415         103.350         38.7492    -737.318E-03
           14647         91.0937         103.995         38.4258    -944.853E-03
           14648         93.6954         106.589         37.4006        -1.33515
           14649         93.1875         106.137         37.8670        -1.16992
           14650         93.7388         106.749         37.9765        -1.06803
           14651         94.2471         107.201         37.5112        -1.23514
           14652         95.9295         109.042         37.7169    -897.676E-03
           14653         95.6680         108.707         37.4341        -1.02937
           14654         95.1576         108.246         37.8692    -982.969E-03
           14655         95.4220         108.583         38.1527    -852.121E-03
           14656         96.4185         109.507         37.4211    -858.247E-03
           14657         96.9331         109.983         37.0544    -824.598E-03
           14658         96.7706         109.731         36.6788        -1.01151
           14659         96.2510         109.252         37.0458        -1.04380
           14660         98.2259         111.212         36.3111    -15.8251E-03
           14661             98.         111.076         36.8162    -97.5092E-03
           14662         97.8497         110.979         37.1215     63.1170E-03
           14663         98.0740         111.114         36.6155     143.834E-03
           14664         98.1720         111.120         36.1572     391.354E-03
           14665         98.3317         111.267         36.0434     218.066E-03
           14666         97.9159         110.969         36.7307     314.786E-03
           14667         97.6647         110.603         36.2781     771.184E-03
           14668         97.1081         110.130         36.8544     808.012E-03
           14669         96.9789         109.942         36.6210     968.820E-03
           14670         97.5489         110.427         36.0418     939.303E-03
           14671         94.5150         107.671         38.4740     866.318E-03
           14672         94.7604         107.833         37.9315         1.00042
           14673         95.2763         108.393         37.9730     933.174E-03
           14674         95.0279         108.228         38.5127     802.392E-03
           14675         89.9701         102.825         38.6433     789.766E-03
           14676         90.4674         103.377         38.7450     754.666E-03
           14677         89.9215         102.856         39.1570     492.914E-03
           14678         89.4129         102.293         39.0609     507.998E-03
           14679         86.8374         99.5287         39.2230     215.509E-03
           14680         85.9724         98.6069         39.3662     53.6494E-03
           14681         86.0266         98.6317         39.1150     341.091E-03
           14682         86.8933         99.5515         38.9687     506.417E-03
           14683         83.3467         95.7777         39.7804    -549.848E-03
           14684         83.8124         96.2564         39.4374     94.4229E-03
           14685         84.2425         96.7373         39.5291    -162.377E-03
           14686         79.1067         91.0721         40.5598        -2.04189
           14687         80.0640         92.1538         40.4320        -1.74620
           14688         80.0893         92.1674         40.4940        -1.99309
           14689         79.1602         91.1141         40.6212        -2.28351
           14690         77.4843         89.1174         40.8670        -3.35434
           14691         76.0974         87.4820         41.0151        -3.81032
           14692         75.7994         87.1828         41.0568        -3.58224
           14693         77.1907         88.8213         40.9063        -3.12073
           14694         71.0997         81.1519         41.1736        -6.20736
           14695         70.8991         80.8461         40.9828        -6.43684
           14696         69.8363         79.4423         41.0597        -6.87992
           14697         70.0296         79.7489         41.2693        -6.64056
           14698         65.9409         74.0491         41.5042        -8.47913
           14699         66.5668         74.9456         41.2849        -8.24553
           14700         66.0662         74.2123         41.0201        -8.54058
           14701         65.4437         73.3122         41.2486        -8.77069
           14702         63.6363         70.5874         41.6505        -9.52615
           14703         63.4823         70.3831         41.0876        -9.65924
           14704         62.5082         68.8528         41.3537        -10.0623
           14705         59.7383         64.7316         40.0937        -11.0500
           14706         59.3314         63.8897         40.7008        -11.2861
           14707         60.2414         65.2490         41.1683        -10.9993
           14708         60.6671         66.0936         40.5643        -10.7659
           14709         58.1320         61.8142         40.9203        -11.7377
           14710         57.3133         60.5908         40.4729        -11.9416
           14711         57.0311         59.8146         41.1953        -12.1353
           14712         48.0779         45.4350         38.8858        -12.9334
           14713         48.6408         46.4909         38.7889        -12.9521
           14714         47.8997         46.0512         37.7099        -12.7569
           14715         47.3188         44.9945         37.7916        -12.7381
           14716         46.1557         41.4064         39.6670        -12.7129
           14717         45.1367         40.9224         38.1634        -12.4897
           14718         44.3160         39.2899         38.4488        -12.2821
           14719         45.3722         39.7812         39.9611        -12.5020
           14720         40.9740         34.2697         37.7649        -11.1424
           14721         39.8603         33.6262         36.4293        -10.8935
           14722         39.0193         32.3351         36.3286        -10.5178
           14723         40.1466         32.9904         37.6612        -10.7623
           14724         36.1897         29.9515         33.8797        -9.65260
           14725         36.8114         29.8911         35.0238        -9.69259
           14726         37.9863         31.2535         35.6559        -10.1523
           14727         37.3971         31.3266         34.5103        -10.1212
           14728         35.8406         25.3271         37.8559        -7.50097
           14729         36.1411         24.9665         38.6792        -7.12882
           14730         37.4979         27.0999         39.0484        -8.26870
           14731         32.9943         21.5301         36.1644        -5.65207
           14732         31.2544         19.5257         34.6931        -4.80908
           14733         31.8861         18.9931         35.8663        -4.11510
           14734         33.5360         20.9963         37.3361        -4.95831
           14735         29.7008         13.6037         33.9968        -1.12227
           14736         30.9403         13.1205         35.3385    -27.8518E-03
           14737         31.1180         16.2147         35.5978        -2.26662
           14738         27.7284         15.0572         31.4287        -3.03358
           14739         28.6031         14.3069         32.6569        -2.17551
           14740         30.1937         16.6841         34.2962        -3.12384
           14741         29.4710         17.4343         33.0687        -3.98237
           14742         26.1310         8.78618         29.3917     22.4596E-03
           14743         24.7536         9.58086         28.0540     949.548E-03
           14744         26.0709         12.3218         29.7049         1.95821
           14745         27.2360         11.5301         31.0413         1.03311
           14746         23.7150         6.80379         26.3732     19.1188E-03
           14747         22.2559         7.77755         25.0488     857.876E-03
           14748         23.5246         10.5516         26.7312         1.78627
           14749         27.5189         19.2405         29.3224         5.52172
           14750         25.5508         17.1306         27.7048         4.70565
           14751         25.1154         17.9418         26.6235         5.09037
           14752         27.1664         20.0521         28.2408         5.90679
           14753         28.9154         22.7960         28.7474         6.96076
           14754         28.7107         23.5345         27.7527         7.14999
           14755         30.6941         25.4202         29.1806         7.87838
           14756         30.8586         24.6785         30.1748         7.68933
           14757         34.2419         31.4089         28.8268         9.31701
           14758         35.8805         32.8722         30.1124         9.83072
           14759         35.6896         31.9499         30.8144         9.79692
           14760         34.0577         30.4818         29.5442         9.28237
           14761         39.6464         36.2919         33.0090         11.0015
           14762         41.4963         37.9181         34.5966         11.5336
           14763         41.3829         36.9182         35.5387         11.5269
           14764         39.5299         35.2902         33.9474         10.9970
           14765         41.2365         40.5474         30.9665         10.8481
           14766         40.1922         39.9141         29.7459         10.4041
           14767         40.8622         41.0926         29.5866         10.3528
           14768         41.8801         41.7279         30.7871         10.7944
           14769         47.1876         45.3709         37.0209         12.6132
           14770         46.7796         45.4914         36.0254         12.3812
           14771         47.9263         46.8501         36.7628         12.5543
           14772         53.0872         54.5944         38.2443         12.4231
           14773         53.9541         56.2069         37.9803         12.1667
           14774         54.5177         56.5501         39.0403         12.3539
           14775         53.6719         54.9371         39.3040         12.6099
           14776         55.6196         59.9294         36.3406         10.9429
           14777         55.7769         59.6719         37.2103         11.3452
           14778         54.5202         57.8241         36.8595         11.5697
           14779         54.3344         58.0785         35.9896         11.1666
           14780         62.1887         69.0636         38.5231         9.55976
           14781         63.2182         70.4427         38.9534         9.32718
           14782         62.6919         69.4985         39.4390         9.75954
           14783         61.6801         68.1218         39.0140         9.99121
           14784         64.9848         72.7443         39.9836         8.96615
           14785         65.9984         74.1715         40.1609         8.56874
           14786         65.6867         73.6790         40.5885         8.74135
           14787         64.6846         72.2514         40.4127         9.13821
           14788         66.6191         75.0079         40.6877         8.33324
           14789         66.2519         74.4794         41.1267         8.44246
           14790         65.3301         73.1503         41.0273         8.85026
           14791         70.0511         79.6944         40.6924         6.90524
           14792         70.9017         80.8025         40.5550         6.58887
           14793         71.8235         82.0001         40.6918         6.20492
           14794         74.1174         84.9889         41.0450         4.96468
           14795         74.5089         85.4374         40.9913         4.96439
           14796         75.5166         86.6860         40.9815         4.52203
           14797         78.3222         90.0691         40.8984         3.31282
           14798         77.8348         89.4801         40.9752         3.60886
           14799         78.7161         90.5085         41.0361         3.39539
           14800         79.2062         91.0948         40.9571         3.10096
           14801         83.8548         96.4001         40.7871         1.52050
           14802         83.2669         95.7532         41.0046         1.79306
           14803         83.9489         96.5368         41.2467         1.69381
           14804         84.5386         97.1838         41.0290         1.42126
           14805         86.2734         99.0401         40.2928     645.484E-03
           14806         85.7046         98.4383         40.5407     891.514E-03
           14807         86.2428         99.0551         40.7749     872.581E-03
           14808         86.8118         99.6569         40.5289     628.076E-03
           14809         87.7582         100.694         40.5257     415.296E-03
           14810         88.3683         101.374         40.6327     333.663E-03
           14811         88.6027         101.585         40.2711     154.495E-03
           14812         87.9919         100.906         40.1664     236.267E-03
           14813         91.7315         104.935         39.9859    -380.345E-03
           14814         91.2324         104.478         40.5595    -209.584E-03
           14815         91.8895         105.252         41.0033    -205.295E-03
           14816         92.3886         105.709         40.4276    -375.894E-03
           14817         92.7388         105.852         38.9483    -740.021E-03
           14818         92.2618         105.428         39.4885    -572.949E-03
           14819         92.8150         106.064         39.7397    -531.914E-03
           14820         93.2927         106.488         39.1983    -698.586E-03
           14821         94.2161         107.426         38.8933    -772.642E-03
           14822         94.5940         107.876         39.1522    -688.266E-03
           14823         95.0218         108.242         38.6294    -788.714E-03
           14824         94.6447         107.792         38.3706    -873.049E-03
           14825         96.5530         109.908         38.7729    -501.904E-03
           14826         96.6345         110.062         39.1377    -399.194E-03
           14827         96.9396         110.296         38.6259    -390.024E-03
           14828         96.8604         110.143         38.2604    -493.905E-03
           14829         97.0094         110.511         39.4018     129.664E-03
           14830         96.9027         110.502         40.0147     45.9848E-03
           14831         96.7317         110.409         40.5624     72.7975E-03
           14832         96.8302         110.413         39.9536     162.310E-03
           14833         97.1086         110.431         38.3776     340.858E-03
           14834         97.1660         110.556         38.7226     223.751E-03
           14835         96.8085         110.322         39.5535     245.470E-03
           14836         96.7436         110.190         39.2041     360.693E-03
           14837         96.1745         109.374         38.0760     749.748E-03
           14838         95.9146         109.207         38.6728     656.070E-03
           14839         95.4895         108.739         38.6061     744.647E-03
           14840         95.7471         108.905         38.0140     837.227E-03
           14841         95.2301         108.568         39.2085     639.836E-03
           14842         94.7705         108.059         39.1164     699.704E-03
           14843         93.2799         106.428         38.9253     760.643E-03
           14844         93.7357         106.931         39.0086     751.244E-03
           14845         93.3336         106.593         39.5651     600.477E-03
           14846         92.8750         106.086         39.4811     606.484E-03
           14847         89.5685         102.647         40.3575    -20.8622E-03
           14848         88.5413         101.539         40.4378    -217.956E-03
           14849         88.6663         101.584         39.7355     61.4924E-03
           14850         89.7106         102.702         39.6464     259.223E-03
           14851         87.6075         100.451         39.8750    -155.382E-03
           14852         87.4009         100.276         40.2891    -416.590E-03
           14853         86.3643         99.1387         40.2776    -600.920E-03
           14854         86.5686         99.3168         39.8649    -339.339E-03
           14855         85.0289         97.6908         40.5382        -1.04796
           14856         84.6761         97.3225         40.8497        -1.32570
           14857         83.6751         96.1958         40.7182        -1.50961
           14858         84.0248         96.5648         40.4061        -1.23291
           14859         80.1272         92.1629         41.3679        -3.03549
           14860         80.5109         92.6041         41.1503        -2.81873
           14861         81.4843         93.7374         41.3613        -2.53916
           14862         81.0962         93.2960         41.5798        -2.75628
           14863         78.4746         90.2358         40.9372        -3.36200
           14864         79.4708         91.3986         41.0335        -3.08563
           14865         79.1838         91.0518         41.1655        -3.32842
           14866         78.1937         89.8905         41.0688        -3.60541
           14867         76.0790         87.3526         40.9909        -4.39511
           14868         76.9509         88.3983         41.0645        -4.12009
           14869         76.5585         87.9096         41.0859        -4.35469
           14870         75.6898         86.8620         41.0132        -4.63158
           14871         71.6130         81.7296         40.6891        -6.28748
           14872         71.0363         80.9780         40.5531        -6.53410
           14873         70.4674         80.2379         40.6221        -6.75318
           14874         71.0396         80.9894         40.7512        -6.50904
           14875         66.6190         75.0069         40.5985        -8.34643
           14876         67.5230         76.2714         40.5365        -7.97076
           14877         67.3119         76.0088         40.1650        -8.02518
           14878         66.4104         74.7474         40.2212        -8.40342
           14879         63.3340         70.3592         39.8734        -9.59781
           14880         63.1876         70.2323         39.4552        -9.56418
           14881         62.4157         69.0766         39.4914        -9.87425
           14882         62.5702         69.2016         39.9126        -9.91914
           14883         59.2549         64.3433         39.0330        -10.9395
           14884         59.6865         65.2584         38.4820        -10.5550
           14885         58.6910         63.9358         37.9390        -10.6950
           14886         58.2738         63.0236         38.4931        -11.0772
           14887         56.6624         60.0383         39.2632        -11.8565
           14888         56.9116         60.7903         38.5712        -11.5540
           14889         55.8837         59.3983         37.9981        -11.6619
           14890         55.6482         58.6465         38.6921        -11.9637
           14891         54.6480         57.3015         38.0959        -12.0360
           14892         54.5059         56.6329         38.8614        -12.3050
           14893         55.4946         57.9785         39.4582        -12.2327
           14894         48.9175         49.3485         35.6623        -12.1892
           14895         48.6781         49.7162         34.6444        -11.8323
           14896         47.2301         47.9569         33.8105        -11.6778
           14897         47.4911         47.6024         34.8324        -12.0309
           14898         46.2254         45.9628         34.2645        -11.9030
           14899         46.8549         45.9639         35.5747        -12.2787
           14900         48.0963         47.5980         36.1422        -12.4059
           14901         41.5136         40.0088         32.1676        -11.1789
           14902         42.8105         40.8358         33.6730        -11.6386
           14903         43.6615         42.3996         33.4713        -11.6539
           14904         42.3949         41.5764         31.9684        -11.1935
           14905         38.5308         33.6369         34.0030        -10.6573
           14906         38.0405         33.7982         32.9289        -10.5417
           14907         36.7134         32.4101         32.1044        -10.1204
           14908         37.2203         32.2568         33.1866        -10.2306
           14909         33.5884         28.2739         31.1537        -8.92657
           14910         32.2357         27.4319         29.7097        -8.54326
           14911         31.0652         25.6857         29.5450        -7.98477
           14912         32.4472         26.5315         30.9970        -8.37621
           14913         27.7876         21.6433         27.9663        -6.50357
           14914         25.8245         20.0258         26.2230        -5.86977
           14915         25.3663         18.5844         26.5914        -5.32767
           14916         27.2971         20.2095         28.3235        -5.96908
           14917         30.8998         20.3808         33.6718        -5.53432
           14918         29.0161         18.2880         32.0489        -4.70685
           14919         24.7318         9.74518         28.0501        -1.03882
           14920         23.5224         10.9306         26.7262        -1.97196
           14921         22.2181         8.00040         25.0450    -958.139E-03
           14922         23.7106         6.81118         26.3707    -24.7162E-03
           14923         25.2247         13.5910         28.5184        -2.93611
           14924         26.0759         12.5607         29.6999        -2.09344
           14925         27.0580         16.0902         30.2461        -3.87649
           14926         21.2770         4.98904         23.3282     15.3860E-03
           14927         19.7216         6.16341         22.0213     762.433E-03
           14928         20.9543         8.94805         23.7438         1.60297
           14929         18.7992         3.38038         20.2600     10.6390E-03
           14930         17.1348         4.76907         18.9753     656.029E-03
           14931         18.3433         7.54732         20.7391         1.40572
           14932         24.8458         18.8729         25.6174         5.42680
           14933         23.0898         15.8370         24.9419         4.29087
           14934         22.7370         16.7675         23.9362         4.62714
           14935         28.6793         25.9757         25.2107         7.46216
           14936         28.5579         25.0705         25.9771         7.38182
           14937         26.7116         23.4425         24.5767         6.73507
           14938         26.8206         24.3413         23.8163         6.81534
           14939         32.6770         30.3281         27.3055         8.76599
           14940         31.9739         29.1062         27.4248         8.58820
           14941         30.4310         28.2111         25.7631         8.02601
           14942         31.1636         29.4346         25.6274         8.21264
           14943         35.4029         35.0651         26.6032         9.10893
           14944         33.7340         33.1107         25.8771         8.73397
           14945         32.7397         32.9185         24.2015         8.14909
           14946         34.4539         34.8832         24.9768         8.51795
           14947         38.9195         38.7663         28.7078         10.0110
           14948         37.5066         37.6346         27.4056         9.49932
           14949         38.1511         39.0720         26.8312         9.26137
           14950         39.5503         40.2118         28.1413         9.77944
           14951         44.7679         47.0146         29.9843         10.0737
           14952         44.8038         46.3772         30.8517         10.5755
           14953         43.0639         44.5001         29.7013         10.2272
           14954         43.0270         45.1422         28.8224         9.72763
           14955         50.1428         52.8741         33.6835         11.0309
           14956         50.9741         54.2179         33.6736         10.8101
           14957         51.7494         54.7195         34.7298         11.2253
           14958         50.9385         53.3673         34.7291         11.4594
           14959         50.2511         53.7958         32.6923         10.3458
           14960         51.2217         55.2661         32.8343         10.0972
           14961         51.9249         55.6884         33.8071         10.5632
           14962         56.7594         61.5366         36.7249         10.7407
           14963         55.5157         60.2216         35.6340         10.5119
           14964         56.6708         61.8238         36.0226         10.3089
           14965         60.4854         67.7061         36.3956         8.44457
           14966         61.3841         68.8111         36.8345         8.38426
           14967         61.0055         68.0814         36.9965         8.88126
           14968         60.1165         66.9800         36.5267         8.94485
           14969         64.3757         72.5311         38.1992         8.06074
           14970         65.3322         73.7452         38.5805         7.88701
           14971         64.9612         73.0952         38.7427         8.32590
           14972         64.0135         71.8807         38.3602         8.50004
           14973         69.1326         78.6613         39.7430         6.79328
           14974         69.0229         78.4382         39.8707         7.05500
           14975         67.9723         77.0556         39.6165         7.43575
           14976         68.0708         77.2755         39.4908         7.17134
           14977         70.1715         80.0137         40.0472         6.38710
           14978         71.3282         81.4945         40.3341         5.95898
           14979         71.3493         81.4498         40.3885         6.19298
           14980         70.1991         79.9695         40.1033         6.62203
           14981         75.3791         86.4724         41.1105         4.80872
           14982         75.1495         86.2136         41.2201         4.80588
           14983         76.4758         87.8478         41.5855         4.28771
           14984         76.7040         88.1025         41.4653         4.29277
           14985         81.4022         93.6680         41.8929         2.68515
           14986         82.0991         94.4665         41.7861         2.42562
           14987         81.4016         93.6451         41.4799         2.62172
           14988         80.7101         92.8498         41.5865         2.88107
           14989         85.2992         98.1077         41.9123         1.42878
           14990         85.8360         98.6860         41.6487         1.21463
           14991         85.1807         97.9230         41.2994         1.33715
           14992         84.6450         97.3448         41.5628         1.55108
           14993         88.1946         101.399         42.6061     696.905E-03
           14994         88.7751         102.094         43.1377     598.376E-03
           14995         89.2746         102.598         42.6668     448.135E-03
           14996         88.6954         101.904         42.1353     546.321E-03
           14997         92.3391         105.818         41.5818    -203.161E-03
           14998         91.3027         104.692         41.5810    -54.4075E-03
           14999         91.7590         105.262         42.1595    -53.4825E-03
           15000         92.6010         106.193         42.2715    -164.200E-03
           15001         92.1923         105.811         42.7869    -83.3872E-03
           15002         92.5679         106.296         43.4191    -91.5646E-03
           15003         92.9756         106.680         42.9036    -172.323E-03
           15004         94.9203         108.426         40.3559    -493.547E-03
           15005         95.1746         108.757         40.7204    -432.536E-03
           15006         95.4789         108.990         40.1305    -488.115E-03
           15007         95.2262         108.659         39.7657    -549.152E-03
           15008         95.9662         109.475         39.8975    -456.909E-03
           15009         96.0933         109.674         40.2689    -379.023E-03
           15010         96.3729         109.876         39.6831    -400.472E-03
           15011         96.2484         109.678         39.3120    -478.237E-03
           15012         96.5694         110.330         41.1653    -108.155E-03
           15013         96.5536         110.245         40.7338    -181.654E-03
           15014         96.3432         110.138         41.4985    -184.477E-03
           15015         96.3619         110.224         41.9369    -110.233E-03
           15016         96.4101         110.219         41.5602     141.209E-03
           15017         96.4743         110.295         41.5977     93.0339E-03
           15018         96.3498         110.247         42.1847     84.3963E-03
           15019         96.2822         110.169         42.1476     137.336E-03
           15020         95.9027         109.675         41.5860     282.802E-03
           15021         95.6959         109.412         41.3211     341.879E-03
           15022         95.9558         109.562         40.4925     377.822E-03
           15023         96.1610         109.826         40.7578     318.053E-03
           15024         94.7141         108.239         40.5806     462.155E-03
           15025         94.2582         107.721         40.4095     492.061E-03
           15026         94.5062         107.879         39.7253     584.516E-03
           15027         94.9625         108.397         39.8964     554.517E-03
           15028         91.6364         105.056         41.5889     98.7695E-03
           15029         91.6499         104.999         41.0509     173.843E-03
           15030         92.2909         105.688         41.0114     263.982E-03
           15031         92.2706         105.740         41.5540     190.045E-03
           15032         89.5511         102.839         42.0888    -350.352E-03
           15033         90.0733         103.483         42.7175    -280.791E-03
           15034         89.5245         102.930         43.2113    -434.521E-03
           15035         88.9967         102.283         42.5856    -504.874E-03
           15036         86.4961         99.5130         42.6469        -1.14132
           15037         85.9948         98.9905         43.1179        -1.30302
           15038         85.1727         98.0287         42.6682        -1.51629
           15039         85.6725         98.5506         42.1969        -1.35410
           15040         80.6605         92.8057         41.8459        -2.92548
           15041         82.0232         94.3861         41.8960        -2.46285
           15042         81.5844         93.8959         42.1620        -2.63218
           15043         80.2160         92.2995         42.0585        -3.07979
           15044         81.1011         93.3600         42.4804        -2.75050
           15045         80.6007         92.7985         42.7407        -2.85270
           15046         79.7175         91.7380         42.3188        -3.18184
           15047         76.1470         87.4082         41.1432        -4.53388
           15048         75.7807         86.9615         41.1590        -4.67604
           15049         74.7954         85.7468         40.9897        -5.04673
           15050         75.1574         86.1935         40.9783        -4.90424
           15051         71.5715         81.7204         40.4369        -6.15480
           15052         72.1951         82.4903         40.5755        -6.00559
           15053         72.8252         83.3148         40.6980        -5.67370
           15054         72.1998         82.5476         40.5585        -5.82314
           15055         68.5349         78.0130         39.5096        -6.63973
           15056         69.1216         78.6979         39.7052        -6.64966
           15057         70.0076         79.9109         39.9750        -6.10315
           15058         69.4094         79.2121         39.7715        -6.10254
           15059         62.7058         70.6379         37.2458        -7.87444
           15060         63.6521         71.7207         37.7550        -7.96044
           15061         64.3876         72.8656         37.8653        -7.34070
           15062         63.4322         71.7749         37.3520        -7.25181
           15063         59.1620         66.0540         35.7583        -8.56997
           15064         59.8965         66.7623         36.3415        -8.86790
           15065         61.0152         68.4029         36.6074        -8.32367
           15066         60.2936         67.6980         36.0354        -8.02643
           15067         50.8736         53.9412         33.8288        -10.9369
           15068         52.4917         55.7437         34.9817        -11.1701
           15069         52.7549         56.7068         34.2575        -10.5905
           15070         51.1309         54.9002         33.1084        -10.3574
           15071         46.2129         48.3404         31.2372        -10.5371
           15072         47.2806         49.9337         31.4277        -10.3872
           15073         46.2719         49.2640         30.2058        -9.82890
           15074         45.1900         47.6782         30.0135        -9.98510
           15075         39.7513         40.4089         28.2879        -9.83479
           15076         38.1636         39.2055         26.6789        -9.19396
           15077         37.4786         37.8505         27.0781        -9.37514
           15078         39.1010         39.0569         28.6865        -10.0157
           15079         32.6600         30.5468         27.0014        -8.74262
           15080         34.2600         31.9576         28.2323        -9.26702
           15081         34.3076         32.6498         27.4962        -9.17804
           15082         32.7090         31.2443         26.2665        -8.64915
           15083         31.1624         29.2119         25.8914        -8.24072
           15084         31.2635         28.7634         26.5867        -8.32553
           15085         32.7569         30.0953         27.6951        -8.82728
           15086         18.7549         11.1442         20.9911        -2.63679
           15087         20.4084         13.4078         22.4050        -3.42306
           15088         19.7467         14.2579         21.1693        -3.66674
           15089         17.9516         11.9734         19.7636        -2.88309
           15090         19.6715         6.22306         21.9809    -790.168E-03
           15091         18.2722         7.54032         20.6590        -1.41394
           15092         17.1122         4.69985         18.9344    -636.278E-03
           15093         18.7996         3.37837         20.2597    -12.8258E-03
           15094         22.5947         12.2735         25.4759        -2.80103
           15095         21.6403         13.1752         24.0663        -3.29694
           15096         19.7040         10.1275         22.2810        -2.22763
           15097         20.9076         9.22761         23.7004        -1.72881
           15098         16.2551         2.02029         17.1708     4.62246E-03
           15099         14.4653         3.65145         15.9101     539.973E-03
           15100         15.6767         6.39325         17.7175         1.18965
           15101         13.6127     955.150E-03         14.0651    -4.43229E-03
           15102         11.6885         2.83847         12.8248     404.844E-03
           15103         12.9428         5.52506         14.6759     947.406E-03
           15104         18.5499         16.4079         18.0325         3.89803
           15105         18.2735         15.0048         18.6822         3.65485
           15106         16.0999         13.0947         16.7966         2.91864
           15107         16.3349         14.4967         16.1488         3.16190
           15108         24.2412         24.2268         19.2332         5.67869
           15109         23.7499         23.1376         19.7427         5.64899
           15110         22.0264         21.8230         18.1601         5.01455
           15111         22.5454         22.9098         17.6595         5.03839
           15112         25.5506         26.3348         18.8268         5.79260
           15113         25.9619         27.1888         18.3809         5.67711
           15114         27.2610         28.2229         19.6587         6.19105
           15115         26.8688         27.3637         20.1090         6.29933
           15116         27.4970         29.0349         18.8378         5.92036
           15117         25.8825         27.5717         17.4770         5.35811
           15118         25.9630         28.1768         16.4599         4.93294
           15119         27.5369         29.6320         17.8222         5.49867
           15120         40.1362         43.4201         25.1609         7.85336
           15121         39.4043         41.9167         25.6389         8.42671
           15122         37.5240         40.3500         23.8300         7.60708
           15123         38.3147         41.8560         23.3492         7.02874
           15124         41.7910         44.8797         26.6629         8.52474
           15125         43.5095         46.5087         28.0866         9.08173
           15126         41.2813         43.5145         27.4029         9.16772
           15127         49.9429         54.5066         31.1805         9.14038
           15128         48.9986         53.7367         30.2426         8.63619
           15129         49.6947         54.8403         30.3062         8.27939
           15130         50.6218         55.6113         31.2356         8.78150
           15131         52.3486         58.2777         31.5575         7.90169
           15132         53.1072         59.4847         31.6720         7.36727
           15133         54.1165         60.3892         32.5680         7.91246
           15134         53.3738         59.1774         32.4602         8.44680
           15135         55.6124         61.2860         34.3827         9.34117
           15136         56.8356         62.7424         35.1222         9.37656
           15137         56.5560         61.9969         35.5015         9.92629
           15138         55.3449         60.5445         34.7772         9.89164
           15139         62.2180         70.6228         36.6146         6.54970
           15140         61.0676         69.1982         36.0087         6.73252
           15141         61.1702         69.5984         35.9837         5.98421
           15142         62.3340         71.0222         36.5936         5.80919
           15143         66.5521         75.7530         38.6683         6.44647
           15144         67.4655         76.8395         39.0507         6.40205
           15145         66.9915         76.1049         38.9230         6.90740
           15146         66.0902         75.0283         38.5388         6.95057
           15147         69.1587         79.1217         39.8374         5.40595
           15148         70.2813         80.4939         40.2728         5.16419
           15149         70.0972         80.1503         40.0862         5.64405
           15150         68.9745         78.7657         39.6656         5.89848
           15151         71.5675         82.0606         40.8043         4.87851
           15152         70.9728         81.4086         40.7515         4.71215
           15153         71.7800         82.4745         41.3507         4.11560
           15154         72.3728         83.1293         41.4149         4.27971
           15155         77.7444         89.4418         42.4153         3.60547
           15156         77.0667         88.6469         42.3628         3.72975
           15157         77.5186         89.2286         42.8616         3.40386
           15158         78.1937         90.0188         42.9172         3.28356
           15159         83.8695         96.6907         44.6467         1.69312
           15160         84.6003         97.5230         44.6180         1.52761
           15161         84.1250         96.9310         43.8730         1.75322
           15162         83.3922         96.0971         43.8983         1.91883
           15163         87.7186         101.100         45.3699     791.654E-03
           15164         88.2826         101.697         44.8796     691.210E-03
           15165         87.7262         101.012         44.0971     850.829E-03
           15166         87.1583         100.414         44.5875     951.388E-03
           15167         88.2582         101.568         43.6520     719.522E-03
           15168         87.6836         100.870         43.0135     857.360E-03
           15169         87.1495         100.314         43.4589     988.730E-03
           15170         91.2968         104.960         43.9629     107.731E-03
           15171         91.7365         105.514         44.6502     59.1211E-03
           15172         92.1682         105.926         44.0366    -23.8219E-03
           15173         91.7321         105.373         43.3484     24.7780E-03
           15174         93.6283         107.679         45.4705    -147.813E-03
           15175         93.2987         107.243         44.7446    -131.015E-03
           15176         92.9423         106.923         45.4668    -88.6025E-03
           15177         93.2769         107.359         46.1926    -105.543E-03
           15178         94.7820         108.765         43.8423    -239.650E-03
           15179         94.5534         108.443         43.2563    -257.249E-03
           15180         94.2656         108.221         44.0075    -223.659E-03
           15181         94.4982         108.543         44.5934    -206.113E-03
           15182         95.4756         109.625         44.7037    -171.759E-03
           15183         95.5563         109.772         45.2124    -136.989E-03
           15184         95.7591         109.891         44.3275    -142.824E-03
           15185         95.6822         109.744         43.8174    -177.619E-03
           15186         95.9872         110.136         44.2942    -63.1269E-03
           15187         95.8219         110.072         45.2875    -70.2727E-03
           15188         95.7941         110.100         45.8318    -32.1893E-03
           15189         95.9547         110.166         44.8390    -24.0186E-03
           15190         95.9654         110.125         44.3990     63.6736E-03
           15191         96.0719         110.149         43.6648     79.5451E-03
           15192         96.2121         110.231         43.1292     41.4511E-03
           15193         96.0990         110.203         43.8562     29.0120E-03
           15194         95.2280         109.324         44.4384     203.581E-03
           15195         95.0063         109.191         45.4225     179.301E-03
           15196         94.7983         108.916         44.9914     199.853E-03
           15197         95.0225         109.047         44.0069     224.523E-03
           15198         94.0685         107.986         43.8436     217.065E-03
           15199         93.7057         107.608         44.0037     187.532E-03
           15200         93.7036         107.511         43.2099     223.579E-03
           15201         94.0748         107.896         43.0545     252.530E-03
           15202         90.8087         104.538         45.1991    -203.264E-03
           15203         90.3852         104.107         45.6828    -273.725E-03
           15204         90.0041         103.625         44.9771    -345.232E-03
           15205         90.4334         104.059         44.4923    -275.239E-03
           15206         87.6328         101.014         45.5264    -795.708E-03
           15207         86.9735         100.227         44.8711    -976.466E-03
           15208         87.4453         100.710         44.2476    -910.641E-03
           15209         88.1015         101.496         44.9034    -729.917E-03
           15210         86.7544         99.8899         43.6772        -1.08663
           15211         87.2620         100.410         43.1227    -967.820E-03
           15212         87.9515         101.230         43.6937    -792.538E-03
           15213         82.8328         95.4255         43.4550        -2.13052
           15214         82.3015         94.8417         43.8327        -2.19481
           15215         81.4544         93.8279         43.2852        -2.50972
           15216         81.9853         94.4117         42.9077        -2.44542
           15217         78.8022         90.7831         43.5679        -2.90248
           15218         79.4570         91.5172         43.2905        -2.93043
           15219         80.2823         92.5239         43.9602        -2.54591
           15220         79.6293         91.7900         44.2375        -2.51806
           15221         76.5108         88.0132         42.4444        -3.72914
           15222         75.7252         87.0283         41.9472        -4.13967
           15223         76.3799         87.7794         41.8827        -4.12135
           15224         77.1662         88.7641         42.3805        -3.71077
           15225         72.7886         83.5439         41.2710        -4.59126
           15226         71.9713         82.5978         41.0901        -4.58341
           15227         71.3141         81.7108         40.6263        -5.10426
           15228         72.1308         82.6576         40.8093        -5.11143
           15229         68.9037         78.7273         39.6574        -5.74861
           15230         69.4961         79.5983         40.0626        -5.09009
           15231         68.4022         78.3300         39.6439        -5.06397
           15232         67.8112         77.4542         39.2338        -5.73697
           15233         65.0150         73.8682         37.9990        -6.66900
           15234         65.5503         74.2222         38.3997        -7.38202
           15235         66.1753         75.2154         38.5291        -6.71570
           15236         59.5544         67.5595         35.0852        -6.37194
           15237         58.6502         66.3466         34.6869        -6.73693
           15238         59.2054         66.7885         35.1206        -7.22893
           15239         60.0984         68.0019         35.5379        -6.86211
           15240         53.9140         59.2054         33.4975        -9.35574
           15241         55.2490         60.7402         34.3164        -9.48430
           15242         55.4536         61.4631         33.8639        -8.79395
           15243         54.1155         59.9308         33.0348        -8.66598
           15244         50.3598         55.3712         30.9855        -8.67451
           15245         51.1145         56.4740         31.1827        -8.40699
           15246         50.4496         56.0889         30.3599        -7.75277
           15247         49.6667         54.9870         30.1394        -8.00201
           15248         46.1864         50.8106         28.1428        -7.94571
           15249         45.0590         49.2771         27.7902        -8.14863
           15250         46.1419         49.9872         29.0487        -8.91795
           15251         47.2447         51.5192         29.4187        -8.71793
           15252         38.9388         42.2415         24.1924        -7.49524
           15253         38.0504         40.7634         24.3888        -7.86422
           15254         39.5861         41.9247         26.0030        -8.62929
           15255         40.4266         43.4027         25.8052        -8.25888
           15256         38.8528         40.5648         26.3182        -8.92539
           15257         40.3415         41.6702         27.8447        -9.59169
           15258         41.0378         43.0316         27.5301        -9.29415
           15259         30.1008         31.3869         20.9509        -6.82067
           15260         29.5779         30.3097         21.4469        -6.98229
           15261         31.3754         31.8177         22.9884        -7.63810
           15262         31.8744         32.9003         22.4880        -7.47668
           15263         27.7229         28.6916         19.9235        -6.32568
           15264         28.1537         29.7189         19.2199        -6.08848
           15265         26.1840         27.9765         17.4987        -5.36242
           15266         25.7121         26.9496         18.2006        -5.59962
           15267         22.1360         19.2964         21.1440        -5.11812
           15268         24.3306         21.2511         22.8329        -5.89496
           15269         24.2249         21.9239         21.9904        -5.90836
           15270         22.0121         19.9741         20.2969        -5.13207
           15271         14.4898         3.52288         15.8989    -509.285E-03
           15272         12.9433         5.32656         14.6551    -903.132E-03
           15273         11.7016         2.76873         12.8175    -392.953E-03
           15274         13.6182     952.055E-03         14.0693     4.42604E-03
           15275         13.6092         10.1354         14.8631        -2.01775
           15276         13.8838         9.02949         15.5512        -1.80800
           15277         15.6100         10.7886         17.1917        -2.39427
           15278         15.3815         11.8798         16.4636        -2.58180
           15279         10.8271     230.013E-03         10.9403    -15.2345E-03
           15280         8.78307         2.36676         9.71354     243.261E-03
           15281         10.1477         4.95776         11.6008     666.472E-03
           15282         11.6201         9.04765         12.6991         1.50514
           15283         11.8617         10.7469         12.0705         1.75379
           15284         14.1715         12.7186         14.2023         2.44913
           15285         13.8744         11.0171         14.8313         2.20250
           15286         13.8227         14.4570         11.5574         2.27837
           15287         12.3387         13.2196         10.0329         1.77528
           15288         13.3395         14.6957         9.65950         1.88207
           15289         14.7464         15.9140         11.1822         2.38830
           15290         19.0964         20.2302         14.1833         3.70471
           15291         20.8710         21.6695         15.9327         4.37540
           15292         20.1735         20.3443         16.4823         4.34873
           15293         18.3469         18.9101         14.7305         3.67808
           15294         21.6368         24.1497         12.0163         3.20116
           15295         23.2004         26.0275         11.9834         3.11591
           15296         24.2941         27.0135         13.7285         3.77969
           15297         22.8194         25.1556         13.7720         3.85982
           15298         33.7781         37.1226         20.1053         5.91637
           15299         32.2673         35.2543         19.5364         5.92684
           15300         31.1058         34.5716         17.5421         4.86871
           15301         32.6668         36.4468         18.1129         4.85886
           15302         35.5500         39.0948         21.1245         6.19176
           15303         36.0817         39.1203         22.4074         6.97579
           15304         34.3196         37.1499         21.3991         6.70257
           15305         43.1950         47.6958         25.8960         7.19821
           15306         41.7187         46.3610         24.4913         6.49924
           15307         42.5906         47.8109         24.3435         5.75501
           15308         44.0217         49.1477         25.7477         6.45266
           15309         47.2211         53.3105         27.1905         5.71663
           15310         48.4094         54.3843         28.3649         6.42532
           15311         47.4761         52.8995         28.2143         7.12044
           15312         46.2497         51.8256         27.0395         6.41215
           15313         52.9287         60.1795         30.8336         5.31412
           15314         51.4588         58.1964         30.0273         5.97289
           15315         50.6553         57.6096         29.1820         5.05550
           15316         52.1714         59.5902         29.9861         4.41865
           15317         55.7365         63.3191         32.6772         5.73133
           15318         56.8193         64.4362         33.4526         6.13445
           15319         56.3097         63.4995         33.3710         6.92863
           15320         55.2185         62.3828         32.6171         6.54066
           15321         65.7897         75.5369         38.8109         3.99321
           15322         66.5365         76.5535         39.5654         3.16785
           15323         67.7013         77.8480         40.0376         3.51178
           15324         66.9688         76.8353         39.2793         4.33309
           15325         71.2934         82.1094         42.1851         2.88719
           15326         70.4076         80.9870         41.2742         3.53305
           15327         69.5364         80.0341         41.1724         3.15593
           15328         70.4339         81.1563         42.0815         2.51028
           15329         72.0422         82.9269         42.1282         3.26478
           15330         72.2506         83.2834         43.1356         2.29717
           15331         72.9889         84.1020         43.0771         2.67490
           15332         77.3582         89.2481         45.6601         1.76005
           15333         78.0508         90.0366         45.3940         1.98724
           15334         77.0116         88.7709         44.1682         2.61578
           15335         76.3117         87.9860         44.4260         2.39035
           15336         80.7501         93.0547         43.8208         2.50785
           15337         80.8952         93.2626         44.4345         2.29328
           15338         81.7059         94.2239         44.8821         2.02251
           15339         81.5584         94.0166         44.2756         2.23413
           15340         83.5289         96.3730         45.9843         1.46196
           15341         83.3418         96.1189         45.2008         1.68881
           15342         82.4139         95.0277         44.7104         1.95627
           15343         82.5956         95.2781         45.4948         1.73121
           15344         87.0646         100.474         47.4854     691.289E-03
           15345         86.4451         99.7167         46.3193     943.768E-03
           15346         85.6027         98.7800         46.8002     999.281E-03
           15347         86.2317         99.5391         47.9724     741.811E-03
           15348         89.8833         103.560         45.8542     355.337E-03
           15349         89.3920         103.058         46.5558     404.067E-03
           15350         89.9182         103.702         47.4308     286.284E-03
           15351         90.4038         104.204         46.7292     237.771E-03
           15352         91.3337         105.252         46.8522     104.005E-03
           15353         91.7655         105.792         47.6975     43.2727E-03
           15354         92.1757         106.197         46.9380     982.911E-06
           15355         91.7499         105.658         46.0929     61.5746E-03
           15356         93.5728         107.877         48.6694    -101.926E-03
           15357         93.2579         107.467         47.7996    -90.8157E-03
           15358         92.9242         107.150         48.6684    -66.0924E-03
           15359         93.2465         107.560         49.5382    -77.2697E-03
           15360         95.3714         109.671         46.1856    -133.827E-03
           15361         95.4483         109.803         46.6664    -106.904E-03
           15362         95.6286         109.903         45.6926    -107.747E-03
           15363         95.6537         110.043         46.8072    -49.1992E-03
           15364         95.6580         109.988         46.1917    -73.8295E-03
           15365         95.5232         109.916         46.9910    -83.4971E-03
           15366         95.5298         109.978         47.6035    -60.1570E-03
           15367         95.5955         109.902         46.0238     101.470E-03
           15368         95.4369         109.767         46.4240     114.175E-03
           15369         95.5057         109.728         45.3231     145.655E-03
           15370         95.6731         109.867         44.9234     129.231E-03
           15371         94.7801         109.049         46.4983     162.808E-03
           15372         95.1694         109.423         45.9312     157.946E-03
           15373         94.9495         109.283         47.0066     142.540E-03
           15374         93.1999         107.476         48.9531     80.8813E-03
           15375         93.5259         107.784         48.0602     104.493E-03
           15376         93.7741         108.112         48.8212     107.377E-03
           15377         93.4547         107.804         49.7141     83.6626E-03
           15378         92.1858         106.106         45.6847    -116.487E-06
           15379         92.5611         106.461         45.0428     47.1175E-03
           15380         92.7948         106.793         45.8300     68.2027E-03
           15381         92.4250         106.438         46.4708     21.5242E-03
           15382         90.8586         104.755         47.3846    -158.141E-03
           15383         90.6269         104.436         46.4837    -211.346E-03
           15384         91.1051         104.931         45.9762    -153.816E-03
           15385         91.3298         105.250         46.8813    -104.367E-03
           15386         88.4934         102.116         47.9303    -452.673E-03
           15387         88.8603         102.485         46.9837    -467.213E-03
           15388         89.5974         103.359         47.7842    -308.221E-03
           15389         89.2386         102.993         48.7275    -300.223E-03
           15390         85.2245         98.2772         45.3524        -1.30005
           15391         85.9575         99.1547         46.1596        -1.04395
           15392         85.4083         98.5574         46.7923        -1.03764
           15393         84.6711         97.6799         45.9851        -1.29379
           15394         83.3201         96.1223         45.7500        -1.55740
           15395         82.6984         95.4294         46.2528        -1.50714
           15396         81.9109         94.4887         45.4437        -1.83217
           15397         82.5367         95.1816         44.9408        -1.88246
           15398         78.9610         91.1008         45.7673        -1.85127
           15399         79.7284         91.9708         45.3811        -2.02308
           15400         80.5300         92.9319         46.3532        -1.61487
           15401         79.7703         92.0620         46.7392        -1.44314
           15402         72.5820         83.4280         41.6924        -3.99873
           15403         71.6966         82.4089         41.4573        -3.95446
           15404         71.0795         81.5726         40.8597        -4.53599
           15405         69.2840         79.5369         40.3557        -4.29499
           15406         70.1268         80.4724         40.5615        -4.50182
           15407         70.7710         81.3361         41.1512        -3.94219
           15408         69.9385         80.4086         40.9388        -3.72858
           15409         63.3471         72.2348         37.1735        -5.72524
           15410         62.5264         71.3440         36.7024        -5.50802
           15411         62.0168         70.5134         36.4634        -6.20540
           15412         62.8445         71.3995         36.8948        -6.44436
           15413         58.8339         66.9501         34.6117        -5.72727
           15414         60.4950         68.8244         35.5829        -5.93515
           15415         59.7912         68.2206         35.1206        -5.27365
           15416         52.4923         59.9793         30.2377        -4.36834
           15417         53.8527         61.3507         31.3069        -5.05888
           15418         54.6686         62.5280         31.7443        -4.32471
           15419         53.3356         61.1562         30.6760        -3.63415
           15420         50.5629         56.5199         30.1379        -7.23887
           15421         49.4356         55.3814         29.2209        -6.86076
           15422         49.3363         54.9653         29.4782        -7.39812
           15423         46.8007         52.0797         27.8423        -7.13759
           15424         48.3007         53.7707         28.8469        -7.31767
           15425         47.9294         53.7781         28.0925        -6.49909
           15426         46.4231         52.0822         27.0847        -6.31396
           15427         39.4948         44.2458         22.3699        -5.52296
           15428         41.0989         45.5513         24.2323        -6.60325
           15429         42.5825         47.6674         24.6057        -6.01490
           15430         41.0555         46.3644         22.7471        -4.93699
           15431         33.8941         36.6163         21.2739        -6.69456
           15432         34.6837         37.9953         20.8729        -6.23731
           15433         32.9132         36.4246         19.0000        -5.40360
           15434         32.0583         35.0459         19.4017        -5.86070
           15435         30.2012         33.3725         17.4817        -5.03933
           15436         29.4064         32.0774         17.9954        -5.45246
           15437         31.3315         33.7508         19.9158        -6.27381
           15438         22.0588         24.2346         13.6817        -3.81476
           15439         22.7772         25.3884         12.6806        -3.43370
           15440         20.8369         23.4315         10.5869        -2.65360
           15441         20.0015         22.2782         11.5875        -3.03425
           15442         16.7861         16.7097         14.6572        -3.29859
           15443         16.5920         17.3530         13.2423        -3.08790
           15444         14.1790         14.9909         11.5200        -2.33104
           15445         14.3874         14.3475         12.9345        -2.54450
           15446         12.7529         11.2827         13.0694        -1.99886
           15447         11.7766         9.23059         12.8367        -1.54829
           15448         14.5231         12.1761         15.1000        -2.48404
           15449         8.79089         2.40867         9.73325    -249.056E-03
           15450         10.8274     228.155E-03         10.9397     16.3159E-03
           15451         10.1580         4.93617         11.6116    -659.950E-03
           15452         6.87011         6.38581         7.20616    -411.497E-03
           15453         7.36756         4.61084         8.46827    -343.997E-03
           15454         9.65655         7.26496         10.7548    -989.152E-03
           15455         9.44503         9.03198         9.48205        -1.05894
           15456         4.66359    -71.7773E-03         4.62704    -27.7141E-03
           15457         2.90090         2.03736         3.30934    -134.695E-03
           15458         4.82440         4.24894         5.24348    -14.9660E-03
           15459         5.78886         2.16628         6.55857     60.3059E-03
           15460         5.17136         5.10270    -134.165E-03    -30.8869E-03
           15461         6.53789         7.24889         1.80149     60.5536E-03
           15462         5.11043         5.82902         3.70813    -8.18325E-03
           15463         3.15504         3.63579         1.79827    -111.887E-03
           15464         10.1405         11.6030         5.37093     746.366E-03
           15465         11.2843         12.6803         3.92912     557.014E-03
           15466         13.0030         14.7436         5.69184         1.03685
           15467         12.0255         13.6598         7.13528         1.23521
           15468         16.3294         18.3249         9.53712         2.21029
           15469         15.5645         17.2010         10.4889         2.36511
           15470         13.7938         15.5025         8.63334         1.75540
           15471         14.6729         16.6222         7.68667         1.60027
           15472         24.5559         27.6984         11.3783         2.67620
           15473         21.4898         24.2349         9.28374         2.10445
           15474         23.0267         25.9143         8.68344         1.66367
           15475         27.5488         31.1278         12.9296         2.90357
           15476         28.7390         32.5741         12.1577         2.08778
           15477         30.5630         34.5940         14.7722         3.17107
           15478         29.5464         33.1514         15.5406         3.98552
           15479         34.0784         38.8580         15.5375         2.13980
           15480         35.3953         40.2389         17.7213         3.30176
           15481         34.3151         38.7768         17.8041         3.97007
           15482         32.8928         37.3928         15.6217         2.81764
           15483         42.1391         47.9446         22.8407         4.09901
           15484         40.7269         46.5381         21.2100         3.16732
           15485         41.9446         48.1354         21.4229         2.20566
           15486         43.2800         49.5402         23.0535         3.13758
           15487         45.8097         52.5028         24.9415         3.13058
           15488         47.0975         54.1728         25.5091         2.21141
           15489         48.3306         55.4374         26.8645         3.16924
           15490         47.1026         53.7668         26.2972         4.08880
           15491         49.5807         56.6370         28.0949         4.17854
           15492         49.4387         55.8920         28.6490         5.79525
           15493         48.3240         54.9246         27.5559         4.92170
           15494         54.1863         61.6783         31.5450         5.24412
           15495         54.7809         62.6572         31.7919         4.33149
           15496         56.3073         64.2976         32.9173         4.80585
           15497         59.5010         68.2700         34.9857         3.83202
           15498         60.4124         69.1666         35.5521         4.49839
           15499         59.2894         67.6580         34.8151         5.19795
           15500         58.3633         66.7713         34.2409         4.53675
           15501         67.4903         77.7722         40.6601         2.26679
           15502         65.3746         75.2868         39.1603         2.61233
           15503         66.3522         76.5055         40.2607         1.70867
           15504         68.5377         78.9266         40.8949         2.78739
           15505         68.7107         78.9540         40.3146         3.87973
           15506         74.2618         85.6663         45.5017         1.10340
           15507         75.0188         86.5382         45.2520         1.55449
           15508         74.0146         85.3436         44.0568         2.12872
           15509         73.2409         84.4708         44.3049         1.67872
           15510         77.7173         89.6742         47.3895     888.746E-03
           15511         78.3606         90.4272         46.9632         1.22639
           15512         76.6991         88.4933         46.0886         1.42151
           15513         80.9423         93.4194         48.9386     659.507E-03
           15514         81.5003         94.0786         48.3719     901.688E-03
           15515         80.5379         92.9579         47.1850         1.28644
           15516         79.9701         92.2994         47.7507         1.04442
           15517         83.8942         96.8534         49.8499     509.522E-03
           15518         84.3060         97.3369         48.9302     726.944E-03
           15519         83.3705         96.2460         47.8606         1.01595
           15520         82.9490         95.7624         48.7804     797.678E-03
           15521         86.5647         99.9529         50.3330     356.432E-03
           15522         87.1283         100.598         49.4244     446.869E-03
           15523         85.6552         98.8953         48.8704     652.737E-03
           15524         89.1320         102.897         53.3687    -1.78763E-03
           15525         89.5908         103.448         52.2808     57.1319E-03
           15526         88.9923         102.758         51.0013     157.167E-03
           15527         88.5195         102.207         52.0884     96.7336E-03
           15528         91.3953         105.499         50.4008     29.9545E-03
           15529         91.8234         106.012         51.4014    -5.81872E-03
           15530         92.2063         106.423         50.4621    -19.7543E-03
           15531         91.7874         105.910         49.4618     15.8880E-03
           15532         92.5615         106.787         49.5203    -39.8441E-03
           15533         92.5562         106.681         47.7701    -36.2086E-03
           15534         92.1861         106.318         48.6220    -9.82747E-03
           15535         93.8427         108.229         49.5058    -98.5520E-03
           15536         94.1326         108.500         48.6112    -120.099E-03
           15537         93.8700         108.147         47.7749    -123.482E-03
           15538         94.7772         109.262         49.2493    -101.566E-03
           15539         94.9920         109.433         48.2498    -114.360E-03
           15540         94.8275         109.189         47.4824    -136.379E-03
           15541         94.6049         109.018         48.4808    -123.516E-03
           15542         95.3480         109.886         49.0270    -54.7830E-03
           15543         95.4890         110.001         48.4405    -39.4532E-03
           15544         95.3802         109.860         48.1890    -69.8348E-03
           15545         95.2486         109.892         51.0692     28.7085E-03
           15546         95.2555         109.846         50.0275     49.1915E-03
           15547         95.3899         109.942         49.1581     44.7074E-03
           15548         95.3728         109.988         50.1991     22.8962E-03
           15549         94.7888         109.371         51.0283     62.4925E-03
           15550         94.6649         109.186         50.0927     88.0551E-03
           15551         94.9301         109.405         48.8152     102.826E-03
           15552         95.0390         109.587         49.7468     78.4500E-03
           15553         93.9261         108.407         51.3756     62.8372E-03
           15554         93.7019         108.122         50.5513     77.2916E-03
           15555         94.0065         108.415         49.5406     101.158E-03
           15556         94.2232         108.702         50.3646     86.5752E-03
           15557         92.7217         107.042         51.5463     36.6345E-03
           15558         92.4304         106.684         50.6543     31.6398E-03
           15559         92.8282         107.100         49.7677     54.4327E-03
           15560         93.1114         107.457         50.6596     59.4446E-03
           15561         91.1616         105.254         51.3497    -26.8844E-03
           15562         90.8115         104.831         50.2616    -72.8721E-03
           15563         91.3335         105.396         49.4480    -53.9221E-03
           15564         91.6732         105.820         50.5340    -9.65053E-03
           15565         89.2028         103.000         50.9339    -150.700E-03
           15566         88.6279         102.326         49.8466    -275.711E-03
           15567         89.7992         103.664         49.8111    -172.866E-03
           15568         86.8683         100.254         52.9538    -1.19478E-03
           15569         86.2470         99.5649         51.6747    -171.891E-03
           15570         86.8653         100.300         50.6497    -301.965E-03
           15571         87.4718         100.990         51.9274    -131.154E-03
           15572         83.5365         96.4446         48.9158    -750.133E-03
           15573         82.8396         95.6264         49.5801    -567.566E-03
           15574         82.0888         94.7633         48.4527    -886.785E-03
           15575         82.7967         95.5815         47.7885        -1.06937
           15576         81.3205         93.8665         47.3163        -1.25096
           15577         81.2461         93.7419         45.8663        -1.75785
           15578         82.0292         94.6763         46.8294        -1.39380
           15579         78.1446         90.1662         46.0402        -1.65395
           15580         77.3247         89.1853         45.0597        -2.11221
           15581         78.1492         90.1201         44.7869        -2.30957
           15582         74.6436         86.0692         44.2285        -2.18370
           15583         73.8640         85.1065         43.2655        -2.77162
           15584         74.8539         86.2255         43.2610        -2.99736
           15585         75.6228         87.1853         44.2263        -2.41124
           15586         70.6078         81.3295         41.9482        -2.76561
           15587         69.3956         79.8510         41.0282        -3.28617
           15588         71.1227         81.8693         41.8493        -3.19722
           15589         64.3965         74.2457         38.8976        -1.77408
           15590         63.5205         73.1352         37.9388        -2.67125
           15591         64.7534         74.4676         38.4688        -3.28705
           15592         65.6035         75.5776         39.4217        -2.39275
           15593         59.9777         69.1252         35.6111        -2.04187
           15594         58.9188         67.7772         34.7330        -2.90965
           15595         60.3264         69.2095         35.5179        -3.91468
           15596         61.3384         70.5546         36.3863        -3.03851
           15597         55.2228         63.6433         31.9738        -1.97315
           15598         54.2303         62.3709         31.2629        -2.78785
           15599         55.6270         63.8158         32.3207        -3.64472
           15600         56.5841         65.0896         33.0303        -2.83025
           15601         50.3410         57.9797         28.0749        -2.01227
           15602         49.4731         56.8217         27.6403        -2.91348
           15603         51.0400         58.4657         29.0235        -3.71289
           15604         51.8662         59.6239         29.4580        -2.81199
           15605         45.3074         52.0621         24.1563        -2.33760
           15606         44.6198         51.0312         24.2033        -3.46711
           15607         46.4257         52.9263         25.9173        -4.24856
           15608         47.0528         53.9571         25.8636        -3.11958
           15609         40.0379         45.8323         20.2734        -2.62029
           15610         38.9258         44.3054         20.3471        -3.63894
           15611         42.0426         47.8870         22.6793        -3.92033
           15612         34.2508         38.8735         13.1315    -29.6751E-03
           15613         32.8691         37.3979         13.4384        -1.11859
           15614         34.3674         39.1892         15.9240        -2.29469
           15615         35.5910         40.6637         15.6209        -1.20803
           15616         28.7947         32.6355         11.9708        -1.95229
           15617         27.5768         31.1932         12.5391        -2.66903
           15618         29.2886         32.9835         14.8553        -3.61546
           15619         30.3746         34.4257         14.2867        -2.89868
           15620         24.7633         27.2665         14.8079        -4.25232
           15621         25.5491         28.4978         13.9635        -3.81161
           15622         23.6748         26.6196         11.8365        -2.99302
           15623         17.9709         20.2298         9.54605        -2.28738
           15624         17.2309         19.1593         10.6971        -2.60421
           15625         19.3791         21.2064         12.7398        -3.35160
           15626         12.1661         13.6650         8.15613        -1.43905
           15627         11.7992         12.6741         9.62239        -1.62820
           15628         14.4804         15.9881         10.0471        -2.14104
           15629         2.87616         1.99289         3.28504     135.883E-03
           15630         3.11626         3.59055         1.77480     114.829E-03
           15631         1.95797         2.06407     414.420E-03     292.646E-03
           15632         1.77072     546.002E-03         1.88546     322.415E-03
           15633         5.00331         5.69559         3.68353     19.7661E-03
           15634         6.45313         7.16343         1.80753    -55.0682E-03
           15635         5.17013         5.10330    -130.765E-03     26.8719E-03
           15636         61.6887         42.4884         70.7383    -793.918E-03
           15637         60.6943         41.9688         69.5927    -15.7571E-03
           15638         62.6763         42.2289         71.7732        -2.86045
           15639         63.5535         42.6111         72.7238        -3.33845
           15640         62.7619         41.8319         71.6898        -4.02666
           15641         62.1701         41.1885         70.5990        -5.54590
           15642         62.8670         41.6252         71.5800        -5.01465
           15643         63.5538         41.9543         72.2903        -5.35144
           15644         62.8666         41.5173         71.3118        -5.88302
           15645         62.3874         41.9817         69.7758        -7.96608
           15646         62.0888         41.6800         69.5164        -7.80402
           15647         62.9106         41.8725         70.7264        -7.38709
           15648         63.1948         42.1676         70.9690        -7.55997
           15649         61.8400         43.1789         68.4156        -8.81639
           15650         61.1778         43.4446         67.2538        -9.20205
           15651         61.2491         42.7101         67.6133        -9.00937
           15652         61.7171         43.9114         68.0363        -8.93354
           15653         61.0158         44.2585         66.7867        -9.30106
           15654         60.4869         43.7918         66.0047        -9.57061
           15655         59.7900         46.6982         64.1410        -9.57991
           15656         60.3711         46.1532         65.3477        -9.31376
           15657         60.5871         46.6688         65.7383        -8.92970
           15658         60.0039         47.2140         64.5326        -9.19597
           15659         60.2071         48.3300         64.9831        -8.30526
           15660         60.2413         48.9797         65.1418        -7.68494
           15661         59.5803         49.8954         63.5962        -7.93602
           15662         59.5451         49.2369         63.4486        -8.55633
           15663         59.1402         51.9977         62.6070        -6.57223
           15664         59.5334         51.1695         63.6955        -6.53349
           15665         59.5931         51.5520         63.9956        -5.69779
           15666         59.1918         52.3846         62.8931        -5.73328
           15667         58.7299         53.9146         61.4303        -5.18727
           15668         58.5929         54.4975         60.8658        -5.01789
           15669         58.5156         54.5305         60.4624        -5.53291
           15670         58.6528         53.9526         61.0223        -5.71116
           15671         58.3168         56.2442         59.2062        -4.54859
           15672         58.2387         57.1635         58.2087        -4.59112
           15673         58.2303         56.5538         58.3168        -5.46589
           15674         58.3286         55.6422         59.3155        -5.42495
           15675         58.3021         57.7599         58.6589        -1.84329
           15676         58.3114         58.8066         57.6594        -1.64829
           15677         58.2836         58.7299         57.4670        -2.60431
           15678         58.2788         57.6802         58.4654        -2.79946
           15679         58.6132         61.0714         55.7963    -206.837E-03
           15680         58.8495         62.1550         54.8631    -166.787E-03
           15681         58.7394         61.8056         55.0308        -1.03398
           15682         58.5218         60.7316         55.9613        -1.06880
           15683         61.9083         69.0537         50.0454         2.27289
           15684         61.7829         68.5631         50.2377         3.50485
           15685         63.0460         70.4204         49.0398         4.62851
           15686         63.1226         70.8999         48.8651         3.38571
           15687         65.1964         73.3980         47.2291         5.75156
           15688         63.9642         71.6019         48.2188         5.54026
           15689         64.7281         72.1530         47.5813         7.13722
           15690         66.0052         73.9664         46.5808         7.33266
           15691         72.2218         80.8325         42.5437         10.1823
           15692         72.8865         80.8353         41.8389         11.6855
           15693         74.3650         82.4508         41.0246         11.9932
           15694         81.2123         89.4871         37.3099         13.3445
           15695         81.3842         90.2601         37.6492         12.3459
           15696         79.2914         88.2427         38.7928         11.8131
           15697         79.1161         87.4717         38.4457         12.8180
           15698         89.2136         96.3733         32.0378         15.6251
           15699         89.1937         97.2854         32.9528         14.2713
           15700         86.2729         94.3704         34.5300         14.1838
           15701         86.2934         93.4554         33.6167         15.5372
           15702         83.2329         89.4700         34.7138         16.5694
           15703         86.1602         92.2195         32.9012         17.0371
           15704         83.3758         90.7121         35.4327         15.0725
           15705         97.7059         107.096         30.4220         11.6817
           15706         100.313         110.073         29.7870         10.6149
           15707         100.047         110.306         30.9125         9.93628
           15708         97.4278         107.332         31.5458         10.9973
           15709         94.8180         103.919         31.4707         12.5348
           15710         94.8132         104.486         32.3286         11.6189
           15711         92.0012         101.519         33.4243         12.0289
           15712         92.0173         100.953         32.5631         12.9446
           15713         99.8362         110.447         31.8101         9.48957
           15714         99.9129         110.829         32.3730         8.93255
           15715         97.4844         107.817         32.2686         10.2719
           15716         103.924         115.571         32.3944         6.78475
           15717         105.545         117.623         32.8925         5.52342
           15718         105.422         117.595         33.2223         5.42202
           15719         103.796         115.544         32.7273         6.67483
           15720         103.775         115.628         32.9158         6.37394
           15721         101.982         113.522         32.8045         7.32447
           15722         102.015         113.441         32.6165         7.62518
           15723         107.650         120.278         33.1518        -1.82832
           15724         106.929         119.385         32.7423        -2.45171
           15725         106.743         119.126         32.3503        -1.84912
           15726         107.474         120.020         32.7596        -1.22561
           15727         107.937         120.608         33.1109     664.734E-03
           15728         108.194         121.022         33.7402         1.22517
           15729         108.421         121.314         33.8730     25.9844E-03
           15730         65.4501         45.5487         74.9875    -703.756E-03
           15731         66.4474         46.8719         76.0433    -11.4897E-03
           15732         67.2274         46.9018         77.0076    -675.336E-03
           15733         66.2563         45.5796         75.9516        -1.36632
           15734         66.9923         45.6363         76.8082        -1.91819
           15735         66.0549         44.5427         75.7083        -2.56254
           15736         65.2998         44.4856         74.8519        -2.01057
           15737         65.8426         43.7505         75.3593        -3.61162
           15738         66.4387         43.8648         76.0065        -3.95840
           15739         65.6453         43.1879         74.9667        -4.53700
           15740         65.0392         43.0731         74.3197        -4.18603
           15741         64.8176         42.4941         73.5791        -6.01021
           15742         65.5382         42.8582         74.6398        -5.36201
           15743         66.3568         43.1906         75.5970        -5.41523
           15744         65.6305         42.8211         74.5339        -6.05616
           15745         64.9394         42.8187         73.3114        -7.02889
           15746         63.9103         42.4472         71.9320        -7.34535
           15747         64.1566         42.3299         72.4527        -6.87440
           15748         65.2090         42.7062         73.8408        -6.56743
           15749         64.4315         43.8091         72.3187        -7.53662
           15750         63.6878         44.1807         71.1539        -7.85189
           15751         63.0358         43.9682         70.1557        -8.22797
           15752         63.7558         43.5921         71.3112        -7.91314
           15753         65.1318         44.0277         73.3552        -7.12708
           15754         65.4698         44.1921         73.8679        -6.86219
           15755         64.7701         44.3725         72.8306        -7.15609
           15756         64.4347         44.1959         72.3141        -7.42088
           15757         62.9616         45.9144         70.0895        -7.33952
           15758         62.7775         45.6440         69.7286        -7.70816
           15759         63.4720         45.2561         70.8625        -7.43974
           15760         63.6611         45.5284         71.2209        -7.07233
           15761         62.9419         47.0460         70.3468        -6.03387
           15762         63.2032         47.1502         70.8861        -5.44560
           15763         62.4328         47.7928         69.6210        -5.59771
           15764         62.1836         47.6880         69.0808        -6.18672
           15765         60.7581         49.9672         66.6987        -5.12714
           15766         60.5755         49.8936         66.2110        -5.76274
           15767         61.1472         49.1454         67.3301        -5.75424
           15768         61.3378         49.2198         67.8162        -5.11860
           15769         60.4050         50.8002         66.1064        -4.33088
           15770         60.5989         50.7723         66.6321        -3.54190
           15771         60.1177         51.5764         65.6056        -3.34745
           15772         59.9277         51.6053         65.0794        -4.13670
           15773         58.6730         54.8875         61.4040        -3.14878
           15774         58.9303         54.0319         62.3674        -3.34006
           15775         58.9927         54.0546         62.6480        -2.57389
           15776         58.7377         54.9113         61.6850        -2.38248
           15777         58.3449         57.8142         58.8197    -913.635E-03
           15778         58.3799         56.7699         59.6660        -2.04889
           15779         58.4156         56.8245         59.8264        -1.11945
           15780         58.8917         57.9498         58.7932         4.48971
           15781         58.7269         58.6016         58.1023         3.81701
           15782         58.6699         57.7396         59.1304         2.94680
           15783         58.8270         57.0692         59.8249         3.59947
           15784         59.7948         63.3370         53.7323         5.16180
           15785         59.5271         63.2973         53.9274         3.75150
           15786         59.0008         61.5340         55.4356         3.30319
           15787         59.2246         61.5611         55.2448         4.71598
           15788         62.6952         64.9346         50.7237         12.0418
           15789         62.7701         66.0683         50.1587         11.1515
           15790         61.7574         64.9753         51.4065         9.82697
           15791         61.6717         63.8433         51.9690         10.7166
           15792         65.3011         68.1250         47.6614         14.1249
           15793         66.8721         68.6996         46.3812         16.2007
           15794         67.8012         70.4111         45.3375         16.0838
           15795         66.2074         69.8344         46.6190         14.0101
           15796         72.6195         76.3104         41.1858         17.2911
           15797         73.4467         78.2132         40.6179         16.3722
           15798         71.1475         76.7469         42.4406         14.4668
           15799         70.2740         74.7979         43.0197         15.3927
           15800         80.1249         81.8424         35.3697         21.3350
           15801         83.9884         84.4438         32.4222         23.1657
           15802         83.2956         86.3811         33.3394         20.3703
           15803         79.5685         83.7910         36.2314         18.5594
           15804         80.2745         86.9575         36.7848         15.5776
           15805         79.9215         85.3966         36.3765         17.1079
           15806         82.8773         87.8925         34.3346         18.0965
           15807         89.5711         95.5161         30.7231         17.2268
           15808         92.7913         98.8380         28.9260         16.9661
           15809         92.4436         99.6899         30.2514         15.3663
           15810         68.9411         48.1296         78.9668    -657.846E-03
           15811         69.9172         49.5566         79.9736    -10.6877E-03
           15812         70.6005         49.2358         80.8768    -643.351E-03
           15813         69.6530         47.8107         79.8712        -1.28788
           15814         70.2760         47.5425         80.6357        -1.81937
           15815         69.2796         46.3837         79.4852        -2.38982
           15816         68.6393         46.6531         78.7214        -1.85930
           15817         70.9586         47.0814         81.4709        -2.36078
           15818         71.1820         46.5797         81.7323        -2.83476
           15819         69.9700         45.6525         80.2697        -3.31316
           15820         69.7337         46.1440         80.0085        -2.83235
           15821         68.1668         43.8740         77.8447        -5.07763
           15822         68.9273         44.1670         78.8246        -4.77440
           15823         68.9082         44.0588         78.7597        -4.97088
           15824         68.1604         43.7651         77.7926        -5.27149
           15825         67.4375         43.9202         76.6631        -6.01838
           15826         67.3132         44.0875         76.5146        -5.95011
           15827         66.2431         44.1206         75.0016        -6.46524
           15828         66.3707         43.9407         75.1578        -6.53387
           15829         65.3576         44.9227         73.8264        -6.31705
           15830         64.8901         44.9315         73.0990        -6.65482
           15831         65.3191         44.6566         73.7065        -6.61325
           15832         65.7877         44.6426         74.4289        -6.27438
           15833         65.4790         45.4092         74.1851        -5.50024
           15834         64.6144         45.8982         72.9336        -5.67416
           15835         64.2791         45.8139         72.3374        -6.17111
           15836         65.1295         45.3274         73.5852        -5.99796
           15837         64.0067         46.5592         72.1319        -5.30701
           15838         64.2444         46.6513         72.6026        -4.72133
           15839         63.4312         47.2422         71.3577        -4.86009
           15840         63.2683         48.3070         71.5100        -1.83110
           15841         63.9208         47.7123         72.4861        -2.13265
           15842         64.4084         47.4457         73.2560        -1.48163
           15843         63.7533         48.0411         72.2840        -1.17847
           15844         62.6199         48.9637         70.4730        -1.63098
           15845         63.0710         48.6823         71.2294    -811.108E-03
           15846         62.4006         49.3979         70.1183    -517.832E-03
           15847         61.9576         49.6794         69.3633        -1.33747
           15848         61.4981         50.6336         68.3874         1.17098
           15849         60.8710         51.5148         67.0861         1.51525
           15850         60.4747         51.8736         66.4125     502.335E-03
           15851         61.0931         50.9917         67.7117     157.805E-03
           15852         59.2766         54.6660         62.7216         2.58736
           15853         58.9849         55.6892         61.4530         2.81212
           15854         58.8296         55.7353         61.3871         1.58622
           15855         59.1320         54.7143         62.6517         1.37105
           15856         59.0882         58.2270         58.2875         5.70092
           15857         59.0051         56.7500         60.0080         4.67354
           15858         59.1924         57.0179         59.5152         5.88990
           15859         60.1419         60.5242         55.2780         9.01595
           15860         60.3476         59.5488         55.8974         9.99795
           15861         61.1055         60.6569         54.4389         11.4472
           15862         60.8907         61.6521         53.8220         10.4583
           15863         62.4880         63.7071         51.4258         12.6192
           15864         63.7156         64.5041         50.2034         14.3392
           15865         63.9115         65.7231         49.4863         13.7678
           15866         72.3920         71.1933         42.1616         21.5726
           15867         74.6754         70.1570         41.1559         24.8192
           15868         78.7655         73.8750         37.5834         26.5233
           15869         76.3452         74.8609         38.6182         23.2670
           15870         74.4549         75.2682         39.8742         20.7327
           15871         81.2336         79.1202         34.7421         25.0378
           15872         79.2291         79.5750         36.0932         22.4682
           15873         72.1896         50.2407         82.7149    -606.913E-03
           15874         73.0724         51.7696         83.5867    -13.8608E-03
           15875         73.7128         51.2447         84.4721    -507.120E-03
           15876         72.8581         49.7165         83.6022        -1.10229
           15877         73.6007         49.4368         84.5354        -1.41287
           15878         72.7006         48.0149         83.5327        -2.08536
           15879         71.9421         48.2862         82.6027        -1.77625
           15880         72.8004         46.3899         83.6794        -3.02828
           15881         73.1999         47.1288         84.1594        -2.62218
           15882         73.9598         47.1823         85.0801        -2.55177
           15883         73.5622         46.4377         84.6020        -2.95271
           15884         72.8361         45.3319         83.7028        -3.57630
           15885         73.4870         45.3877         84.5097        -3.37162
           15886         73.1272         44.9737         84.0622        -3.60978
           15887         72.4779         44.9173         83.2554        -3.81368
           15888         71.3200         44.1495         81.8019        -4.37158
           15889         70.5861         44.0682         80.8534        -4.69677
           15890         70.9820         44.2388         81.3541        -4.54212
           15891         71.7227         44.3219         82.3064        -4.21730
           15892         70.4234         43.9963         80.6991        -4.54227
           15893         69.6583         43.9677         79.6867        -4.92579
           15894         70.1244         43.9967         80.2666        -4.84619
           15895         70.8928         44.0239         81.2776        -4.46423
           15896         70.2701         44.0625         80.6798        -3.74631
           15897         69.3065         44.1968         79.4162        -4.20491
           15898         69.5896         44.1109         79.7135        -4.43245
           15899         70.5500         43.9758         80.9756        -3.97324
           15900         66.7878         45.1999         76.1980        -4.30445
           15901         66.8492         45.3303         76.3650        -3.83064
           15902         66.0011         45.7462         75.2045        -4.00102
           15903         65.9401         45.6167         75.0332        -4.47222
           15904         67.6674         45.2956         77.6833        -1.93188
           15905         68.3266         45.0107         78.5696        -1.39689
           15906         67.7234         45.3681         77.8113        -1.11624
           15907         67.0656         45.6531         76.9233        -1.65090
           15908         65.0746         46.9082         74.1964        -1.79272
           15909         65.6745         46.5926         75.0757        -1.13570
           15910         65.0006         47.1295         74.1330    -824.310E-03
           15911         64.9637         47.2975         74.0707     203.775E-03
           15912         65.6720         46.8325         75.0517     734.496E-03
           15913         65.1944         47.2762         74.3168         1.37746
           15914         64.4787         47.7318         73.3288     851.938E-03
           15915         63.0339         49.4258         70.2710         4.67464
           15916         62.6148         49.9777         69.2672         5.37635
           15917         61.6470         50.9502         67.8445         4.40615
           15918         62.0586         50.3877         68.8498         3.70774
           15919         60.3139         53.3504         64.0994         5.84493
           15920         59.9395         53.7361         63.7302         4.76948
           15921         60.3193         52.9014         64.9619         4.33542
           15922         60.6905         52.5253         65.3289         5.41549
           15923         62.2749         51.8602         64.3492         11.3289
           15924         62.6430         50.9434         66.0824         10.4642
           15925         63.6696         49.9160         66.9081         11.9066
           15926         63.3073         50.8404         65.1732         12.7665
           15927         62.1886         54.7355         59.6293         13.9000
           15928         62.9933         52.9581         61.4354         14.6377
           15929         63.6217         53.3081         60.3059         16.1654
           15930         62.8405         55.1192         58.4821         15.4287
           15931         73.8835         58.3306         49.0900         28.9248
           15932         72.0250         60.6680         48.0332         26.5448
           15933         69.4337         58.5098         51.0876         24.3367
           15934         71.3152         56.1771         52.1494         26.7085
           15935         74.9760         63.3475         44.8106         28.5140
           15936         73.1967         65.3907         44.3141         25.9217
           15937         70.2334         62.6963         47.5267         23.9643
           15938         73.4112         53.5971         53.7032         28.9301
           15939         69.0407         54.5531         55.0178         24.2557
           15940         71.1589         51.9754         56.5758         26.4694
           15941         75.1520         52.1552         86.1375    -410.529E-03
           15942         75.9001         53.5173         86.8648    -8.45706E-03
           15943         76.4909         52.9220         87.6979    -337.885E-03
           15944         75.7604         51.5629         86.9692    -740.465E-03
           15945         76.3814         51.1417         87.7788    -946.926E-03
           15946         75.6935         49.9816         87.0428        -1.34486
           15947         75.0609         50.4028         86.2335        -1.13860
           15948         77.2983         48.7729         89.0641        -1.60549
           15949         76.7208         47.9954         88.3994        -1.90080
           15950         76.2444         48.4102         87.8072        -1.85528
           15951         76.8267         49.1884         88.4723        -1.56014
           15952         76.1097         46.6160         87.7003        -2.34765
           15953         75.7201         46.1212         87.2362        -2.55927
           15954         75.3082         46.2574         86.7334        -2.64316
           15955         75.6991         46.7507         87.1985        -2.43150
           15956         74.8829         44.3418         86.2732        -2.81070
           15957         74.3473         44.3594         85.6129        -3.05127
           15958         74.6038         44.6188         85.9114        -3.02154
           15959         75.1385         44.6052         86.5703        -2.78307
           15960         75.5476         43.7405         87.1270        -2.16522
           15961         74.9418         43.7218         86.4026        -2.37646
           15962         74.8509         43.9467         86.2695        -2.59326
           15963         75.4606         43.9694         87.0021        -2.38436
           15964         72.4024         43.6363         83.4104        -2.60876
           15965         72.5628         43.5556         83.6510        -2.17954
           15966         71.3802         43.8013         82.2156        -2.47134
           15967         71.2345         43.8798         81.9818        -2.90108
           15968         69.9783         44.2382         80.5569        -2.17652
           15969         70.5566         44.0366         81.3084        -1.68417
           15970         69.9815         44.2648         80.6257        -1.46309
           15971         69.4032         44.4659         79.8739        -1.95064
           15972         68.9261         44.7607         79.3491    -953.055E-03
           15973         68.8552         44.7389         79.2137        -1.69338
           15974         69.4579         44.4906         79.9963        -1.24645
           15975         67.8137         45.4814         77.9207     901.406E-03
           15976         67.1070         45.8409         77.0240     190.629E-03
           15977         68.0091         45.3049         78.2025    -97.1490E-03
           15978         68.7235         44.9420         79.1008     617.469E-03
           15979         66.6534         46.2847         76.2652         2.15468
           15980         67.5920         45.6803         77.5433         1.93426
           15981         68.2536         45.3060         78.3005         2.73489
           15982         67.3066         45.9162         77.0209         2.95367
           15983         65.6148         47.2935         73.8246         6.05475
           15984         66.8089         46.4110         75.1739         7.00524
           15985         66.2118         46.9114         74.0400         7.63142
           15986         65.0235         47.7935         72.6909         6.68401
           15987         63.9574         48.8890         70.2667         8.12976
           15988         64.4863         48.3437         71.5333         7.36057
           15989         65.5999         47.4162         72.7567         8.39358
           15990         65.0698         47.9632         71.4890         9.16116
           15991         64.9274         48.7335         68.0924         13.1962
           15992         64.0791         49.1977         68.5950         10.8805
           15993         65.3347         48.0148         69.7803         12.1711
           15994         64.9113         51.3785         61.9233         17.5191
           15995         64.5194         50.5652         64.0023         15.7682
           15996         66.4187         48.5009         65.7234         17.5802
           15997         66.8219         49.3150         63.6418         19.3341
           15998         73.5719         49.2293         58.5541         28.5383
           15999         69.2064         50.8943         59.1971         23.8593
           16000         71.6326         48.1498         61.1753         25.9229
           16001         77.7337         53.5485         89.1578    -282.932E-03
           16002         78.4010         54.8138         89.8032    -4.53687E-03
           16003         78.8895         54.0497         90.5257    -238.835E-03
           16004         78.2377         52.7857         89.8798    -517.059E-03
           16005         77.5903         51.7041         89.2031    -800.165E-03
           16006         78.7098         52.1214         90.5306    -679.241E-03
           16007         78.0732         51.0397         89.8538    -962.357E-03
           16008         78.2871         49.0143         90.2438        -1.38725
           16009         78.8931         49.7533         90.9343        -1.14929
           16010         79.2278         49.1247         91.3671        -1.18978
           16011         78.6273         48.3865         90.6778        -1.42688
           16012         76.6139         47.0157         88.3002        -2.14411
           16013         76.8928         46.5753         88.6476        -2.13237
           16014         76.3933         46.1845         88.0519        -2.34064
           16015         76.4976         45.1548         88.1997        -2.33648
           16016         77.1123         45.0170         88.9429        -2.07181
           16017         76.6687         44.5684         88.4225        -2.16493
           16018         76.0518         44.7048         87.6769        -2.42833
           16019         76.6375         43.7944         88.4157        -1.83749
           16020         77.0764         44.0939         88.9230        -1.84000
           16021         77.7276         43.9461         89.6930        -1.54297
           16022         77.2885         43.6473         89.1852        -1.54058
           16023         75.5396         43.0968         87.1752        -1.45479
           16024         75.8537         42.8835         87.5555        -1.08238
           16025         74.8759         42.9850         86.4236        -1.23334
           16026         74.5690         43.1964         86.0444        -1.60994
           16027         74.7906         42.8007         86.3471    -737.130E-03
           16028         75.3550         42.5902         87.0021    -415.406E-03
           16029         74.8883         42.6104         86.4695    -208.428E-03
           16030         74.3209         42.8257         85.8118    -530.519E-03
           16031         74.0089         42.5152         85.4090         1.44504
           16032         74.9401         42.1781         86.4836         1.33292
           16033         75.3586         41.9206         86.9190         1.85874
           16034         74.4219         42.2564         85.8411         1.97162
           16035         72.4219         43.0726         83.4648         2.47373
           16036         72.0660         43.2289         82.9741         2.99742
           16037         71.2123         43.6651         82.0100         2.57395
           16038         71.5720         43.5107         82.5003         2.05887
           16039         69.1869         44.7929         79.1001         4.71588
           16040         68.1802         45.3840         78.0022         3.85312
           16041         69.0630         44.8485         79.2043         3.52036
           16042         70.0824         44.2550         80.3081         4.38493
           16043         68.6799         45.1233         77.6693         7.14115
           16044         68.2691         45.4256         76.8565         7.77861
           16045         67.2485         46.1020         76.0264         6.37508
           16046         66.9189         46.4253         74.1780         9.38408
           16047         67.5357         45.9201         75.4643         8.61926
           16048         70.5406         43.6594         74.8983         15.6002
           16049         68.5901         45.2049         72.9534         14.5690
           16050         68.9847         44.8801         74.5193         13.3663
           16051         70.9450         43.3335         76.4670         14.3966
           16052         70.8014         44.2064         69.8313         20.5686
           16053         70.3929         44.1067         71.5875         18.6411
           16054         72.9463         41.8058         74.0759         19.8578
           16055         73.3439         41.9071         72.3177         21.7861
           16056         75.6313         41.8526         68.5820         26.6789
           16057         72.7328         44.7246         65.8554         25.1542
           16058         71.4487         44.5665         67.8744         22.6328
           16059         74.3573         41.7026         70.5957         24.1535
           16060         79.9672         54.4324         91.8108    -202.195E-03
           16061         80.5737         55.7044         92.3881    -2.17352E-03
           16062         80.9745         54.7157         93.0193    -168.041E-03
           16063         80.3850         53.4455         92.4420    -367.175E-03
           16064         79.8216         49.8445         92.0436    -976.759E-03
           16065         79.5100         50.6409         91.6229    -905.164E-03
           16066         80.1478         51.4942         92.3316    -690.622E-03
           16067         80.4539         50.6983         92.7535    -762.313E-03
           16068         79.2271         47.1768         91.4254        -1.39542
           16069         79.2598         46.6059         91.4727        -1.40536
           16070         78.6508         46.3890         90.7544        -1.59763
           16071         78.6178         46.9496         90.7059        -1.58557
           16072         79.7375         45.8525         92.0395        -1.23657
           16073         80.4026         45.7562         92.8159        -1.01127
           16074         80.1363         45.1111         92.5011        -1.03121
           16075         79.4687         45.2070         91.7250        -1.25607
           16076         79.1246         43.6332         91.3148    -969.446E-03
           16077         78.6953         43.3109         90.8178    -941.094E-03
           16078         77.9982         43.4796         90.0139        -1.22546
           16079         78.4281         43.8014         90.5106        -1.25478
           16080         77.5014         42.3390         89.4462    -322.742E-03
           16081         77.9554         42.0712         89.9526     22.3264E-03
           16082         77.1809         42.1415         89.0778    -16.8275E-03
           16083         76.7328         42.4087         88.5739    -361.426E-03
           16084         77.5420         41.8897         89.4747     347.824E-03
           16085         76.7565         42.0186         88.5895     313.660E-03
           16086         76.3979         42.2693         88.1915    -52.0279E-03
           16087         76.4357         41.4805         88.1151         2.04748
           16088         75.9132         41.6314         87.5091         2.22979
           16089         75.8863         41.7703         87.5310         1.68186
           16090         75.5364         41.4183         86.7105         4.58152
           16091         75.8060         41.3703         87.1307         3.99641
           16092         77.0999         40.7110         88.4943         4.41435
           16093         76.8342         40.7592         88.0740         4.99928
           16094         72.6849         42.7798         83.0954         5.85800
           16095         73.2439         42.5186         83.9237         5.22691
           16096         74.7211         41.7164         85.4889         5.80030
           16097         74.1614         41.9752         84.6611         6.43325
           16098         73.3763         42.2557         82.8697         8.81036
           16099         73.2077         42.3111         82.2940         9.63988
           16100         71.8171         43.1441         80.8162         9.16089
           16101         71.9885         43.0902         81.3909         8.33178
           16102         73.7889         41.6305         81.1514         12.9683
           16103         71.8535         42.8829         79.1845         12.2400
           16104         72.3159         42.7057         80.3365         11.2945
           16105         74.2582         41.4534         82.3052         12.0218
           16106         78.0136         37.7360         81.0757         19.5646
           16107         81.0259         35.4020         84.2818         19.9350
           16108         81.6147         34.6960         83.0972         21.8719
           16109         78.6234         37.0380         79.8850         21.5019
           16110         83.9303         33.3533         87.4872         19.9652
           16111         80.5287         36.2507         85.2178         18.2381
           16112         83.4546         34.2095         88.4173         18.2708
           16113         80.4532         36.7040         86.3144         16.7673
           16114         80.3846         37.2290         87.2032         15.4679
           16115         82.9979         35.6475         90.0213         15.5252
           16116         83.0470         35.1231         89.1316         16.8258
           16117         82.7639         55.1914         95.1625    -89.9309E-03
           16118         83.2215         56.4297         95.5765    -992.709E-06
           16119         83.5337         55.3942         96.0820    -56.5966E-03
           16120         83.0910         54.1570         95.6665    -147.072E-03
           16121         83.9428         56.5440         96.4517    -264.432E-06
           16122         84.2202         55.5120         96.9069    -32.1105E-03
           16123         83.8254         54.3638         96.5368    -89.0898E-03
           16124         82.7456         49.6529         95.5177    -414.303E-03
           16125         82.4456         48.7416         95.1853    -506.806E-03
           16126         82.0825         49.1953         94.7506    -566.172E-03
           16127         82.3889         50.1026         95.0839    -471.686E-03
           16128         82.6183         46.6229         95.3873    -439.257E-03
           16129         82.1933         46.8898         94.9001    -552.022E-03
           16130         82.4880         47.5843         95.2437    -500.385E-03
           16131         82.9078         47.3159         95.7284    -386.753E-03
           16132         81.8571         44.0147         94.4454    -335.971E-03
           16133         82.4288         43.7167         95.0779    -129.343E-03
           16134         82.0364         43.1584         94.6063    -80.7488E-03
           16135         81.4608         43.4563         93.9727    -289.422E-03
           16136         81.4419         40.9088         93.7659         1.00955
           16137         80.6342         40.9391         92.8690         1.03145
           16138         80.3537         41.3419         92.5972     699.418E-03
           16139         81.1595         41.3121         93.4947     676.418E-03
           16140         79.0009         41.1419         91.0547         1.10876
           16141         78.7023         41.4718         90.7538     735.171E-03
           16142         79.5359         41.3614         91.6833     713.048E-03
           16143         79.8389         41.0312         91.9862         1.08600
           16144         77.7645         40.7604         89.4914         2.88047
           16145         78.7964         40.2672         90.5818         3.15407
           16146         78.5612         40.2365         90.2480         3.62662
           16147         77.5247         40.7283         89.1554         3.35333
           16148         81.0457         38.7691         92.6178         5.09980
           16149         79.7889         39.3743         91.3029         4.99020
           16150         79.6242         39.5845         91.2543         4.39679
           16151         80.8779         38.9798         92.5701         4.50748
           16152         82.1244         37.8878         93.1069         7.47558
           16153         80.8904         38.5229         91.8774         7.23818
           16154         81.4153         38.3409         92.6325         6.56408
           16155         82.6405         37.7173         93.8493         6.80445
           16156         80.7235         38.3815         90.8736         9.53936
           16157         82.7034         37.4045         92.9364         9.65789
           16158         82.8371         37.2304         92.7131         10.5184
           16159         80.8617         38.2073         90.6536         10.3983
           16160         80.8215         37.8993         89.6963         12.2441
           16161         80.8293         38.0933         90.1930         11.3025
           16162         83.0227         36.9936         92.4980         11.4047
           16163         83.0080         36.8005         92.0026         12.3467
           16164         87.8162         33.7550         96.1157         13.8859
           16165         85.4367         34.8566         93.4631         14.2234
           16166         85.3014         35.3870         93.9288         13.2327
           16167         87.6984         34.2848         96.5815         12.8952
           16168         85.8539         33.3953         92.2688         16.5676
           16169         86.2407         32.4755         91.5598         18.0098
           16170         84.5841         56.6090         97.2322     357.827E-06
           16171         84.8196         55.5397         97.6330    -13.8604E-03
           16172         84.4692         54.4435         97.3072    -46.6453E-03
           16173         85.1450         56.6341         97.9167     1.16718E-03
           16174         85.3425         55.4977         98.2707     739.404E-06
           16175         85.0319         54.4045         97.9874    -14.2375E-03
           16176         83.3790         48.7377         96.2733    -300.472E-03
           16177         83.6438         49.3437         96.5745    -245.821E-03
           16178         83.8537         48.9268         96.8232    -202.808E-03
           16179         83.5962         48.3242         96.5273    -253.579E-03
           16180         83.4686         47.7258         96.3783    -267.032E-03
           16181         83.2575         47.0626         96.1286    -300.207E-03
           16182         83.1213         47.9813         95.9776    -354.257E-03
           16183         83.0023         45.0424         95.7852    -217.254E-03
           16184         83.2898         44.6701         96.0955    -98.3033E-03
           16185         82.8289         44.2221         95.5540    -144.431E-03
           16186         82.5481         44.5896         95.2523    -263.312E-03
           16187         82.9349         42.3081         95.5542     331.107E-03
           16188         83.3806         41.7203         95.9987     599.803E-03
           16189         82.8161         41.4206         95.3456     664.436E-03
           16190         82.3677         42.0011         94.8984     396.189E-03
           16191         83.0374         40.8893         95.5343     964.698E-03
           16192         82.1958         40.8432         94.5979     985.096E-03
           16193         81.9782         41.3705         94.4104     682.152E-03
           16194         81.4845         39.7205         93.6231         2.27078
           16195         81.4145         39.9761         93.5966         1.96105
           16196         82.0012         39.7726         94.2233         1.98466
           16197         82.0718         39.5140         94.2481         2.29733
           16198         81.9874         39.0663         94.0277         3.04789
           16199         82.9724         38.5791         95.0390         3.17199
           16200         82.8829         38.3587         94.8419         3.70587
           16201         81.8865         38.8475         93.8219         3.58074
           16202         83.5530         37.6029         95.2680         4.94943
           16203         82.4201         38.1118         94.0642         5.08106
           16204         81.9417         38.5442         93.7198         4.38698
           16205         83.0751         38.0380         94.9263         4.25812
           16206         83.5725         37.1843         94.6148         7.48144
           16207         83.9456         37.0959         95.2658         6.56151
           16208         84.8879         36.5560         96.0396         7.23019
           16209         86.5974         35.6157         97.0570         9.43980
           16210         87.1005         35.2938         97.2543         10.2455
           16211         84.9816         36.2304         94.9792         10.4772
           16212         84.4732         36.5587         94.7826         9.67063
           16213         85.3047         35.6957         94.4659         12.2603
           16214         85.1596         35.9953         94.7646         11.3614
           16215         87.3726         35.0373         97.1524         11.1313
           16216         87.5057         34.7384         96.8538         12.0330
           16217         91.8600         33.1815         101.742         10.9806
           16218         93.8626         32.7567         104.134         10.0738
           16219         94.1573         32.2466         104.120         10.6808
           16220         92.1752         32.6734         101.732         11.5933
           16221         97.8442         33.3232         109.499         6.37590
           16222         96.5443         32.9356         107.875         7.11865
           16223         96.4701         32.6604         107.882         6.44997
           16224         97.7833         33.0307         109.495         5.71653
           16225         99.0541         33.5739         111.227         3.97200
           16226         98.5065         33.1094         110.478         4.46259
           16227         98.3406         32.5767         110.271         3.75441
           16228         98.9051         33.0309         111.024         3.26681
           16229         98.4859         32.1017         110.507         1.25230
           16230         98.8053         32.3743         110.919     864.478E-03
           16231         99.3042         33.0722         111.575         1.70051
           16232         99.0029         32.7862         111.168         2.08833
           16233         88.9468         32.8922         100.418        -4.03134
           16234         89.4252         32.8743         100.996        -3.47169
           16235         88.2767         33.3566         99.8700        -3.53192
           16236         87.7974         33.3763         99.2870        -4.09571
           16237         84.8170         35.6565         96.7305        -2.22337
           16238         85.5645         35.5659         97.5415        -1.92830
           16239         84.7351         36.1637         96.7652        -1.64354
           16240         83.9874         36.2533         95.9527        -1.93861
           16241         78.9729         38.9967         90.8844    -249.285E-03
           16242         77.8355         39.1836         89.6391    -278.684E-03
           16243         78.3580         38.7447         90.1705    -757.501E-03
           16244         79.5024         38.5591         91.4180    -724.389E-03
           16245         74.8527         41.4821         86.2399         2.72314
           16246         75.3081         41.2230         86.7916         2.38066
           16247         76.3518         41.3722         88.0025         2.18784
           16248         75.8930         41.6338         87.4545         2.52614
           16249         71.7875         41.9162         82.4386         4.31526
           16250         72.3968         41.8747         83.2108         4.00816
           16251         72.9098         42.0224         83.8255         3.90730
           16252         72.2946         42.0623         83.0495         4.21557
           16253         73.1571         42.7895         84.0954         3.97464
           16254         72.7269         42.5438         83.5630         4.14461
           16255         73.3238         42.5125         84.3043         3.90863
           16256         73.7608         42.7615         84.8412         3.74268
           16257         71.5534         44.1601         82.2192         3.67851
           16258         70.6155         43.7867         81.0700         3.94636
           16259         70.4442         43.2481         80.8103         4.34247
           16260         71.3782         43.6177         81.9607         4.07104
           16261         68.0890         43.1997         78.0731         3.96768
           16262         68.2929         43.6997         78.3813         3.45773
           16263         67.3475         43.2210         77.2519         3.59067
           16264         67.1350         42.7219         76.9300         4.09542
           16265         68.8255         43.1020         78.8907         4.31154
           16266         68.5619         42.5852         78.4874         4.80836
           16267         69.4778         42.9369         79.6144         4.60174
           16268         69.7456         43.4498         80.0171         4.10499
           16269         67.3223         41.8594         76.8555         5.49064
           16270         66.6009         41.6228         75.9689         5.59722
           16271         65.9828         41.2506         75.0744         6.13229
           16272         66.6961         41.4853         75.9558         6.03065
           16273         70.3196         42.0587         80.5191         5.13497
           16274         69.5589         41.9863         79.5279         5.47684
           16275         69.0039         41.8448         78.8100         5.69568
           16276         69.7592         41.9177         79.8023         5.35339
           16277         70.2063         41.8243         80.4778         4.79222
           16278         69.8888         41.8053         80.1164         4.74046
           16279         70.5461         41.7690         80.9692         4.40070
           16280         70.8648         41.7840         81.3303         4.45734
           16281         71.0793         41.4465         81.8844         2.78273
           16282         70.9893         41.5085         81.7179         3.19881
           16283         69.8837         41.7477         80.3768         3.46287
           16284         69.9643         41.6860         80.5406         3.04947
           16285         74.3364         40.1252         85.7745     327.811E-03
           16286         73.4572         40.3701         84.7849     417.416E-03
           16287         73.7166         40.1797         85.0770     22.0009E-03
           16288         74.5939         39.9368         86.0594    -65.3691E-03
           16289         76.3254         39.0736         87.9238        -1.11511
           16290         77.2484         38.7117         88.9089        -1.38281
           16291         77.5873         38.8613         89.3219    -885.141E-03
           16292         76.6722         39.2195         88.3401    -618.213E-03
           16293         81.1055         36.2880         92.6049        -3.91847
           16294         80.4258         36.4051         91.8107        -4.32673
           16295         81.7973         35.7260         93.1580        -4.62566
           16296         82.4540         35.6179         93.9272        -4.21084
           16297         87.1920         33.8314         98.7978        -3.62206
           16298         88.4193         33.5126         100.117        -2.98017
           16299         87.3489         33.9817         99.0613        -3.06626
           16300         95.5374         30.8372         106.960        -3.38718
           16301         94.5643         31.1438         106.024        -3.33772
           16302         92.9471         31.2088         104.200        -4.45012
           16303         93.9178         30.8797         105.131        -4.50264
           16304         98.5752         31.7896         110.538    -784.347E-03
           16305         98.2344         31.7833         110.187    -499.563E-03
           16306         96.7596         31.2015         108.459        -1.78886
           16307         97.1071         31.1895         108.799        -2.09213
           16308         99.0479         32.5305         111.218     503.246E-03
           16309         97.9695         31.6658         109.886    -128.298E-03
           16310         98.5918         32.4047         110.616         2.51329
           16311         99.3011         33.4240         111.573         2.84166
           16312         85.6265         56.6289         98.5055     803.033E-06
           16313         85.7810         55.4355         98.8061     12.2781E-03
           16314         85.5122         54.3023         98.5709     12.2409E-03
           16315         86.0268         56.6055         98.9956     695.729E-06
           16316         86.1440         55.4734         99.2406     19.2807E-03
           16317         85.9140         54.3021         99.0515     30.1220E-03
           16318         84.7672         50.6528         97.8605    -53.4613E-03
           16319         84.9228         49.9431         98.0547    -26.7252E-03
           16320         84.6415         49.1722         97.7349    -67.1003E-03
           16321         84.4797         49.8746         97.5402    -96.3721E-03
           16322         84.9119         48.1178         98.0423     1.67203E-03
           16323         85.2509         47.9584         98.4285     61.8509E-03
           16324         85.1970         46.9468         98.3433     91.6499E-03
           16325         84.8536         47.1087         97.9567     30.2127E-03
           16326         84.7163         44.2260         97.6759     223.304E-03
           16327         84.9409         45.0323         97.9743     171.171E-03
           16328         85.2905         44.6034         98.3422     265.718E-03
           16329         85.0701         43.8008         98.0432     316.337E-03
           16330         84.5668         42.4733         97.3803     479.076E-03
           16331         85.0383         42.0834         97.8672     602.376E-03
           16332         84.7995         41.4759         97.5437     739.378E-03
           16333         84.3228         41.8652         97.0554     614.003E-03
           16334         85.3302         41.1316         98.0919     833.135E-03
           16335         85.1616         40.5965         97.8446         1.00101
           16336         84.6263         40.9395         97.2949     907.058E-03
           16337         85.0767         38.9119         97.5091         1.83858
           16338         84.6283         39.0287         97.0319         1.87433
           16339         84.4554         39.4720         96.9125         1.62932
           16340         84.9048         39.3519         97.3919         1.59563
           16341         86.6875         36.5790         98.7776         3.31010
           16342         87.4775         36.1279         99.5658         3.20651
           16343         87.6588         35.7889         99.6447         3.66573
           16344         86.8677         36.2402         98.8563         3.77090
           16345         87.0745         35.9436         98.9622         4.22619
           16346         86.2419         36.3847         98.1190         4.33991
           16347         86.0375         36.6791         98.0148         3.88518
           16348         85.2722         36.4882         96.7115         6.20946
           16349         85.9416         36.2302         97.5406         5.57001
           16350         87.2673         35.5096         98.7861         5.88246
           16351         86.6044         35.7591         97.9628         6.53090
           16352         93.2861         33.1854         104.001         8.87362
           16353         93.5554         33.0173         104.039         9.54674
           16354         91.6057         33.5137         101.817         10.2303
           16355         91.3148         33.6837         101.773         9.55994
           16356         89.7710         33.8566         99.3814         11.5559
           16357         89.4990         34.1911         99.4540         10.8073
           16358         86.3471         56.5679         99.3886     1.05364E-03
           16359         86.4243         55.4766         99.5778     22.3323E-03
           16360         86.2351         54.3830         99.4297     39.0767E-03
           16361         85.8515         52.0363         99.0909     54.0254E-03
           16362         86.0593         51.6319         99.3468     84.5153E-03
           16363         85.9984         50.4829         99.2975     96.8607E-03
           16364         85.7841         50.8727         99.0425     64.2748E-03
           16365         86.1771         50.7482         99.5019     103.626E-03
           16366         86.2179         49.7904         99.5556     129.340E-03
           16367         86.0316         49.5307         99.3403     121.820E-03
           16368         86.2734         48.6243         99.6101     166.505E-03
           16369         86.3303         47.4962         99.6486     208.504E-03
           16370         86.1415         47.1728         99.4237     201.175E-03
           16371         86.0786         48.3042         99.3816     160.529E-03
           16372         86.6886         43.3969         99.8129     436.757E-03
           16373         86.5416         43.3321         99.6442     448.220E-03
           16374         86.4413         44.2317         99.6034     383.118E-03
           16375         86.5894         44.2968         99.7735     371.305E-03
           16376         86.8734         40.3299         99.6952     826.521E-03
           16377         86.7882         40.9858         99.6810     723.056E-03
           16378         86.9980         40.8952         99.9019     673.778E-03
           16379         87.0829         40.2395         99.9144     779.733E-03
           16380         87.0359         39.0608         99.6991         1.14380
           16381         87.1848         39.1295         99.8742         1.03908
           16382         87.4397         38.4784         100.055         1.16420
           16383         87.2892         38.4255         99.8799         1.26878
           16384         87.7795         37.1429         100.193         1.68208
           16385         88.2189         36.7495         100.607         1.58452
           16386         88.3284         36.3378         100.637         1.87207
           16387         87.8868         36.7317         100.223         1.97028
           16388         89.1991         35.2217         101.337         2.31076
           16389         88.9573         35.5851         101.170         1.98377
           16390         89.3747         35.2609         101.574         1.70812
           16391         89.6167         34.8981         101.742         2.03666
           16392         89.9564         34.3095         101.845         3.50601
           16393         89.3466         34.6719         101.234         3.75869
           16394         89.0611         34.9580         101.037         3.33531
           16395         89.6737         34.5955         101.650         3.08287
           16396         91.3148         33.4859         102.943         4.72579
           16397         90.7600         33.7600         102.471         4.35258
           16398         91.3548         33.4498         103.100         3.91447
           16399         91.9066         33.1757         103.572         4.28671
           16400         94.0480         32.4979         105.546         5.13232
           16401         94.9181         32.3798         106.385         5.41206
           16402         94.3566         32.6368         105.699         6.20309
           16403         93.4776         32.7590         104.858         5.91055
           16404         92.7326         33.2495         103.596         8.29141
           16405         94.4735         32.8801         105.598         7.42187
           16406         95.0138         32.8366         106.009         8.01102
           16407         93.3969         32.9500         104.563         7.05057
           16408         95.4295         32.5813         106.741         6.56894
           16409         86.7377         55.4337         99.9578     22.4963E-03
           16410         86.6254         54.4103         99.8935     45.0525E-03
           16411         86.6208         55.4518         99.8160     23.3546E-03
           16412         86.7458         56.4749         99.8809     455.870E-06
           16413         86.6412         53.4206         99.9658     66.6795E-03
           16414         86.7009         54.4176         99.9830     43.3516E-03
           16415         86.6764         53.4663         100.005     63.6251E-03
           16416         86.6277         52.4708         99.9880     85.8339E-03
           16417         86.5937         51.5246         99.9738     107.824E-03
           16418         86.6234         51.6349         100.006     105.972E-03
           16419         86.5999         50.6882         99.9934     129.679E-03
           16420         86.6139         47.9251         99.9837     208.136E-03
           16421         86.6595         46.7955         99.9961     246.962E-03
           16422         86.6168         46.6655         99.9423     250.831E-03
           16423         86.5703         47.7954         99.9305     210.414E-03
           16424         86.7981         43.4198         99.9367     413.243E-03
           16425         86.7008         44.4178         99.9066     360.264E-03
           16426         86.7599         44.5154         99.9797     341.170E-03
           16427         86.8570         43.5186         100.011     394.376E-03
           16428         87.1650         40.7017         100.063     632.470E-03
           16429         87.3236         40.2664         100.185     618.406E-03
           16430         87.4260         39.5725         100.205     731.990E-03
           16431         87.2571         40.0119         100.077     747.031E-03
           16432         87.3228         39.5180         100.083     839.653E-03
           16433         87.4953         39.1198         100.216     857.219E-03
           16434         87.4926         38.7877         100.163     976.188E-03
           16435         87.3162         39.1888         100.028     957.165E-03
           16436         88.0759         37.1491         100.530         1.36838
           16437         88.3813         36.8063         100.807         1.26770
           16438         88.5279         36.4033         100.886         1.48419
           16439         89.0464         35.7131         101.320         1.48107
           16440         89.2749         35.4781         101.537         1.13069
           16441         89.6036         35.0231         101.793         1.35392
           16442         91.0154         33.6787         102.975         2.14045
           16443         90.6312         33.9747         102.603         2.47169
           16444         90.3061         34.2526         102.345         2.08912
           16445         90.6923         33.9566         102.716         1.75911
           16446         92.6460         32.7578         104.391         3.27911
           16447         92.3409         32.9398         104.055         3.74070
           16448         91.7991         33.1973         103.567         3.51664
           16449         92.1046         33.0161         103.902         3.05711
           16450         93.9534         32.1692         105.676         2.86025
           16451         94.6114         31.9948         106.313         2.98466
           16452         94.5468         32.1186         106.197         3.67929
           16453         93.8846         32.2940         105.557         3.55583
           16454         95.8015         32.3364         107.292         5.48166
           16455         96.8418         32.4371         108.430         5.36207
           16456         96.8168         32.1550         108.476         4.49077
           16457         96.0279         32.1326         107.623         4.63019
           16458         95.9944         31.9318         107.653         3.81229
           16459         96.7916         31.9562         108.511         3.66985
           16460         86.7752         55.4132         100.004     20.9013E-03
           16461         86.8240         56.4287         99.9796     130.701E-06
           16462         86.6204         52.5191         99.9778     83.8072E-03
           16463         86.5747         51.6472         99.9489     105.563E-03
           16464         86.5856         50.7658         99.9760     128.668E-03
           16465         86.5819         49.1145         99.9705     171.440E-03
           16466         86.6026         49.9470         99.9995     150.474E-03
           16467         86.5545         49.9407         99.9441     150.604E-03
           16468         86.6569         46.8041         99.9936     241.242E-03
           16469         86.6105         47.4913         99.9667     222.312E-03
           16470         86.5905         46.8233         99.9194     241.435E-03
           16471         86.6433         46.1368         99.9475     265.266E-03
           16472         86.8042         43.8812         99.9820     339.904E-03
           16473         86.8538         43.6710         100.020     361.731E-03
           16474         86.7815         44.6275         100.012     327.017E-03
           16475         86.7352         44.8386         99.9747     304.569E-03
           16476         87.3907         40.0001         100.226     531.354E-03
           16477         87.2599         40.3511         100.129     456.030E-03
           16478         87.3577         39.7319         100.158     441.851E-03
           16479         87.4905         39.3840         100.255     517.236E-03
           16480         87.4886         39.5368         100.271     620.055E-03
           16481         87.6382         39.0071         100.363     602.937E-03
           16482         87.7537         38.5743         100.424     708.708E-03
           16483         87.6006         39.1027         100.332     726.599E-03
           16484         88.5482         36.6510         100.976     860.279E-03
           16485         88.3828         36.8927         100.844     686.381E-03
           16486         88.6210         36.4078         101.019     641.786E-03
           16487         88.7894         36.1635         101.152     818.729E-03
           16488         89.7299         34.6505         101.885     426.046E-03
           16489         89.1968         35.0615         101.400     184.246E-03
           16490         89.3169         34.7106         101.462    -113.886E-03
           16491         89.8502         34.3005         101.948     126.947E-03
           16492         91.3982         33.3171         103.361         1.13669
           16493         91.7656         33.0928         103.682         1.52036
           16494         91.3906         33.4058         103.336         1.82078
           16495         91.0218         33.6308         103.016         1.43839
           16496         93.0887         32.0646         104.882    -209.992E-03
           16497         93.8415         31.8562         105.619     440.966E-03
           16498         93.3575         32.1272         105.168     809.185E-03
           16499         92.6054         32.3377         104.438     158.424E-03
           16500         95.7705         31.6143         107.520         1.92107
           16501         95.9807         31.5183         107.747         1.35719
           16502         96.5351         31.5617         108.315         1.77379
           16503         96.3125         31.6573         108.069         2.32734
           16504         97.6571         31.8093         109.522         2.15194
           16505         97.1730         31.7833         108.979         2.56779
           16506         97.0267         31.5837         108.853         1.36264
           16507         86.6052         55.3286         99.8067     19.0849E-03
           16508         86.5705         56.3087         99.6837    -775.653E-06
           16509         86.3964         55.2532         99.5617     20.3982E-03
           16510         86.4433         54.2730         99.6849     40.5176E-03
           16511         86.2988         53.2619         99.5682     67.1594E-03
           16512         86.3721         52.3794         99.6908     88.3546E-03
           16513         86.5065         53.3900         99.8079     61.7632E-03
           16514         86.4377         49.9337         99.8092     154.049E-03
           16515         86.3468         50.6573         99.7000     136.706E-03
           16516         86.2578         49.8414         99.6014     164.140E-03
           16517         86.3554         49.1179         99.7103     181.519E-03
           16518         86.4301         46.9098         99.7411     241.979E-03
           16519         86.3749         47.8316         99.7088     214.092E-03
           16520         86.2495         47.6700         99.5614     229.051E-03
           16521         86.3040         46.7514         99.5919     253.907E-03
           16522         86.4338         42.7975         99.4807     315.811E-03
           16523         86.6085         42.1750         99.6156     328.024E-03
           16524         86.6869         42.6754         99.7495     330.011E-03
           16525         86.5181         43.3049         99.6177     319.671E-03
           16526         86.5362         40.7189         99.3833     274.954E-03
           16527         86.7953         40.3758         99.6267     291.699E-03
           16528         86.8065         40.8954         99.6988     320.496E-03
           16529         86.5520         41.2388         99.4578     300.545E-03
           16530         86.2297         40.1909         98.9874     208.857E-03
           16531         86.5423         39.9760         99.3029     222.374E-03
           16532         86.2281         40.9333         99.0697     262.041E-03
           16533         87.5448         36.1703         99.8312    -393.731E-03
           16534         87.7013         36.4519         100.048    -191.278E-03
           16535         87.2115         36.9555         99.6039    -195.126E-03
           16536         87.0539         36.6739         99.3874    -397.637E-03
           16537         87.9640         35.4069         100.143    -637.554E-03
           16538         88.1363         35.6539         100.375    -372.504E-03
           16539         87.3717         35.9234         99.5990    -658.639E-03
           16540         90.8885         33.2614         102.832    -317.587E-03
           16541         90.0613         33.6824         102.041    -623.330E-03
           16542         90.1882         33.3987         102.103        -1.07842
           16543         91.0151         32.9770         102.897    -771.864E-03
           16544         92.1897         32.3304         103.989    -795.996E-03
           16545         92.5802         32.0861         104.330        -1.20821
           16546         93.4691         31.8249         105.219    -618.622E-03
           16547         94.4345         31.4729         106.130        -1.15433
           16548         95.1489         31.3665         106.856    -981.906E-03
           16549         95.3772         31.4013         107.118    -227.774E-03
           16550         94.6682         31.5135         106.403    -404.380E-03
           16551         86.1027         55.1450         99.2171     24.4601E-03
           16552         85.9960         56.2271         98.9951    -1.46832E-03
           16553         85.7204         55.0026         98.7685     32.6661E-03
           16554         85.8419         53.9211         98.9897     59.9958E-03
           16555         85.6036         52.7056         98.7720     109.135E-03
           16556         85.7783         51.8225         99.0118     129.042E-03
           16557         86.0028         53.0380         99.2287     81.1576E-03
           16558         85.2834         51.2793         98.4474     184.585E-03
           16559         85.1140         49.9704         98.2752     253.332E-03
           16560         85.4505         49.3717         98.6685     243.637E-03
           16561         85.6071         50.6762         98.8393     177.566E-03
           16562         85.7743         45.5566         98.9385     321.119E-03
           16563         85.4799         45.7612         98.6161     350.566E-03
           16564         85.4348         44.8776         98.5190     369.198E-03
           16565         85.7318         44.6732         98.8403     339.932E-03
           16566         85.1309         42.5005         98.0104     381.988E-03
           16567         85.4805         42.4730         98.3960     345.495E-03
           16568         85.4338         43.2204         98.4056     369.195E-03
           16569         85.0854         43.2470         98.0192     405.369E-03
           16570         85.5886         41.2291         98.3982     279.740E-03
           16571         85.4757         40.6393         98.2124     230.932E-03
           16572         85.7870         40.4306         98.5306     212.718E-03
           16573         85.8962         41.0194         98.7146     262.072E-03
           16574         85.8554         38.7580         98.4012    -31.5967E-03
           16575         85.5199         38.6909         98.0277    -91.4050E-03
           16576         85.7474         38.2053         98.2088    -182.146E-03
           16577         86.0828         38.2766         98.5825    -120.052E-03
           16578         86.1334         37.6786         98.5509    -290.558E-03
           16579         86.5428         37.2022         98.9212    -337.613E-03
           16580         86.8050         37.4420         99.2417    -190.742E-03
           16581         86.3990         37.9178         98.8739    -142.314E-03
           16582         85.9259         36.2093         98.0819        -1.08984
           16583         85.4033         36.1522         97.4970        -1.39188
           16584         86.1736         35.5511         98.2163        -1.55601
           16585         86.6955         35.6092         98.8008        -1.25353
           16586         87.4455         35.0403         99.4999        -1.31198
           16587         87.0754         34.9257         99.0604        -1.74172
           16588         87.9846         34.3304         99.9163        -1.78953
           16589         88.3511         34.4459         100.352        -1.35918
           16590         90.0227         32.7918         101.682        -2.81832
           16591         90.2646         32.9020         102.015        -2.20881
           16592         88.6744         33.6209         100.467        -2.37588
           16593         85.2519         54.8716         98.2151     45.8351E-03
           16594         85.0995         56.1040         97.9174    -2.42716E-03
           16595         84.7115         54.8527         97.5649     57.3056E-03
           16596         84.8808         53.6184         97.8622     105.188E-03
           16597         84.4758         52.5519         97.4432     186.381E-03
           16598         84.6756         51.2047         97.7366     239.913E-03
           16599         85.0642         52.2646         98.1542     157.876E-03
           16600         84.2862         48.3024         97.3205     436.652E-03
           16601         84.2502         49.3272         97.2775     388.040E-03
           16602         83.8260         48.7998         96.7880     478.995E-03
           16603         83.8681         47.7721         96.8339     528.290E-03
           16604         83.0682         45.1170         95.8514     777.054E-03
           16605         83.4939         45.3893         96.3471     684.281E-03
           16606         83.5503         46.3538         96.4428     647.391E-03
           16607         83.1293         46.0749         95.9529     742.260E-03
           16608         83.7658         42.7979         96.5116     594.635E-03
           16609         84.2503         43.0807         97.0741     518.203E-03
           16610         84.1611         43.8853         97.0273     561.480E-03
           16611         83.6764         43.6006         96.4646     638.398E-03
           16612         83.7102         40.9651         96.3000     413.398E-03
           16613         84.0860         41.0192         96.7206     371.452E-03
           16614         84.0233         41.5573         96.7000     452.624E-03
           16615         83.6464         41.4973         96.2767     492.744E-03
           16616         84.8447         39.2336         97.3610     1.60548E-03
           16617         84.7509         39.8276         97.3281     141.417E-03
           16618         84.1225         39.8406         96.6411     155.227E-03
           16619         84.2166         39.2465         96.6766     15.0067E-03
           16620         84.7421         38.0646         97.0973    -358.691E-03
           16621         85.3311         38.0933         97.7410    -292.938E-03
           16622         85.0097         38.6653         97.4694    -126.840E-03
           16623         84.4215         38.6366         96.8250    -193.394E-03
           16624         84.6524         36.7518         96.7924        -1.13405
           16625         83.9843         36.7628         96.0601        -1.38464
           16626         83.0843         36.0165         94.8617        -2.80742
           16627         83.9526         35.8361         95.7986        -2.54926
           16628         83.1695         36.3701         95.0671        -2.17772
           16629         82.3041         36.5518         94.1319        -2.43678
           16630         84.0921         54.8262         96.8179     70.3012E-03
           16631         83.8800         55.8856         96.4516    -2.04373E-03
           16632         83.3963         54.7231         95.9833     87.6547E-03
           16633         83.6218         53.6645         96.3492     160.309E-03
           16634         83.1409         52.6624         95.8452     271.727E-03
           16635         83.3690         51.6932         96.1738     333.202E-03
           16636         83.8407         52.6952         96.6792     221.907E-03
           16637         82.6306         49.1540         95.3901     641.785E-03
           16638         82.4044         49.8918         95.1063     607.796E-03
           16639         81.9267         49.0772         94.5658     760.914E-03
           16640         82.1588         48.3394         94.8496     794.452E-03
           16641         82.4731         46.8772         95.2130     844.084E-03
           16642         81.9918         46.2924         94.6481     981.169E-03
           16643         82.1143         45.6004         94.7744     988.489E-03
           16644         82.5910         46.1880         95.3373     851.483E-03
           16645         81.7332         42.7845         94.2229         1.02197
           16646         82.0248         42.2244         94.5182     904.868E-03
           16647         82.6184         42.7109         95.2180     809.032E-03
           16648         82.3275         43.2700         94.9223     926.588E-03
           16649         80.1746         41.2239         92.3732         1.11457
           16650         80.5846         40.8254         92.8102     902.741E-03
           16651         81.2242         41.0604         93.5425     837.429E-03
           16652         80.8072         41.4615         93.0993         1.05028
           16653         82.5437         39.6467         94.8863     201.861E-03
           16654         81.6691         40.0525         93.9595     432.262E-03
           16655         81.3727         39.5754         93.5892     250.937E-03
           16656         82.2651         39.1616         94.5296     15.3744E-03
           16657         81.3452         38.3927         93.4297    -561.826E-03
           16658         80.8329         38.8458         92.9218    -204.378E-03
           16659         79.9390         38.8903         91.9412    -273.168E-03
           16660         80.4512         38.4345         92.4518    -630.383E-03
           16661         81.5104         37.0731         93.3760        -2.01551
           16662         82.4108         36.9227         94.3497        -1.82869
           16663         81.6873         37.4453         93.6569        -1.42200
           16664         80.7920         37.5960         92.6864        -1.60877
           16665         82.6217         54.5350         95.0596     111.538E-03
           16666         82.3392         55.4923         94.6057    -823.569E-06
           16667         81.7671         54.2665         94.0449     142.572E-03
           16668         82.0633         53.3101         94.4984     255.740E-03
           16669         82.3673         52.4895         94.9300     338.747E-03
           16670         81.5184         52.2118         93.9304     423.731E-03
           16671         81.8327         51.3917         94.3616     506.569E-03
           16672         81.1443         48.8713         93.6498     910.251E-03
           16673         80.7904         49.4138         93.2154     892.994E-03
           16674         80.2949         48.5257         92.6558         1.09681
           16675         80.6534         47.9843         93.0890         1.11370
           16676         81.8804         46.9696         94.5271     963.746E-03
           16677         81.3998         46.4128         93.9640         1.10802
           16678         81.5132         45.7319         94.0842         1.12675
           16679         80.3719         43.5806         92.7048         1.45337
           16680         81.0281         43.8932         93.4706         1.28009
           16681         80.9705         44.6565         93.4300         1.30537
           16682         80.3170         44.3403         92.6659         1.48532
           16683         79.2684         41.9162         91.3747         1.55548
           16684         79.5915         41.5668         91.7287         1.38191
           16685         80.4232         41.9095         92.6905         1.23240
           16686         80.0892         42.2628         92.3264         1.40725
           16687         78.2324         40.8909         90.1603         1.42447
           16688         78.0300         40.5749         89.9230         1.26868
           16689         78.8526         40.4415         90.8462         1.02420
           16690         79.0482         40.7515         91.0791         1.17338
           16691         79.5659         39.3057         91.5694     125.610E-03
           16692         78.6073         39.4093         90.5158     150.009E-03
           16693         80.8239         53.9002         92.9310     184.501E-03
           16694         80.4771         54.8485         92.3881     749.059E-06
           16695         79.7849         53.4407         91.7091     238.069E-03
           16696         80.1480         52.4936         92.2504     424.327E-03
           16697         79.8935         49.0047         92.1658         1.08582
           16698         80.4085         50.0327         92.7360     842.583E-03
           16699         79.9418         50.5321         92.1513     801.193E-03
           16700         79.4166         49.5034         91.5782         1.04398
           16701         79.6795         46.4054         91.9544         1.52010
           16702         79.3860         45.7154         91.6064         1.66648
           16703         79.9126         45.4838         92.2198         1.55578
           16704         80.2077         46.1697         92.5726         1.41276
           16705         77.9002         44.3165         89.8395         2.21523
           16706         78.3970         44.3248         90.4247         2.06886
           16707         78.6473         44.9532         90.7294         1.94595
           16708         78.1515         44.9390         90.1443         2.09344
           16709         76.9444         42.3262         88.6841         2.43089
           16710         76.5359         41.8945         88.2059         2.42548
           16711         77.3995         41.8464         89.2162         2.11430
           16712         77.8027         42.2818         89.6898         2.12028
           16713         76.7694         40.9751         88.4901         1.82327
           16714         75.6602         40.9798         87.2186         2.01964
           16715         75.9260         40.6638         87.5360         1.65458
           16716         77.0435         40.6537         88.8088         1.45820
           16717         77.4835         52.4243         88.9985     333.022E-03
           16718         77.0748         53.2725         88.3780     1.28887E-03
           16719         76.2391         51.8620         87.5327     357.862E-03
           16720         76.6670         51.0159         88.1533     688.387E-03
           16721         75.7781         52.5563         86.8644     2.99388E-03
           16722         74.9082         51.1555         85.9774     394.105E-03
           16723         75.3867         50.4632         86.6447     748.789E-03
           16724         75.7461         46.8076         87.2805         2.16170
           16725         75.7859         46.0525         87.3352         2.39699
           16726         76.5821         46.6725         88.2810         2.10218
           16727         76.5479         47.4259         88.2284         1.86384
           16728         74.3041         43.9925         85.5253         3.34946
           16729         75.1453         44.4435         86.5501         3.01474
           16730         75.0449         44.9340         86.4389         2.88918
           16731         74.2027         44.4817         85.4145         3.22294
           16732         72.8092         42.2538         83.6778         4.06296
           16733         72.1689         42.2784         82.8696         4.36318
           16734         71.6563         42.0865         82.2395         4.51630
           16735         74.4001         51.7314         85.2650     4.57144E-03
           16736         73.5018         50.2954         84.3480     454.239E-03
           16737         74.0283         49.7216         85.0594     844.064E-03
           16738         72.9432         50.7936         83.5837     6.85206E-03
           16739         71.9960         49.2834         82.6150     540.937E-03
           16740         72.5751         48.7868         83.3772     990.925E-03
           16741         74.9931         45.5374         86.3830         2.70426
           16742         74.9725         46.1175         86.3618         2.48185
           16743         74.1554         45.5761         85.3798         2.79276
           16744         74.1782         45.0005         85.3998         3.01500
           16745         73.2871         44.5006         84.3112         3.37706
           16746         73.3133         43.9771         84.3247         3.58490
           16747         73.8829         43.0846         84.9923         3.67701
           16748         73.6156         43.2616         84.6677         3.73875
           16749         72.8826         42.9616         83.7593         4.04142
           16750         71.4056         49.7403         81.8191     9.53099E-03
           16751         70.4096         48.1543         80.7970     644.741E-03
           16752         71.0282         47.6978         81.5943         1.17803
           16753         69.7891         48.5706         79.9736     11.2190E-03
           16754         68.7497         47.0082         78.8915     691.904E-03
           16755         69.3993         46.5929         79.7128         1.32772
           16756         72.3827         46.0650         83.2697         2.53338
           16757         71.8822         45.3620         82.6666         2.91475
           16758         72.4423         45.1592         83.3268         3.06342
           16759         72.9396         45.8633         83.9311         2.68793
           16760         69.1886         42.4858         79.1895         5.01546
           16761         70.1506         42.7948         80.3861         4.75744
           16762         68.0950         47.2919         78.0476     9.79847E-03
           16763         67.0343         45.7684         76.9300     728.182E-03
           16764         67.7211         45.4831         77.7748         1.40890
           16765         69.0615         44.9481         79.3472         2.56224
           16766         68.0394         44.1096         78.1259         2.95237
           16767         69.2984         44.5278         79.5973         3.06046
           16768         69.0542         43.6592         79.2429         3.76835
           16769         69.9989         44.1169         80.3791         3.59745
           16770         70.2486         44.9859         80.7327         2.89796
           16771         7.27427         8.37727         4.04150     293.805E-03
           16772         9.19633         10.4746         5.89009     786.940E-03
           16773         8.94625         9.44092         7.95821     949.349E-03
           16774         6.85413         7.34853         6.10253     440.180E-03
           16775         13.4342         15.1496         8.06756         1.64353
           16776         15.0906         16.7922         9.68657         2.20435
           16777         14.8034         16.0150         10.9687         2.45030
           16778         22.4976         25.3438         11.6429         2.79003
           16779         19.6296         22.1666         9.52356         2.18860
           16780         20.9011         23.6254         8.74882         1.71745
           16781         25.1997         28.4704         12.8741         2.90115
           16782         26.1029         29.6704         11.9595         2.06904
           16783         27.7308         31.4183         14.2922         2.98093
           16784         26.9897         30.2174         15.2106         3.81285
           16785         28.6423         32.6499         13.6532         2.13957
           16786         30.2014         34.2989         15.8811         3.06604
           16787         29.4272         33.0684         16.5202         3.90814
           16788         32.6817         37.1775         17.6723         3.19495
           16789         35.2352         40.1093         19.6937         3.40686
           16790         34.3335         38.7211         19.8190         4.24584
           16791         37.9993         43.2310         21.9969         3.74650
           16792         37.1229         41.8221         22.0164         4.65753
           16793         36.2364         41.5244         19.6750         2.49588
           16794         42.6550         48.8167         25.3515         3.22768
           16795         42.0421         47.7417         25.3766         4.31333
           16796         40.3886         46.1181         23.6334         3.45201
           16797         47.1236         54.0142         28.9949         3.08398
           16798         44.8846         51.4301         27.1395         3.09868
           16799         53.1069         60.6219         33.8580         4.14303
           16800         54.4827         62.1563         34.8774         4.33531
           16801         54.5275         61.8833         34.9453         5.32475
           16802         53.1457         60.3475         33.9060         5.13720
           16803         59.5729         68.4004         39.0802         2.32044
           16804         61.4410         70.5523         40.5187         2.18317
           16805         62.2986         71.4852         40.7669         2.78513
           16806         62.1754         71.1641         40.1279         3.95244
           16807         66.7034         76.6265         44.2011         1.91129
           16808         65.7038         75.4488         43.0258         2.54956
           16809         65.0053         74.6612         43.0877         1.98553
           16810         70.0078         80.4780         46.0376         1.82028
           16811         68.9638         79.2632         44.8067         2.39643
           16812         68.3643         78.5571         45.1889         1.85590
           16813         73.4535         84.5743         46.4888         2.09305
           16814         74.0719         85.2794         47.5599         1.63317
           16815         74.8062         86.1667         47.4018         1.71202
           16816         74.1970         85.4645         46.3298         2.16955
           16817         76.1573         87.6641         49.6255     936.606E-03
           16818         76.8565         88.4140         50.7674     607.630E-03
           16819         77.3839         89.1064         50.1561     798.559E-03
           16820         76.6963         88.3563         49.0143         1.12748
           16821         78.5345         90.4702         50.4866     695.429E-03
           16822         79.2147         91.2051         51.5678     450.895E-03
           16823         79.6456         91.7951         50.6485     606.028E-03
           16824         78.9771         91.0599         49.5661     850.415E-03
           16825         80.2930         92.4894         51.7965     380.695E-03
           16826         79.8332         91.8290         52.8995     210.654E-03
           16827         80.4188         92.3896         54.2756     3.33781E-03
           16828         81.7676         94.2928         51.2983     344.748E-03
           16829         81.2437         93.7430         49.8333     561.390E-03
           16830         80.7507         93.1184         50.6350     512.260E-03
           16831         83.3935         96.1843         52.0721     154.333E-03
           16832         83.0179         95.7923         51.0031     250.545E-03
           16833         82.6347         95.2979         51.7807     231.053E-03
           16834         84.6525         97.6709         52.2025     61.3043E-03
           16835         84.3337         97.3334         51.2726     109.787E-03
           16836         84.0604         96.9695         52.2010     100.732E-03
           16837         85.7849         99.0411         51.0046     7.40472E-03
           16838         85.9688         99.2667         50.1226     2.42242E-03
           16839         85.7640         99.0295         48.9407     20.3248E-03
           16840         85.5713         98.8080         49.8142     25.5176E-03
           16841         86.6029         99.9667         52.2312    -6.06748E-03
           16842         86.6416         100.009         52.3204     76.6973E-06
           16843         86.6068         99.9927         51.3494    -2.30107E-03
           16844         86.2732         99.5820         52.1645     10.8955E-03
           16845         86.3606         99.7072         51.2707     11.2794E-03
           16846         86.4762         99.8171         52.2631     10.4614E-03
           16847         85.5858         98.7894         51.7229    -12.9041E-03
           16848         85.7782         99.0367         50.8200    -8.47656E-03
           16849         85.9837         99.2477         51.9928     4.79386E-03
           16850         84.1637         97.1753         49.6615    -177.852E-03
           16851         84.0075         96.9685         50.7247    -157.814E-03
           16852         83.5319         96.4315         49.9829    -242.974E-03
           16853         83.6939         96.6375         48.9218    -262.319E-03
           16854         83.0824         95.8247         51.8858    -190.366E-03
           16855         82.8216         95.4541         52.7995    -145.712E-03
           16856         82.2994         94.8984         51.7739    -260.276E-03
           16857         82.5700         95.2689         50.8601    -304.778E-03
           16858         81.4455         93.8908         51.5705    -344.828E-03
           16859         81.1015         93.4186         52.3620    -269.510E-03
           16860         80.5124         92.7945         51.2471    -451.194E-03
           16861         80.8663         93.2661         50.4552    -525.673E-03
           16862         80.0999         92.2417         51.9688    -360.698E-03
           16863         80.7678         92.9252         53.3221    -154.031E-03
           16864         80.4182         92.3881         54.2816    -300.236E-06
           16865         78.2020         90.1013         50.0416    -807.609E-03
           16866         78.6819         90.7175         49.3634    -924.580E-03
           16867         79.4659         91.5696         50.7893    -588.528E-03
           16868         75.7892         87.2288         49.4904    -970.485E-03
           16869         76.1732         87.7456         48.7063        -1.22758
           16870         76.9988         88.6655         49.8334    -892.506E-03
           16871         73.1705         84.1573         48.2006        -1.24026
           16872         73.7049         84.8291         47.7581        -1.51372
           16873         74.5188         85.7323         48.9539        -1.07680
           16874         69.0326         79.3416         44.7201        -2.49662
           16875         68.0175         78.1275         43.9007        -2.88960
           16876         69.2913         79.6217         44.3287        -2.95284
           16877         59.4548         68.2387         38.9030        -2.55596
           16878         60.3774         69.2015         39.2479        -3.27622
           16879         61.3484         70.4167         40.2976        -2.50655
           16880         55.3846         63.4318         35.6513        -3.37996
           16881         56.5641         64.6245         36.3878        -4.10877
           16882         57.5035         65.9603         37.3306        -2.86675
           16883         50.8772         58.3317         32.0914        -3.05443
           16884         51.9785         59.3421         32.9733        -4.07193
           16885         53.0975         60.8446         33.8889        -3.20316
           16886         46.7158         53.0605         29.0800        -4.62977
           16887         45.5130         51.9448         27.8674        -3.83601
           16888         44.6357         50.6277         27.5105        -4.66009
           16889         45.8849         51.7437         28.7232        -5.45407
           16890         42.0020         48.1244         24.7110        -2.98766
           16891         40.6677         46.7710         23.1161        -2.09339
           16892         39.7026         45.4387         22.8619        -3.04284
           16893         41.1066         46.7921         24.4562        -3.93716
           16894         37.3581         42.6957         21.0192        -3.07301
           16895         35.9266         41.2270         19.1441        -2.14587
           16896         34.9784         39.9072         19.2104        -3.08204
           16897         36.5015         41.3760         21.0847        -4.00942
           16898         33.5066         38.3849         17.1905        -2.13229
           16899         34.6008         39.7651         17.1045        -1.08806
           16900         33.4028         38.2610         14.9093    -24.0458E-03
           16901         30.0575         34.1683         15.6166        -2.92664
           16902         31.6663         35.7333         17.7517        -3.87668
           16903         32.5426         37.0630         17.3978        -3.02664
           16904         24.9627         28.2717         12.2153        -2.58047
           16905         26.6041         29.9120         14.5151        -3.48990
           16906         27.5319         31.2388         13.8771        -2.77329
           16907         21.3442         23.9397         11.6521        -2.92356
           16908         22.3460         25.2671         10.6806        -2.36019
           16909         19.6711         22.2217         9.30604        -2.10878
           16910         11.8585         12.3263         10.3003        -1.78463
           16911         11.1129         12.2202         8.41322        -1.43662
           16912         8.85269         9.61635         7.38563    -888.992E-03
           16913         9.73624         9.71877         9.26943        -1.22541
           16914         97.2807         109.015         31.7245        -3.22615
           16915         98.3424         110.415         32.7009        -2.64708
           16916         94.6782         105.982         31.4016        -4.95778
           16917         96.0157         107.531         31.4773        -4.08217
           16918         96.6123         107.985         31.4294        -5.13811
           16919         95.2601         106.299         31.1285        -6.19122
           16920         93.8467         104.050         29.9644        -8.17928
           16921         92.0086         101.858         30.1805        -9.19703
           16922         91.9194         102.086         30.8356        -8.65291
           16923         93.7736         104.277         30.6194        -7.64045
           16924         93.6607         104.365         31.0636        -7.24188
           16925         91.9882         102.435         31.2594        -8.03938
           16926         91.9380         102.583         31.5515        -7.53794
           16927         90.0341         99.9506         31.2542        -9.36441
           16928         89.8846         99.4137         30.7302        -10.1129
           16929         87.7851         97.0932         31.4178        -10.6849
           16930         87.5757         96.3689         30.8270        -11.5901
           16931         85.2897         93.9150         31.7995        -11.9659
           16932         85.4846         94.6407         32.3892        -11.0609
           16933         85.0108         92.9718         31.1961        -13.0414
           16934         87.6852         95.8485         29.8565        -12.5439
           16935         87.8283         95.1673         28.7819        -13.7563
           16936         85.1704         92.2854         30.1300        -14.2612
           16937         75.9381         82.3619         35.3398        -14.6613
           16938         73.9350         79.8466         36.3635        -14.9677
           16939         71.9236         78.7306         38.1434        -13.1989
           16940         73.8910         81.2188         37.1350        -12.9156
           16941         68.9924         76.2840         40.2951        -11.4146
           16942         70.9224         78.5475         39.1487        -11.5858
           16943         69.9679         76.4625         39.2812        -13.0324
           16944         61.0003         65.6719         46.3635        -10.0572
           16945         61.9144         67.7107         45.4797        -9.30437
           16946         63.1806         68.6591         44.3105        -10.9028
           16947         62.2637         66.6067         45.1889        -11.6643
           16948         59.5759         65.0815         47.7270        -6.87909
           16949         59.0945         64.0134         48.3196        -7.13586
           16950         58.6032         63.6154         48.8612        -6.00906
           16951         59.0905         64.6952         48.2730        -5.74362
           16952         57.1490         60.7545         51.0982        -4.77199
           16953         56.8309         60.3829         51.5752        -3.55520
           16954         57.3245         61.9209         50.5875        -2.89988
           16955         57.6339         62.3050         50.1128        -4.11242
           16956         56.6910         60.5875         51.7059    -868.171E-03
           16957         57.1034         61.7429         50.8685    -769.448E-03
           16958         57.1398         61.7027         50.8305        -1.85909
           16959         56.7271         60.5386         51.6652        -1.95737
           16960         55.9191         54.0750         57.4968        -1.42623
           16961         55.8568         54.6575         56.9352    -974.952E-03
           16962         55.8455         55.0319         56.4672        -1.74762
           16963         55.9132         54.4582         57.0188        -2.20508
           16964         57.2605         50.2974         62.0531         2.54672
           16965         57.4973         49.9363         62.7060         1.96425
           16966         57.7275         49.5628         63.1630         2.37819
           16967         57.4976         49.9238         62.5174         2.95939
           16968         59.3884         47.2110         65.6888         5.30129
           16969         59.3396         47.3941         65.8184         4.55827
           16970         60.0850         46.7214         67.1814         4.19430
           16971         60.1198         46.5418         67.0496         4.94012
           16972         61.3733         45.2334         68.7742         5.82017
           16973         61.9556         44.8659         69.7043         5.60379
           16974         61.9962         44.6442         69.6061         6.13518
           16975         61.4209         45.0026         68.6795         6.35537
           16976         62.9685         42.9696         70.4896         7.71943
           16977         62.9902         42.6950         70.4549         7.93882
           16978         62.3249         42.9043         69.4081         8.24700
           16979         62.3054         43.1786         69.4484         8.02448
           16980         65.2942         41.7454         73.7576         7.29194
           16981         66.0887         41.8261         74.8918         6.87836
           16982         66.4383         41.6752         75.3589         6.80336
           16983         65.6362         41.5942         74.2228         7.21694
           16984         64.9726         41.3029         73.2974         7.53658
           16985         64.6408         41.4570         72.8077         7.68500
           16986         65.9792         41.4455         74.7157         7.06456
           16987         65.4675         41.1807         74.0513         7.21189
           16988         64.5912         40.9684         72.8435         7.56594
           16989         64.1082         41.0908         72.0894         7.88965
           16990         82.1424         89.1824         31.9612        -14.4076
           16991         85.3843         91.3996         28.9973        -15.7700
           16992         82.3605         88.2743         30.8382        -15.9387
           16993         82.8464         87.3123         29.6922        -17.8041
           16994         78.8885         83.5087         32.3659        -17.3684
           16995         78.4414         84.5032         33.5132        -15.5037
           16996         75.2937         79.9077         34.9808        -16.8866
           16997         72.2305         76.4593         36.9887        -16.6453
           16998         70.9021         76.3981         38.3710        -14.7148
           16999         73.1419         68.2944         37.1907        -24.7816
           17000         70.1927         65.5793         39.9018        -23.4588
           17001         69.2233         67.5408         39.8647        -21.0825
           17002         72.1893         70.2564         37.1626        -22.3993
           17003         63.1425         50.8426         53.9794        -20.2705
           17004         65.6451         52.0508         51.1918        -23.4092
           17005         69.1681         48.7127         52.7806        -27.0591
           17006         66.4621         47.5084         55.5572        -23.8956
           17007         72.6714         36.9622         67.4669        -24.8788
           17008         71.3311         37.0271         69.3517        -22.1762
           17009         68.0255         40.0902         66.5669        -20.4758
           17010         69.3347         40.0407         64.6766        -23.1709
           17011         64.4277         42.2984         68.8633        -13.3220
           17012         64.5752         42.2322         67.6162        -14.9446
           17013         66.8292         40.2181         69.7186        -16.2473
           17014         66.6422         40.2830         70.9648        -14.6189
           17015         62.3385         44.3621         69.2773        -8.00078
           17016         61.0989         45.5310         67.7583        -7.16288
           17017         61.1695         45.3433         67.0871        -8.69805
           17018         62.4622         44.1681         68.6205        -9.53532
           17019         58.6439         48.2038         64.8102        -3.61640
           17020         59.2131         47.5476         65.5189        -4.75936
           17021         59.8636         46.8673         66.8747        -4.04643
           17022         59.3013         47.5296         66.1557        -2.90760
           17023         59.3663         47.5842         66.5173     492.809E-03
           17024         60.2663         46.7684         68.0068     357.446E-03
           17025         60.2104         46.8138         67.8605         1.35705
           17026         59.3421         47.6330         66.3973         1.49198
           17027         59.7487         47.0925         67.0139        -2.39373
           17028         59.2922         47.6120         66.3250        -1.58344
           17029         58.8443         48.0360         65.4766        -2.10129
           17030         58.1468         48.9528         64.2100        -1.29250
           17031         58.3213         48.6733         64.4822        -2.07257
           17032         58.6336         48.3139         65.1702        -1.30848
           17033         57.8095         49.3323         63.4185        -2.23113
           17034         58.1330         48.8713         63.7503        -3.76399
           17035         57.1813         51.1686         59.4528        -7.27910
           17036         57.1329         50.8661         60.1960        -6.19665
           17037         56.6700         51.9219         59.1816        -5.35292
           17038         56.7148         52.2368         58.4484        -6.45047
           17039         61.1082         46.9072         61.1120        -14.8979
           17040         59.5495         48.6701         60.0876        -12.7974
           17041         59.7761         49.6535         58.1107        -14.3325
           17042         61.3823         47.8904         59.1268        -16.4310
           17043         65.3885         42.5618         64.3434        -18.8207
           17044         62.9627         44.9978         62.5236        -16.7702
           17045         63.6374         45.5685         60.4775        -18.8995
           17046         66.1115         43.1388         62.2932        -20.9490
           17047         77.1818         31.6189         77.3951        -21.7135
           17048         76.0296         32.5694         78.5936        -19.1705
           17049         72.4791         35.4623         75.2283        -18.2950
           17050         73.6011         34.5213         74.0196        -20.8307
           17051         67.6561         39.9649         74.3780        -11.8403
           17052         66.9324         40.7115         74.3406        -10.3685
           17053         65.2450         41.9314         72.3214        -10.0138
           17054         65.9257         41.1788         72.3427        -11.4895
           17055         67.5375         40.6909         75.8131        -8.99702
           17056         68.8856         39.9527         77.4961        -8.93562
           17057         68.0324         40.7542         76.9936        -7.68758
           17058         66.6891         41.4884         75.2965        -7.75726
           17059         63.0724         44.7128         72.1090         1.06213
           17060         62.8668         44.8233         71.7385         2.02091
           17061         61.8940         45.4740         70.3519         2.06415
           17062         62.0866         45.3632         70.7202         1.10641
           17063         63.0785         44.4292         71.6206         4.37723
           17064         62.2856         44.9370         70.4942         4.41679
           17065         62.4629         44.9389         70.9066         3.68897
           17066         63.2650         44.4295         72.0344         3.65044
           17067         61.6255         45.5124         69.6723         3.78831
           17068         61.7689         45.5015         70.0372         2.97721
           17069         62.6175         44.9278         71.2721         2.87713
           17070         60.9041         46.1495         68.7123         3.11948
           17071         61.0165         46.1216         69.0281         2.20745
           17072         58.0999         49.0519         63.9870         2.14973
           17073         58.2177         48.8690         64.1025         2.86447
           17074         57.8440         49.3784         63.2726         3.08665
           17075         61.5082         45.2410         68.8300        -6.13402
           17076         60.6027         46.1441         67.7718        -5.08825
           17077         60.1759         46.4371         66.7126        -6.11284
           17078         64.7964         42.4358         72.3582        -8.80602
           17079         63.4464         43.4647         70.6357        -8.50530
           17080         63.8806         42.9624         70.6078        -9.71223
           17081         71.8323         36.1280         76.3547        -16.1571
           17082         68.9656         38.4321         73.4500        -15.3533
           17083         69.5904         37.7720         72.3214        -17.4875
           17084         79.7491         29.7789         82.1286        -19.7798
           17085         78.6239         31.1063         82.9987        -17.3889
           17086         74.9316         33.8920         79.4634        -16.7810
           17087         81.1404         32.8216         89.9080        -11.1653
           17088         81.0227         32.0458         89.0496        -12.4040
           17089         83.9316         30.3750         91.9279        -12.4289
           17090         84.0562         31.1508         92.7918        -11.1846
           17091         89.2289         30.3618         99.1828        -8.44790
           17092         86.8309         31.3050         96.6516        -9.01392
           17093         86.8299         30.5902         96.2073        -9.84602
           17094         89.2168         29.6468         98.7407        -9.27965
           17095         96.2253         30.5875         107.603        -3.48967
           17096         97.7858         30.9270         109.433        -2.18798
           17097         87.1434         32.1473         97.6013        -7.57470
           17098         87.1114         31.7192         97.2914        -8.21969
           17099         89.0863         31.0110         99.3639        -7.80779
           17100         89.1249         31.4405         99.6722        -7.16295
           17101         86.9890         32.9990         97.9955        -6.02164
           17102         88.2939         32.5186         99.3268        -5.84595
           17103         88.0881         32.7820         99.2484        -5.42147
           17104         86.7838         33.2547         97.9156        -5.60473
           17105         81.6315         35.1716         92.5377        -6.27535
           17106         80.4196         35.8402         91.4156        -5.84053
           17107         79.4509         36.0224         90.2353        -6.40080
           17108         80.6694         35.3512         91.3651        -6.83460
           17109         78.3067         36.7150         89.2106        -5.79614
           17110         79.2431         36.4341         90.2740        -5.52792
           17111         78.3205         36.9940         89.4425        -4.98093
           17112         77.3836         37.2788         88.3767        -5.24896
           17113         73.8527         38.5030         84.3326        -5.96661
           17114         72.5247         39.0141         82.7825        -6.17708
           17115         73.4766         38.3074         83.5533        -7.09260
           17116         74.8086         37.7974         85.1003        -6.88481
           17117         67.8612         41.7360         77.9676        -3.57552
           17118         69.0805         41.1703         79.4336        -3.54630
           17119         68.4328         41.6209         78.8015        -2.63658
           17120         67.2252         42.1869         77.3350        -2.66557
           17121         69.7430         40.6892         80.0380        -4.43746
           17122         68.5096         41.2506         78.5609        -4.50270
           17123         69.1894         40.7251         79.1389        -5.43495
           17124         70.4319         40.1629         80.6152        -5.37060
           17125         70.6654         39.5033         80.2433        -7.39304
           17126         72.0162         38.9118         81.8443        -7.26702
           17127         71.2182         39.5624         81.2561        -6.29771
           17128         69.8735         40.1552         79.6518        -6.42611
           17129         83.0922         33.5737         93.2782        -8.32652
           17130         81.1900         34.6238         91.4884        -7.96981
           17131         80.3600         34.5657         90.2925        -8.77930
           17132         82.2644         33.5133         92.0855        -9.14037
           17133         90.8894         30.9494         101.565        -6.60612
           17134         90.6479         31.3694         101.514        -6.12026
           17135         88.8793         31.8607         99.6228        -6.67774
           17136         84.9281         32.6823         95.0750        -8.41975
           17137         85.4275         32.8576         95.8659        -7.70055
           17138         83.5907         33.7461         94.0713        -7.60995
           17139         84.2987         33.7352         95.0145        -6.97105
           17140         82.8470         34.5007         93.6547        -6.66539
           17141         82.1374         34.5109         92.7093        -7.30341
           17142         96.7587         30.0787         108.008        -3.67405
           17143         94.5144         30.4402         105.608        -4.76342
           17144         95.0467         29.9290         106.005        -4.95842
           17145         97.7137         32.6311         109.447         5.02761
           17146         98.5513         33.5369         110.521         5.13969
           17147         96.8420         32.9595         108.050         7.71220
           17148         95.3362         32.8712         106.193         8.60779
           17149         108.400         121.580         35.2293        -1.90546
           17150         108.385         121.379         34.4280        -1.63420
           17151         108.805         122.126         35.5697    -927.600E-03
           17152         108.813         122.323         36.3855        -1.19596
           17153         105.417         117.630         32.8565        -4.52015
           17154         106.826         119.352         33.4145        -3.58596
           17155         103.906         115.560         32.4217        -6.77979
           17156         104.072         115.510         31.7659        -7.03918
           17157         102.087         113.102         31.6296        -8.29814
           17158         101.913         113.154         32.2862        -8.02949
           17159         99.8025         110.743         32.4625        -8.90261
           17160         99.8889         111.052         32.8373        -8.43877
           17161         102.020         113.471         32.6623        -7.56484
           17162         99.7288         110.356         31.8964        -9.48769
           17163         97.2687         107.630         32.4117        -10.2447
           17164         97.6456         107.046         30.4690        -11.6764
           17165         97.3067         107.228         31.6384        -10.9900
           17166         99.9793         110.248         30.9646        -9.93730
           17167         100.309         110.068         29.7913        -10.6198
           17168         85.9683         93.8996         34.5308        -14.4159
           17169         88.9994         97.0045         32.9597        -14.3980
           17170         89.0336         96.1065         32.0577        -15.7458
           17171         86.0123         93.0011         33.6281        -15.7640
           17172         80.9817         89.6605         37.6977        -12.6216
           17173         80.5410         88.4870         37.4379        -13.7607
           17174         78.1269         86.1485         38.7772        -13.1551
           17175         69.2140         76.0795         44.0254        -11.7430
           17176         69.9517         77.6139         43.6875        -10.8240
           17177         71.5556         79.0482         42.5355        -11.8977
           17178         70.8152         77.5036         42.8701        -12.8157
           17179         64.3622         72.1826         47.8774        -5.65205
           17180         65.3277         73.6760         47.1306        -5.49718
           17181         65.6693         73.7451         46.8553        -6.68434
           17182         64.7099         72.2528         47.6054        -6.83744
           17183         62.4640         69.1442         49.6549        -5.43326
           17184         61.6194         67.7041         50.5917        -5.12672
           17185         61.5405         67.9909         50.5880        -3.86607
           17186         62.3777         69.4329         49.6515        -4.17246
           17187         59.1950         62.7856         54.4365        -2.34600
           17188         59.6169         63.9876         53.4544        -2.75715
           17189         59.6565         63.5686         53.7086        -3.97932
           17190         59.2252         62.3641         54.6844        -3.57357
           17191         58.8632         62.2883         54.6125         1.18978
           17192         59.2214         63.5034         53.6638     916.420E-03
           17193         59.1938         63.3153         53.9565    -134.084E-03
           17194         58.8338         62.0999         54.9050     139.262E-03
           17195         58.2883         58.2122         58.1285         2.13914
           17196         58.2760         57.5461         58.6152         2.70030
           17197         58.2666         58.2695         57.6799         3.35043
           17198         58.2930         58.9424         57.2040         2.78722
           17199         58.6791         54.2243         61.2772         4.85698
           17200         58.8757         53.9002         62.0686         4.24723
           17201         59.0637         53.1423         62.6671         4.74419
           17202         58.8637         53.4650         61.8757         5.35457
           17203         58.9266         52.2486         61.8971         6.95717
           17204         59.2689         51.6654         62.9530         6.65596
           17205         59.3047         51.0596         62.9668         7.30761
           17206         58.9615         51.6458         61.9103         7.60907
           17207         59.7046         50.1188         63.9605         7.47054
           17208         60.0896         49.5465         64.8644         7.35564
           17209         59.8756         49.2813         64.2876         7.99420
           17210         59.5029         49.8501         63.3920         8.10576
           17211         62.0293         45.5385         68.4271         8.32020
           17212         61.6658         45.3685         67.7752         8.67454
           17213         61.1624         45.9486         66.8537         8.79369
           17214         61.5150         46.1159         67.5002         8.44527
           17215         61.0857         45.4120         66.7469         9.04012
           17216         60.5956         45.6433         65.8235         9.31285
           17217         60.6711         46.1839         65.9259         9.06486
           17218         62.8636         43.5745         69.9440         8.34086
           17219         63.3324         43.9097         70.6156         8.10511
           17220         64.0785         43.5888         71.8111         7.73296
           17221         63.5998         43.2546         71.1371         7.96869
           17222         63.1264         41.7924         71.2180         6.89704
           17223         63.6282         42.0634         71.7820         6.97507
           17224         64.3692         42.3127         72.8724         6.48257
           17225         63.8620         42.0476         72.2978         6.41181
           17226         63.3854         41.7944         71.8898         5.98292
           17227         63.7928         42.0649         72.5674         5.37192
           17228         62.8016         41.5418         71.4198         5.30521
           17229         62.3945         41.2730         70.7380         5.92519
           17230         64.8108         42.9331         74.0455         4.22086
           17231         63.5066         42.1148         72.4451         4.55158
           17232         64.2887         42.4507         73.3109         4.78148
           17233         95.0921         103.480         30.2098        -13.5138
           17234         94.7009         103.806         31.5380        -12.5399
           17235         98.0283         106.726         29.1349        -12.6461
           17236         92.3545         99.5737         30.2705        -15.4086
           17237         92.7930         98.8348         28.9252        -16.9742
           17238         89.4832         95.3618         30.7204        -17.3126
           17239         81.3199         79.2523         34.6580        -25.0170
           17240         77.8604         76.2636         37.3961        -23.8019
           17241         77.1596         78.2601         37.6770        -21.2760
           17242         80.6193         81.2432         34.9512        -22.4869
           17243         67.9202         59.4844         51.0580        -22.3978
           17244         70.7933         61.3736         48.0775        -25.0614
           17245         73.8134         58.3735         49.1203        -28.8413
           17246         70.8060         56.4827         52.1112        -26.1470
           17247         70.0372         47.8215         63.0682        -23.4999
           17248         71.6961         48.2597         60.9783        -26.0497
           17249         74.3433         45.2999         63.5331        -27.7875
           17250         72.6954         44.8692         65.6226        -25.2289
           17251         65.2981         49.4096         65.4342        -16.0622
           17252         66.0250         49.4565         64.1999        -17.9521
           17253         67.8408         47.4062         66.3504        -19.1317
           17254         67.0899         47.3610         67.5847        -17.2354
           17255         62.0684         51.0911         66.7944        -8.02703
           17256         62.2384         51.1018         66.3357        -9.15932
           17257         63.1714         50.0402         67.7558        -9.76844
           17258         62.9792         50.0231         68.2085        -8.63466
           17259         60.1574         53.1793         64.5765        -4.27730
           17260         60.0536         53.1069         64.7619        -3.22958
           17261         59.5761         54.0505         63.4979        -3.05280
           17262         59.6805         54.1340         63.3082        -4.10167
           17263         58.4186         56.2535         60.0698         2.51876
           17264         58.5752         55.7538         60.8916         1.79957
           17265         58.7046         54.9617         61.5839         2.42378
           17266         58.5465         55.4613         60.7623         3.14337
           17267         58.4544         57.3031         59.5342    -385.075E-03
           17268         58.3946         57.4970         59.2432     439.643E-03
           17269         58.3685         58.6010         58.1329     83.2939E-03
           17270         58.4309         58.4050         58.4280    -747.167E-03
           17271         58.4471         56.5975         60.0902     984.531E-03
           17272         58.3604         57.0488         59.4054         1.94744
           17273         58.3071         57.9485         58.5596         1.40268
           17274         58.5137         57.7315         59.1481        -1.54211
           17275         58.4868         59.2224         57.6015        -1.50371
           17276         58.5670         58.5440         58.3168        -2.30558
           17277         59.8642         55.3712         61.1413        -7.41548
           17278         60.2035         55.2659         60.8768        -8.72875
           17279         60.6982         53.9338         62.4833        -8.96692
           17280         60.3550         54.0369         62.7505        -7.65848
           17281         67.4128         53.3556         57.2484        -22.1721
           17282         69.2126         51.1366         58.8776        -23.9420
           17283         67.9664         50.2520         60.9369        -21.9322
           17284         66.1798         52.4675         59.3197        -20.1697
           17285         66.6518         56.9910         53.8818        -21.3075
           17286         68.5583         54.9791         54.8656        -23.6908
           17287         65.5076         55.3884         56.2476        -19.7909
           17288         77.3417         38.9532         73.5515        -25.2958
           17289         75.8945         39.5196         74.9326        -22.6906
           17290         72.7001         42.5074         71.6923        -21.4949
           17291         74.1224         41.9478         70.3025        -24.0908
           17292         67.2718         46.4322         71.2020        -14.2113
           17293         66.4448         46.9629         71.3507        -12.5074
           17294         64.8510         48.5087         69.2045        -11.8367
           17295         65.6219         47.9707         69.0433        -13.5416
           17296         63.8811         49.1054         69.5565        -9.07286
           17297         63.5628         49.2807         69.6977        -7.92944
           17298         62.6771         50.1971         68.3453        -7.49044
           17299         61.8843         50.6156         68.3930        -4.15851
           17300         61.5121         51.1629         67.4819        -4.64958
           17301         62.1577         50.5251         68.3504        -5.55067
           17302         62.5440         49.9914         69.2765        -5.05326
           17303         61.3198         50.3956         68.2068         1.36043
           17304         60.7949         50.9786         67.1622         1.85129
           17305         60.5956         51.3671         66.7746         1.21265
           17306         61.1229         50.7845         67.8203     724.057E-03
           17307         60.0179         50.8325         65.0459         5.58837
           17308         60.6138         50.1755         66.4019         5.13113
           17309         60.7537         49.6595         66.5804         5.72570
           17310         60.1536         50.3121         65.2224         6.18229
           17311         59.5642         52.0827         64.1147         4.61367
           17312         59.9278         51.6569         65.0709         4.08423
           17313         60.2133         50.9635         65.6636         4.58630
           17314         59.8426         51.3902         64.7072         5.11489
           17315         60.6621         50.5668         66.6911         3.98097
           17316         61.0744         49.7845         67.4328         4.52794
           17317         59.9894         51.8966         65.3442         2.98613
           17318         59.7177         52.4956         64.7471         2.39180
           17319         60.1117         51.9966         65.6961         1.80435
           17320         60.3862         51.3976         66.2939         2.39810
           17321         59.8984         53.9923         63.3533        -5.15104
           17322         59.3697         54.9918         62.1921        -4.19770
           17323         59.5991         54.8477         62.2558        -5.24657
           17324         71.6965         42.8736         72.9238        -19.2429
           17325         69.1588         45.3019         70.0992        -18.1879
           17326         70.1462         44.9346         68.8687        -20.4374
           17327         79.3560         36.5842         78.3987        -23.6698
           17328         78.0067         37.5365         79.4651        -21.1676
           17329         74.5707         40.4660         75.9991        -20.1892
           17330         80.2038         37.5146         87.3721        -14.9348
           17331         80.0693         37.1068         86.2650        -16.2639
           17332         82.8457         35.3414         89.0713        -16.6193
           17333         82.9950         35.7485         90.1847        -15.2851
           17334         74.7029         40.7330         80.9563        -14.8887
           17335         77.1323         39.1349         83.3513        -15.6242
           17336         77.5561         39.1760         84.8853        -14.1439
           17337         75.1435         40.7494         82.5178        -13.4089
           17338         78.9391         39.1427         88.4680        -10.5755
           17339         77.6370         39.9288         87.4418        -9.63630
           17340         76.4568         40.4647         85.8375        -10.2237
           17341         77.7644         39.6841         86.8672        -11.1627
           17342         77.7634         39.9822         88.1192        -8.30214
           17343         78.9890         39.3952         89.6001        -7.93556
           17344         78.0663         39.9284         88.8586        -7.12260
           17345         76.8413         40.5147         87.3784        -7.48936
           17346         74.3632         41.9642         85.3109        -4.86295
           17347         73.1304         42.5852         83.8384        -5.03190
           17348         73.8892         42.1408         84.4936        -5.92228
           17349         75.1268         41.5199         85.9658        -5.75343
           17350         75.5177         41.7624         87.0468        -2.37757
           17351         75.6028         41.5946         87.0602        -3.02393
           17352         77.0732         40.9472         88.6711        -3.25935
           17353         76.9768         41.1209         88.6537        -2.61672
           17354         76.1333         42.0742         87.8788    -509.072E-03
           17355         76.3916         41.8282         88.1500    -968.628E-03
           17356         76.7932         41.9093         88.6235    -527.509E-03
           17357         77.0002         41.2737         88.7405        -2.10431
           17358         78.1660         40.7929         90.0113        -2.28438
           17359         74.3314         42.5565         85.8218    -574.416E-03
           17360         74.0505         42.5609         85.4809        -1.03371
           17361         74.8681         42.2018         86.3977        -1.39202
           17362         75.1412         42.2056         86.7356    -922.564E-03
           17363         73.0749         43.2467         84.3393         1.14653
           17364         72.1003         43.5144         83.1923         1.16176
           17365         72.6254         43.2798         83.8378     581.970E-03
           17366         73.6061         43.0117         84.9834     565.251E-03
           17367         73.8603         43.1050         85.2509         1.20122
           17368         73.1183         43.3772         84.3422         1.79054
           17369         72.3387         43.5193         83.4312         1.73789
           17370         88.4645         32.0058         95.2764        -16.0560
           17371         88.2145         32.8766         95.8710        -14.8503
           17372         85.5491         34.3144         92.8796        -15.2934
           17373         85.8226         33.4472         92.2815        -16.5075
           17374         82.2111         37.2750         91.3686        -11.9272
           17375         84.0034         36.3388         93.1038        -12.2614
           17376         84.5640         36.2400         94.0862        -11.4777
           17377         82.7694         37.1749         92.3546        -11.1459
           17378         81.1088         38.2041         91.3589        -9.36181
           17379         79.9791         38.8401         90.4205        -8.64448
           17380         78.8213         39.3620         88.9526        -9.16915
           17381         79.9539         38.7280         89.8934        -9.88809
           17382         80.6402         38.7186         91.8107        -6.56478
           17383         81.9552         38.1058         93.2515        -6.38197
           17384         81.1551         38.6019         92.5950        -5.67310
           17385         79.8420         39.2124         91.1505        -5.85786
           17386         78.9678         39.7252         90.3768        -5.16699
           17387         79.8235         39.3543         91.3412        -4.98246
           17388         78.8711         39.9152         90.4408        -4.39140
           17389         78.0072         40.2832         89.4618        -4.57485
           17390         90.5585         31.8582         98.6223        -14.1594
           17391         90.3851         32.6188         99.0644        -13.2046
           17392         88.0170         33.6363         96.3151        -13.8884
           17393         92.4679         31.9663         101.575        -12.3544
           17394         92.2980         32.5949         101.839        -11.6148
           17395         90.1940         33.2475         99.3297        -12.4584
           17396         86.2323         35.4557         95.7796        -11.5629
           17397         86.1304         35.2754         95.2859        -12.3280
           17398         88.0619         34.4338         97.3549        -12.1590
           17399         88.1746         34.6158         97.8475        -11.3936
           17400         83.1685         37.5411         94.5870        -6.10634
           17401         82.9604         37.5289         94.1223        -7.00739
           17402         84.1906         36.9608         95.4728        -6.72439
           17403         85.4011         36.3201         96.6222        -7.01606
           17404         84.8581         36.5432         95.8792        -7.66821
           17405         86.4499         35.7565         97.4338        -7.86558
           17406         94.7631         32.8599         105.674        -8.28131
           17407         95.2763         32.8669         106.102        -8.69937
           17408         96.8536         32.9421         108.058        -7.71382
           17409         96.3610         32.9451         107.640        -7.30039
           17410         93.8832         33.0315         104.877        -7.91841
           17411         92.1938         33.4197         102.898        -8.82498
           17412         93.0765         33.2273         103.688        -9.18896
           17413         91.0803         33.7508         102.156        -7.49296
           17414         90.1565         34.1206         101.035        -8.23305
           17415         91.3762         33.7031         102.195        -8.44963
           17416         92.2989         33.3248         103.312        -7.70411
           17417         89.5362         34.3826         100.280        -8.68657
           17418         89.1180         34.5531         100.051        -8.06022
           17419         88.5065         34.8053         99.2999        -8.51844
           17420         98.5558         33.5285         110.524        -5.13741
           17421         97.5556         32.6445         109.240        -5.29594
           17422         97.6772         33.0209         109.354        -5.86106
           17423         98.5641         32.4482         110.575        -2.77103
           17424         99.3004         33.4240         111.573        -2.83724
           17425         98.0787         31.7473         110.019    -165.262E-03
           17426         99.0425         32.5385         111.214    -500.977E-03
           17427         97.7695         30.9579         109.425         2.18476
           17428         96.3363         30.6548         107.754         3.32653
           17429         11.9534         12.0472     190.032E-03    -10.3730E-03
           17430         13.0722         14.0512         2.28564     335.837E-03
           17431         9.88499         10.6717         1.84785     210.306E-03
           17432         17.5896         17.4869         15.2099         3.57008
           17433         15.7142         15.9924         13.4430         2.91276
           17434         16.5176         17.4086         12.9648         3.02123
           17435         16.1544         11.5883         17.5984         2.63983
           17436         14.0430         9.51247         15.6294         1.92479
           17437         23.5793         14.8390         26.0326         3.84669
           17438         21.6879         12.5484         24.2986         3.02158
           17439         21.0657         13.5459         23.2083         3.46529
           17440         26.7990         15.5605         30.0718         3.63661
           17441         26.0948         16.2737         28.8592         4.19925
           17442         28.0186         18.5441         30.4721         5.08893
           17443         28.6069         17.8305         31.6850         4.52582
           17444         31.1297         19.5042         34.5226         4.83636
           17445         32.9715         21.6952         36.0145         5.79461
           17446         31.9410         19.1262         35.8864         4.20118
           17447         39.2141         25.6278         43.4125         6.02445
           17448         42.3498         27.2240         47.5559         5.33720
           17449         44.0894         28.8306         49.2845         5.90523
           17450         44.1068         28.2772         49.8296         4.89442
           17451         45.6647         29.7590         51.3399         5.52892
           17452         45.5750         30.1244         50.7886         6.32712
           17453         46.9467         31.3448         52.1157         6.80707
           17454         47.9771         31.1030         54.4820         4.49733
           17455         49.3038         32.3415         55.7198         5.23637
           17456         49.9806         32.6655         56.7970         4.48812
           17457         48.6885         31.4278         55.5591         3.74859
           17458         74.8038         48.5519         86.0551         1.91344
           17459         74.1693         48.6843         85.2784         1.84716
           17460         73.4229         47.7796         84.4149         2.27075
           17461         77.1061         50.4164         88.7288         1.17261
           17462         76.2455         49.4310         87.7533         1.53240
           17463         76.6211         48.7464         88.2472         1.70737
           17464         77.4721         49.7267         89.2210         1.34814
           17465         78.4915         49.7510         90.4508         1.21370
           17466         78.5600         48.7935         90.5816         1.37129
           17467         79.2750         50.4717         91.3511     957.678E-03
           17468         82.1022         51.0847         94.7007     467.382E-03
           17469         82.1332         52.1050         94.6763     381.861E-03
           17470         83.5950         52.7629         96.3822     171.281E-03
           17471         83.2711         52.0394         96.0399     232.970E-03
           17472         83.8205         52.0447         96.6928     166.491E-03
           17473         84.0007         51.1675         96.9452     165.171E-03
           17474         84.8428         51.7959         97.9131     43.9949E-03
           17475         84.9312         50.8034         98.0485     33.6842E-03
           17476         85.2457         51.4391         98.3993    -3.91809E-03
           17477         86.6014         49.2680         99.9945    -167.940E-03
           17478         86.5722         49.1882         99.9602    -168.340E-03
           17479         86.5880         48.1856         99.9609    -205.502E-03
           17480         86.1543         50.0740         99.4811    -162.134E-03
           17481         85.8814         49.2896         99.1659    -204.351E-03
           17482         83.8784         51.3580         96.7920    -309.596E-03
           17483         84.2366         52.2142         97.1768    -222.166E-03
           17484         84.4380         51.3284         97.4530    -256.469E-03
           17485         83.2661         51.2645         96.0721    -379.400E-03
           17486         82.9179         50.2697         95.6992    -504.692E-03
           17487         82.6049         50.9228         95.3043    -478.673E-03
           17488         82.9598         51.9167         95.6753    -352.299E-03
           17489         81.1001         49.8020         93.5681    -791.117E-03
           17490         80.5455         50.1002         92.8957    -824.083E-03
           17491         77.2644         48.6198         89.0448        -1.44390
           17492         77.4941         49.6413         89.2657        -1.15219
           17493         78.1142         48.7890         90.0533        -1.35124
           17494         75.5130         47.4109         86.9907        -1.94411
           17495         75.3717         48.2483         86.7890        -1.64259
           17496         76.4391         48.2484         88.0698        -1.62825
           17497         74.0329         46.1940         85.2378        -2.51486
           17498         74.5573         47.3676         85.8470        -1.98036
           17499         74.7484         46.8549         86.0865        -2.20911
           17500         69.5575         45.6808         79.9318        -2.14148
           17501         70.3042         45.6461         80.8093        -2.42210
           17502         69.6098         44.6394         79.9686        -3.03467
           17503         68.8523         44.6727         79.0918        -2.75204
           17504         58.7709         38.1990         67.3276        -3.35153
           17505         59.0392         38.0801         67.3617        -4.58512
           17506         58.0210         37.4896         66.2961        -4.13173
           17507         51.7683         33.3737         57.8965        -6.98493
           17508         50.5107         32.6301         56.2025        -7.34339
           17509         51.2936         32.7722         57.7918        -6.08511
           17510         46.2455         28.9453         52.2414        -5.28514
           17511         45.1158         27.9125         51.1565        -4.73446
           17512         45.6675         27.9794         52.1558        -3.72963
           17513         46.7649         29.0118         53.2451        -4.28066
           17514         42.9665         26.2482         48.6918        -4.63062
           17515         40.9573         24.7424         46.3428        -4.62927
           17516         41.5951         24.8087         47.3832        -3.87423
           17517         37.5070         22.8433         41.9105        -5.34920
           17518         36.0705         22.4683         39.8229        -5.92009
           17519         35.8030         21.3532         40.1571        -4.85761
           17520         24.2833         15.1855         26.5987        -4.30128
           17521         24.3030         13.7924         27.1336        -3.57827
           17522         26.4370         15.6675         29.2986        -4.24555
           17523         26.4853         17.0540         28.7498        -4.97925
           17524         18.4287         10.1424         20.6947        -2.47482
           17525         18.7908         12.5738         20.4854        -3.31259
           17526         17.3157         10.5520         19.2789        -2.59766
           17527         16.5704         11.3626         18.1214        -2.76834
           17528         17.8715         12.6995         19.2559        -3.25909
           17529         17.5541         13.5515         18.4234        -3.40315
           17530         12.7395         10.3793         13.5394        -1.98155
           17531         10.8510         8.92123         11.6526        -1.45235
           17532         17.9793         18.8956         1.99977     6.69146E-03
           17533         18.9520         20.7348         4.39557     596.038E-03
           17534         17.2466         19.2387         5.54980         1.04708
           17535         16.0721         17.3974         3.15980     458.472E-03
           17536         17.2515         18.6927         12.2741         2.99890
           17537         19.5793         19.0998         16.9897         4.25827
           17538         18.9429         17.6869         17.4533         4.08589
           17539         16.9328         16.0756         15.6717         3.39732
           17540         26.7383         21.6934         26.2707         6.43137
           17541         26.8786         20.8264         27.2136         6.18876
           17542         24.6544         19.7396         24.6747         5.66909
           17543         29.5115         21.3381         30.8747         6.35539
           17544         29.1482         22.0221         29.7750         6.67836
           17545         31.1237         23.9917         31.2332         7.45901
           17546         31.4298         23.3077         32.3332         7.13579
           17547         33.6983         24.6491         34.8780         7.55492
           17548         35.5050         26.5447         36.1516         8.34017
           17549         35.9372         26.0451         37.3783         7.94811
           17550         34.1866         24.1501         36.1040         7.16266
           17551         36.4903         25.6665         38.6484         7.55080
           17552         38.1177         27.4843         39.7874         8.32786
           17553         45.5252         31.4895         49.2097         8.34575
           17554         44.2433         30.5384         47.8224         8.13047
           17555         44.7556         31.3652         47.8830         8.72480
           17556         46.0276         32.3135         49.2642         8.93149
           17557         48.9693         33.6385         53.4362         8.33722
           17558         49.3242         34.6259         53.0198         9.28577
           17559         50.0438         34.8197         54.2114         8.95776
           17560         50.7081         34.9180         55.3672         8.56012
           17561         50.9875         35.7994         54.9284         9.44111
           17562         51.6361         35.8960         56.0855         9.04487
           17563         61.2569         40.7281         69.0602         6.75819
           17564         62.2465         41.2593         70.2904         6.62535
           17565         66.7163         43.4590         76.1360         4.98281
           17566         65.9555         43.1725         75.2413         4.94541
           17567         65.4392         42.8085         74.4863         5.48202
           17568         66.1993         43.0956         75.3813         5.51925
           17569         68.1429         43.8872         77.8337         5.00626
           17570         68.8257         44.0406         78.6611         4.97076
           17571         65.4032         43.3029         73.8228         7.05650
           17572         64.9483         43.0451         73.2221         7.20578
           17573         64.2464         43.1191         72.1604         7.58747
           17574         64.6935         43.3773         72.7573         7.43970
           17575         65.1954         44.0322         73.4564         7.07602
           17576         65.7920         44.1676         74.3388         6.70603
           17577         66.3390         43.9370         75.1199         6.53073
           17578         65.7313         43.8030         74.2332         6.90327
           17579         64.1231         44.7345         71.8632         7.32668
           17580         64.7189         44.8527         72.8076         6.86634
           17581         65.2524         44.4690         73.5801         6.79190
           17582         64.6465         44.3500         72.6346         7.25279
           17583         62.7966         47.4787         70.2294         5.52041
           17584         62.5315         47.3564         69.6551         6.17360
           17585         61.8822         48.0058         68.5648         6.19754
           17586         62.1415         48.1272         69.1440         5.54242
           17587         61.3768         48.9749         67.8045         5.53295
           17588         61.6510         49.0303         68.4473         4.75528
           17589         62.4322         48.1833         69.7908         4.76585
           17590         61.0517         50.2139         67.5566         3.37978
           17591         61.4274         49.9708         68.3277         2.70590
           17592         61.9207         49.3317         69.1887         2.98239
           17593         61.5355         49.5743         68.4139         3.65676
           17594         61.8475         49.8776         69.1656         1.04381
           17595         61.8055         50.0423         69.0830     320.053E-03
           17596         62.4988         49.3709         70.2702     60.1266E-03
           17597         62.5343         49.2028         70.3507     785.333E-03
           17598         65.2228         47.1633         74.4156    -738.388E-03
           17599         66.2442         46.4807         75.8232        -1.00036
           17600         65.9872         46.5436         75.5172    -27.9703E-03
           17601         64.9841         47.2252         74.1112     233.931E-03
           17602         70.6454         43.9325         80.7970        -5.23334
           17603         69.9918         44.3098         80.2358        -4.20083
           17604         68.7620         45.0416         78.6795        -4.19728
           17605         69.4032         44.6642         79.2406        -5.23013
           17606         72.4420         42.9802         83.2302        -4.10416
           17607         71.2155         43.6296         81.7397        -4.20288
           17608         71.8965         43.2343         82.3480        -5.13060
           17609         71.3802         43.4964         81.4084        -6.24077
           17610         72.6392         42.7981         82.9594        -6.13796
           17611         73.4256         42.7614         84.7491        -1.20586
           17612         72.5995         43.0796         83.7690        -1.45181
           17613         73.5982         42.5706         84.8685        -2.21200
           17614         74.4223         42.2515         85.8420        -1.96518
           17615         74.9041         41.7889         86.1267        -3.90101
           17616         73.6707         42.3762         84.6886        -4.01046
           17617         75.6016         41.3759         86.7471        -4.75477
           17618         71.9755         46.2137         82.6792         3.15312
           17619         72.5813         46.1594         83.4099         3.17771
           17620         72.6965         46.9318         83.5543         2.72181
           17621         75.3997         46.8920         86.8327         2.45662
           17622         78.6432         47.2617         90.7297         1.55436
           17623         77.9608         46.9204         89.9222         1.78390
           17624         78.6492         46.6350         90.7485         1.59440
           17625         80.6956         48.2884         93.1392     940.013E-03
           17626         83.0564         48.9723         95.8951     368.944E-03
           17627         82.9295         47.9546         95.7554     393.609E-03
           17628         83.3214         47.9566         96.2091     306.108E-03
           17629         83.9529         46.6672         96.9181     128.828E-03
           17630         84.3261         47.1814         97.3559     69.4421E-03
           17631         84.1700         48.0756         97.1890     133.251E-03
           17632         83.7943         47.5566         96.7519     194.091E-03
           17633         84.5702         46.5296         97.6178    -1.89837E-03
           17634         86.0848         46.8991         99.3496    -208.781E-03
           17635         86.2992         47.2871         99.6064    -217.348E-03
           17636         86.2309         48.4613         99.5587    -167.696E-03
           17637         86.0133         48.0710         99.3023    -158.896E-03
           17638         86.5758         47.4735         99.9268    -218.747E-03
           17639         86.5071         48.0166         99.8645    -201.023E-03
           17640         86.4809         46.5338         99.7830    -253.017E-03
           17641         86.3877         47.3001         99.7073    -231.801E-03
           17642         86.4556         47.8767         99.8021    -207.858E-03
           17643         86.3225         46.1499         99.5864    -266.416E-03
           17644         86.1744         46.6114         99.4395    -262.125E-03
           17645         85.3485         48.2528         98.5432    -293.811E-03
           17646         85.2421         46.6614         98.3831    -359.543E-03
           17647         84.1325         47.0588         97.1268    -512.889E-03
           17648         84.4099         48.6361         97.4648    -401.677E-03
           17649         82.3246         48.4462         95.0422    -757.106E-03
           17650         81.7437         47.4278         94.3700    -949.769E-03
           17651         81.7752         48.2023         94.4025    -878.299E-03
           17652         80.3938         46.6506         92.7922        -1.32875
           17653         81.0145         46.5943         93.5174        -1.18213
           17654         80.8086         45.7575         93.2679        -1.30328
           17655         80.1842         45.8135         92.5418        -1.45009
           17656         74.7754         45.7477         86.1240        -2.65437
           17657         75.0577         45.2763         86.4578        -2.78462
           17658         72.8335         44.3382         83.7612        -3.49877
           17659         72.7909         44.8114         83.7283        -3.26593
           17660         73.4786         45.2271         84.5658        -2.99466
           17661         71.2562         43.8735         81.8407        -3.88635
           17662         71.6194         44.4312         82.3128        -3.51488
           17663         72.1994         44.5559         83.0126        -3.42262
           17664         71.8382         44.0041         82.5448        -3.78694
           17665         66.0303         41.3722         75.2443        -5.76366
           17666         65.2978         41.1154         74.3757        -5.76102
           17667         65.7914         41.5392         75.1191        -5.18062
           17668         66.5201         41.7990         75.9805        -5.18482
           17669         61.6101         39.3698         69.9539        -5.95405
           17670         60.3612         38.6603         68.4832        -5.95800
           17671         58.5523         37.6485         66.5987        -5.25753
           17672         59.8410         38.5403         68.2294        -4.82793
           17673         59.3607         38.1373         67.4685        -5.48663
           17674         55.7952         36.0880         62.4107        -7.48208
           17675         56.9448         36.9780         63.4395        -8.09603
           17676         55.8561         36.3443         62.0832        -8.18609
           17677         48.8470         32.2789         53.2990        -8.63624
           17678         49.8767         32.7395         54.7359        -8.40273
           17679         50.4238         33.5770         54.8255        -9.13205
           17680         49.4206         33.1204         53.3901        -9.36718
           17681         48.1824         31.4104         53.0315        -7.92318
           17682         47.8000         31.7762         51.8252        -8.87068
           17683         47.1114         30.9090         51.5544        -8.16010
           17684         42.1581         27.2010         46.2479        -7.22335
           17685         41.1940         27.0749         44.6138        -7.77638
           17686         40.7965         26.2643         44.7113        -7.06525
           17687         32.4988         22.8797         33.7673        -7.41725
           17688         31.6961         22.7680         32.5686        -7.46244
           17689         30.1750         20.9480         31.6644        -6.64283
           17690         31.0515         21.0741         32.8854        -6.62471
           17691         24.7351         18.4197         25.4320        -5.60365
           17692         26.1623         19.0051         27.0724        -5.91253
           17693         21.0553         16.1312         21.6864        -4.56934
           17694         22.0908         17.8081         22.0301        -5.09453
           17695         20.5853         17.4405         20.0630        -4.72469
           17696         19.4767         15.7560         19.7094        -4.20984
           17697         13.6332         14.2816         11.2514        -2.30892
           17698         15.6318         16.3425         12.5350        -2.88685
           17699         15.1991         16.6526         10.5873        -2.44395
           17700         13.1973         14.5885         9.30766        -1.87041
           17701         21.7882         24.1031         5.94473     755.155E-03
           17702         23.5664         25.6614         4.98888     20.1635E-03
           17703         24.5896         27.4720         7.73411     928.889E-03
           17704         20.1489         22.6853         10.0288         2.46896
           17705         20.5767         22.6964         12.6952         3.42747
           17706         18.9784         21.2398         10.6909         2.69747
           17707         24.1914         25.4692         17.1695         5.13309
           17708         24.1118         25.8251         16.2688         4.82740
           17709         32.2370         28.7113         28.3572         8.65886
           17710         30.4670         26.8538         27.3234         8.04734
           17711         30.1736         27.2595         26.3872         7.96619
           17712         32.7900         26.5667         31.5379         8.41853
           17713         32.5752         27.2578         30.4846         8.55935
           17714         34.4430         29.0957         31.7377         9.23605
           17715         34.6254         28.4073         32.7925         9.09467
           17716         40.1881         32.3103         38.4557         10.5641
           17717         40.4452         31.7289         39.5654         10.3124
           17718         43.8377         33.6899         43.7029         10.7880
           17719         42.4853         32.2738         42.6941         10.3039
           17720         42.2006         32.7488         41.6792         10.5860
           17721         48.1852         35.2898         50.1708         10.4858
           17722         47.2383         34.6152         49.0904         10.3706
           17723         47.4930         35.2874         48.8762         10.7426
           17724         48.4462         35.9586         49.9682         10.8625
           17725         52.5523         36.7939         56.8514         9.44564
           17726         53.1500         36.8268         57.9728         8.99669
           17727         58.9770         40.0995         65.4534         8.38305
           17728         60.1413         40.3303         67.3551         7.53183
           17729         58.8914         39.7324         65.6844         7.85045
           17730         58.1869         41.2994         63.2034         9.92762
           17731         58.5182         40.6084         64.2269         9.28074
           17732         64.1792         42.1845         72.8348         5.97284
           17733         63.0702         41.6589         71.3516         6.42295
           17734         65.6304         43.0774         74.2405         6.78553
           17735         65.0576         42.7841         73.5181         6.89206
           17736         64.3796         42.7524         72.4988         7.31188
           17737         69.0764         43.8704         78.8717         5.36426
           17738         68.5071         43.7858         78.1100         5.62606
           17739         69.2597         43.9063         79.1117         5.29073
           17740         69.8365         43.9928         79.8728         5.03098
           17741         70.7064         44.6452         81.0417         4.34220
           17742         69.5026         44.1905         79.5017         4.84823
           17743         70.1516         44.2927         80.3096         4.72219
           17744         74.5342         45.0892         85.8066         3.08165
           17745         75.2295         45.4317         86.6525         2.80190
           17746         75.1017         45.6985         86.4904         2.81722
           17747         74.4070         45.3566         85.6442         3.09721
           17748         77.8591         45.2650         89.8284         1.83084
           17749         78.5260         45.4416         90.6168         1.60924
           17750         78.6099         45.9764         90.7109         1.61143
           17751         80.5468         45.7699         92.9835     970.443E-03
           17752         81.1839         45.8810         93.7230     786.815E-03
           17753         80.6034         46.5486         93.0516     994.645E-03
           17754         82.9460         46.2116         95.7562     332.810E-03
           17755         82.3867         46.0732         95.1120     463.904E-03
           17756         82.9678         45.4030         95.7589     259.787E-03
           17757         83.6411         43.9378         96.4533    -73.8708E-03
           17758         84.0184         44.9508         96.9311    -15.4005E-03
           17759         83.5480         44.8082         96.3934     60.3255E-03
           17760         85.4203         46.1414         98.5676    -169.814E-03
           17761         85.6497         45.3834         98.7901    -240.235E-03
           17762         85.8801         46.2940         99.0936    -220.657E-03
           17763         85.6609         47.0534         98.8739    -149.980E-03
           17764         86.3985         46.2859         99.6787    -258.430E-03
           17765         86.2575         45.7704         99.4941    -279.475E-03
           17766         86.4058         44.7786         99.6018    -339.318E-03
           17767         86.8000         44.0657         99.9912    -360.412E-03
           17768         86.7835         44.6490         100.016    -325.640E-03
           17769         86.7100         45.5157         99.9887    -292.742E-03
           17770         86.9369         42.7138         100.028    -393.058E-03
           17771         86.8210         43.8805         100.001    -346.235E-03
           17772         86.8948         43.3605         100.039    -382.187E-03
           17773         86.0705         45.6749         99.2785    -295.358E-03
           17774         86.3029         45.0883         99.5067    -290.924E-03
           17775         86.2055         44.1932         99.3385    -315.308E-03
           17776         85.9639         44.7815         99.1075    -317.442E-03
           17777         85.2461         45.2463         98.3266    -389.550E-03
           17778         85.5227         44.6261         98.6028    -359.296E-03
           17779         85.0043         44.5528         98.0159    -425.274E-03
           17780         82.9265         44.5327         95.6657    -810.310E-03
           17781         83.1523         45.4258         95.9587    -758.197E-03
           17782         83.6314         45.2257         96.4971    -658.654E-03
           17783         81.2252         44.9439         93.7322        -1.23113
           17784         81.8176         44.8415         94.4109        -1.07528
           17785         81.6077         44.1349         94.1440        -1.13606
           17786         81.0109         44.2359         93.4633        -1.29052
           17787         77.3531         44.1589         89.1880        -2.41086
           17788         76.5366         44.0826         88.2160        -2.66447
           17789         77.7496         44.9251         89.6695        -2.20036
           17790         74.0111         43.9238         85.1665        -3.45665
           17791         74.8347         43.9453         86.1674        -3.20817
           17792         73.3727         43.3330         84.3727        -3.79388
           17793         72.7118         42.8684         83.5438        -4.12837
           17794         72.5142         42.4124         83.2965        -4.24223
           17795         71.8482         42.4993         82.4619        -4.49377
           17796         68.3867         42.0138         78.1086        -5.54566
           17797         68.2309         42.0935         77.9554        -5.41495
           17798         69.1931         42.3975         79.1636        -5.15113
           17799         63.7490         40.4578         71.8896        -7.47192
           17800         65.2883         40.9916         73.9450        -6.96446
           17801         62.7990         40.2339         70.4778        -8.02965
           17802         63.1820         40.1368         71.2439        -7.41197
           17803         59.8839         38.5601         67.1344        -7.76496
           17804         59.0826         38.2190         65.9726        -8.14628
           17805         58.7664         37.9434         65.7740        -7.81588
           17806         59.5691         38.2833         66.9217        -7.44630
           17807         58.0638         37.8002         64.5520        -8.47869
           17808         57.0651         37.2843         63.2415        -8.65501
           17809         57.9532         37.4926         64.7492        -7.91697
           17810         52.8561         35.5307         57.2459        -9.80198
           17811         53.9247         36.1310         58.6023        -9.75618
           17812         53.9477         36.6958         58.1013        -10.3293
           17813         52.8930         36.0976         56.7430        -10.3786
           17814         46.5201         31.8727         49.3136        -9.80098
           17815         47.4771         32.1087         50.8379        -9.50350
           17816         44.0031         30.7197         45.9011        -9.92862
           17817         42.9529         29.9312         44.8368        -9.67391
           17818         43.1890         29.4498         45.7663        -9.15154
           17819         44.2349         30.2452         46.8316        -9.40187
           17820         41.6643         30.3350         42.0936        -10.3398
           17821         40.6767         29.0081         41.7279        -9.70142
           17822         42.0191         29.5608         43.5311        -9.72324
           17823         42.9687         30.8870         43.8829        -10.3602
           17824         35.0422         28.0474         33.1165        -9.54695
           17825         34.9049         26.8029         34.0921        -9.15524
           17826         36.6508         28.1460         35.6791        -9.70066
           17827         31.8630         28.5549         27.4228        -8.77330
           17828         31.0596         28.9219         25.7081        -8.38339
           17829         30.6367         27.7302         26.2525        -8.33544
           17830         28.0215         27.4864         22.0554        -7.05896
           17831         26.1830         25.9521         20.5450        -6.40650
           17832         26.1095         25.1237         21.3899        -6.59225
           17833         27.9675         26.6655         22.8981        -7.24330
           17834         17.9027         19.7340         11.5215        -2.92665
           17835         19.9933         21.5772         13.7152        -3.74102
           17836         20.5656         22.7240         12.6126        -3.37113
           17837         18.6196         20.8798         10.4101        -2.56340
           17838         25.9144         29.2759         10.4579         1.93876
           17839         26.2741         29.0098         6.81404     25.2711E-03
           17840         27.3783         30.8110         9.54250         1.03398
           17841         25.7580         28.5106         14.8431         4.22246
           17842         24.4680         26.6872         15.3246         4.49460
           17843         30.9382         31.1665         23.0076         7.60565
           17844         30.7959         31.8846         21.7152         7.13185
           17845         32.5884         33.6369         22.9075         7.66695
           17846         37.4448         33.8803         31.7337         10.3660
           17847         37.7732         33.5293         32.7609         10.4527
           17848         36.0531         31.5738         31.8601         9.89618
           17849         41.5659         34.5470         38.5390         11.2603
           17850         42.9513         36.7171         38.7257         11.8164
           17851         43.0532         35.9987         39.7242         11.6859
           17852         44.3513         38.0396         39.9288         12.1737
           17853         45.6613         39.3300         41.0423         12.4877
           17854         44.4453         37.3673         40.8530         12.0647
           17855         46.0250         37.3773         43.8903         12.0468
           17856         47.3960         37.9381         45.9465         12.0985
           17857         46.1746         36.7425         44.8428         11.8158
           17858         48.7346         36.8592         49.6077         11.3142
           17859         47.5817         35.9232         48.3752         11.1231
           17860         47.6188         36.6432         47.7105         11.5007
           17861         48.7698         37.5840         48.9424         11.6909
           17862         61.2316         43.8923         67.2320         9.19413
           17863         61.0401         43.3795         67.0498         9.25609
           17864         60.3062         43.5272         65.7756         9.64052
           17865         60.4991         44.0399         65.9550         9.57790
           17866         64.3985         42.4788         72.7094         6.94421
           17867         63.0491         41.9949         70.8667         7.42883
           17868         63.8132         42.4137         71.7923         7.39451
           17869         65.2101         43.6305         73.4902         7.17245
           17870         64.5872         43.8421         72.5443         7.46538
           17871         69.2724         43.9592         79.1601         5.15582
           17872         68.6841         44.0165         78.4038         5.29001
           17873         69.2280         44.0453         79.1574         4.93813
           17874         69.8204         43.9882         79.9115         4.80385
           17875         71.2718         43.9510         81.8289         4.01958
           17876         70.6632         43.9800         81.0616         4.20949
           17877         70.8169         43.9547         81.2959         3.97210
           17878         71.4242         43.9263         82.0583         3.77936
           17879         72.1537         44.2298         82.8664         4.00867
           17880         71.2999         44.1066         81.7887         4.33281
           17881         71.7253         44.0294         82.3590         4.04713
           17882         69.9027         43.9718         79.9770         4.94235
           17883         68.6372         43.8919         78.2961         5.50290
           17884         76.3604         44.0653         88.0742         2.09008
           17885         77.0759         44.0392         88.9242         1.81374
           17886         77.4510         44.3836         89.3589         1.80770
           17887         76.7364         44.4093         88.5092         2.08463
           17888         77.8456         43.1205         89.8410         1.02534
           17889         77.6685         42.7705         89.6386     795.863E-03
           17890         78.7228         42.6849         90.8404     523.386E-03
           17891         80.6487         43.3691         93.0493     456.935E-03
           17892         81.0640         42.8365         93.4950     160.587E-03
           17893         81.2424         43.2908         93.7184     288.313E-03
           17894         83.5535         43.2655         96.3131    -183.700E-03
           17895         83.3073         42.5834         95.9898    -310.428E-03
           17896         84.0659         42.9456         96.8618    -328.562E-03
           17897         85.2790         42.8290         98.2003    -481.214E-03
           17898         84.7657         42.8995         97.6364    -424.344E-03
           17899         86.4371         42.2641         99.4309    -568.905E-03
           17900         86.2310         41.9622         99.1728    -635.826E-03
           17901         86.4452         41.2660         99.3353    -722.879E-03
           17902         87.2502         40.5647         100.143    -486.105E-03
           17903         87.1444         41.0012         100.079    -426.785E-03
           17904         87.0687         41.6237         100.065    -432.733E-03
           17905         87.1720         41.1855         100.129    -491.407E-03
           17906         86.2704         42.7082         99.2918    -318.818E-03
           17907         86.3589         41.3984         99.2627    -295.700E-03
           17908         86.1045         42.0518         99.0479    -302.218E-03
           17909         84.9968         42.2674         97.8418    -379.756E-03
           17910         84.3507         42.3950         97.1342    -468.510E-03
           17911         84.6915         42.8074         97.5463    -447.811E-03
           17912         83.9490         42.9228         96.7255    -568.311E-03
           17913         84.1805         43.8348         97.0461    -555.275E-03
           17914         84.4073         43.3484         97.2688    -500.166E-03
           17915         82.0964         42.3436         94.6066    -897.763E-03
           17916         82.7715         42.1479         95.3520    -723.088E-03
           17917         81.9044         41.7513         94.3519    -856.015E-03
           17918         79.4387         42.0582         91.5742        -1.55204
           17919         79.3356         42.5500         91.4740        -1.66992
           17920         80.0973         42.6133         92.3512        -1.45182
           17921         80.2135         42.1181         92.4622        -1.33589
           17922         77.8058         41.5632         89.6848        -1.86819
           17923         76.8527         41.5074         88.5796        -2.14799
           17924         77.6467         41.9697         89.5036        -2.08950
           17925         65.4016         41.0837         73.9949        -7.17029
           17926         64.5418         41.1018         72.7168        -7.68864
           17927         62.0067         40.1748         69.2621        -8.48851
           17928         61.3458         40.2438         68.1623        -8.95830
           17929         60.5425         39.7814         67.1239        -9.08287
           17930         57.2835         39.2534         61.9963        -10.4976
           17931         57.3327         38.7244         62.4320        -10.1217
           17932         58.3745         39.0323         63.9890        -9.78269
           17933         58.3054         39.5603         63.5524        -10.1611
           17934         48.8170         34.8579         50.4572        -11.2683
           17935         49.5923         35.2528         51.4949        -11.2583
           17936         49.8496         35.9350         51.3345        -11.5922
           17937         49.0819         35.5355         50.2970        -11.6018
           17938         47.8573         34.3171         49.2272        -11.2351
           17939         48.1163         35.0854         48.9555        -11.6214
           17940         47.0858         34.5438         47.5915        -11.5879
           17941         41.8718         32.2618         40.5188        -11.2229
           17942         43.3137         33.5246         41.7970        -11.6393
           17943         43.1473         34.2760         40.7430        -11.8794
           17944         41.7029         33.0151         39.4683        -11.4665
           17945         40.3951         32.7934         37.4129        -11.3068
           17946         40.2718         31.8935         38.1050        -11.0745
           17947         34.8851         30.1264         30.7978        -9.80971
           17948         33.5863         28.5570         30.2443        -9.33643
           17949         34.7092         28.5909         32.0213        -9.61663
           17950         35.9626         30.1540         32.5712        -10.0881
           17951         32.4897         28.4411         28.5495        -9.01092
           17952         34.0110         30.0983         29.3981        -9.51187
           17953         28.4045         28.5841         21.4359        -6.90391
           17954         29.9522         28.9749         23.7645        -7.77630
           17955         25.1528         27.4215         16.0016        -4.59927
           17956         25.8178         28.6599         15.1804        -4.07409
           17957         24.0002         26.9468         13.0148        -3.22510
           17958         23.2128         25.7082         13.8361        -3.75002
           17959         34.2512         38.8727         13.1258     25.5465E-03
           17960         35.4052         40.4386         15.3956         1.12514
           17961         32.7861         37.2878         13.2712         1.04478
           17962         37.0560         40.8592         21.9493         6.29101
           17963         34.8413         38.9980         19.2894         4.94094
           17964         36.3695         40.7700         20.1342         5.03426
           17965         34.5095         35.7417         23.9835         8.07134
           17966         36.2628         37.4661         25.1590         8.58126
           17967         36.1943         36.6031         26.1437         9.01265
           17968         40.0744         38.9255         30.6952         10.6988
           17969         38.7923         37.7816         29.6624         10.2994
           17970         42.1769         40.0822         33.3430         11.5038
           17971         42.6972         41.1398         33.0942         11.5011
           17972         43.5347         41.6742         34.0957         11.7888
           17973         43.0308         40.6313         34.3632         11.7777
           17974         44.2976         38.7682         39.0016         12.2502
           17975         44.2629         39.4473         38.1552         12.2803
           17976         45.5249         40.6428         39.2836         12.5708
           17977         45.5581         39.9625         40.1295         12.5411
           17978         46.8697         40.5767         42.0672         12.7488
           17979         48.0443         41.8172         43.0842         12.9743
           17980         48.1574         41.1472         44.0607         12.8799
           17981         49.5341         40.8504         47.1712         12.7372
           17982         49.6863         40.1446         48.1930         12.5068
           17983         48.5721         39.0408         47.0929         12.3270
           17984         53.9444         42.5368         54.5452         12.1877
           17985         54.7458         43.2905         55.5671         12.1225
           17986         54.9985         42.5684         56.5924         11.8197
           17987         54.1906         41.8130         55.5695         11.8863
           17988         59.2729         44.4875         63.6489         10.2393
           17989         58.7623         44.7986         62.5977         10.5184
           17990         58.9240         45.3164         62.7352         10.4194
           17991         65.8539         44.5584         74.4955         6.35383
           17992         66.4026         44.2584         75.2545         6.26922
           17993         66.4709         44.5966         75.4426         5.84277
           17994         67.0886         44.6041         76.3589         5.37250
           17995         67.6206         44.3317         77.0418         5.39117
           17996         66.9968         44.3237         76.1254         5.86130
           17997         70.0099         44.0529         80.2843         4.16006
           17998         70.6646         43.9830         81.1374         3.84561
           17999         70.1706         44.0230         80.4524         4.28386
           18000         72.2257         43.8251         83.0962         3.29835
           18001         72.3838         43.7407         83.3272         3.02948
           18002         73.0273         43.7097         84.1091         2.85717
           18003         72.8683         43.7977         83.8812         3.12504
           18004         73.6006         43.7407         84.7854         2.81678
           18005         73.8277         43.8583         85.0362         2.90773
           18006         68.9704         44.2349         78.9425         4.48270
           18007         68.2350         44.3263         77.9177         4.96071
           18008         67.8024         44.5162         77.3950         4.85857
           18009         68.5350         44.4239         78.4210         4.37740
           18010         69.2977         44.1334         79.3225         4.58690
           18011         69.6834         44.1532         79.9062         4.05710
           18012         79.5246         42.2392         91.7314     76.6052E-03
           18013         80.9151         41.6509         93.2517    -439.913E-03
           18014         80.2565         41.7893         92.5259    -320.351E-03
           18015         80.2280         41.5101         92.4723    -532.781E-03
           18016         85.2321         40.2524         97.8795        -1.11717
           18017         85.3479         40.5365         98.0422        -1.01145
           18018         85.0069         40.8388         97.7028    -928.353E-03
           18019         86.5291         39.6884         99.2315        -1.09070
           18020         86.7264         39.8626         99.4720    -997.021E-03
           18021         86.4830         40.4057         99.2750    -899.542E-03
           18022         86.2841         40.2318         99.0338    -991.800E-03
           18023         87.3457         39.7501         100.140    -765.859E-03
           18024         87.5337         39.1119         100.259    -797.988E-03
           18025         87.5506         39.3210         100.308    -685.390E-03
           18026         87.6529         38.8956         100.364    -575.617E-03
           18027         87.8379         38.2516         100.471    -595.457E-03
           18028         87.7584         38.3348         100.399    -502.218E-03
           18029         87.1711         38.8386         99.8388    -239.600E-03
           18030         87.1576         39.3186         99.8884    -303.409E-03
           18031         84.5956         39.3967         97.1086    -50.0394E-03
           18032         84.4148         39.8723         96.9650    -148.391E-03
           18033         84.9265         39.9735         97.5369    -163.978E-03
           18034         81.6372         40.7109         93.9781    -660.933E-03
           18035         81.0121         40.6242         93.2744    -758.341E-03
           18036         81.2269         41.2506         93.5579    -900.859E-03
           18037         78.8976         41.1369         90.9239        -1.38517
           18038         77.9796         41.1390         89.8767        -1.63524
           18039         78.7196         41.5623         90.7335        -1.61966
           18040         75.9057         41.4884         87.4780        -2.40176
           18041         77.0197         41.1698         88.7779        -1.87431
           18042         76.0649         41.1480         87.6743        -2.12603
           18043         72.5691         41.7934         83.4443        -3.83181
           18044         72.1687         41.7114         82.9763        -3.85035
           18045         71.4680         41.7517         82.0896        -4.20912
           18046         71.8549         41.8342         82.5443        -4.18869
           18047         67.6126         41.8456         77.0047        -6.13733
           18048         66.5474         41.8071         75.5398        -6.64721
           18049         65.0844         41.5879         73.4387        -7.46868
           18050         64.1674         41.5129         72.1143        -7.90201
           18051         64.3615         41.3011         72.4130        -7.82533
           18052         61.8009         41.4861         68.5182        -9.05661
           18053         61.6081         41.8802         68.1687        -9.12063
           18054         60.8374         41.7920         66.9383        -9.51098
           18055         58.8742         40.8165         63.9276        -10.3722
           18056         58.7866         41.3930         63.5772        -10.5211
           18057         55.6638         39.4731         59.0404        -11.3295
           18058         56.4028         39.6882         60.2097        -11.1134
           18059         56.3611         40.4795         59.7058        -11.4027
           18060         55.6473         40.2843         58.5388        -11.6219
           18061         52.6609         38.9579         53.9314        -12.2190
           18062         53.1369         40.2355         53.8924        -12.4984
           18063         52.3766         39.5944         52.9263        -12.5165
           18064         52.1676         40.4529         51.8645        -12.8214
           18065         51.5700         38.9270         51.9170        -12.5133
           18066         48.8273         38.3729         47.2196        -12.8308
           18067         48.2577         38.4614         46.0599        -12.9041
           18068         47.4232         37.3717         45.5176        -12.6693
           18069         48.0047         37.2793         46.6812        -12.5939
           18070         47.0958         39.4061         42.9651        -13.0673
           18071         45.9837         38.8629         41.3925        -12.9031
           18072         46.1717         38.3243         42.2627        -12.8663
           18073         43.4925         36.9634         38.6991        -12.3577
           18074         42.5794         35.9311         38.1010        -12.1007
           18075         34.8137         34.6241         26.0892        -8.86633
           18076         35.3306         34.3771         27.2377        -9.32609
           18077         36.8910         36.0565         28.1857        -9.70777
           18078         37.0778         38.3482         26.1477        -8.62548
           18079         38.7602         39.7395         27.6612        -9.25963
           18080         39.1376         40.8633         27.2002        -8.82395
           18081         37.4870         39.4714         25.6838        -8.19353
           18082         30.2219         33.1967         18.7171        -5.23952
           18083         30.8988         34.4610         18.1744        -4.58905
           18084         29.1608         32.8400         16.1137        -3.71514
           18085         28.3847         31.5757         16.6560        -4.36525
           18086         39.4993         45.2601         17.7481     25.6092E-03
           18087         40.6766         46.7216         19.6694         1.12280
           18088         39.3257         45.0480         19.4285         2.23137
           18089         38.0418         43.5877         17.5059         1.13661
           18090         40.2783         45.0493         23.0169         5.77404
           18091         40.8781         44.8726         24.7291         7.20186
           18092         39.3832         43.5592         23.2537         6.47585
           18093         42.4887         46.3311         26.2304         7.87333
           18094         43.6312         43.4502         32.1350         11.2453
           18095         44.5954         44.8030         32.3853         11.3077
           18096         45.4112         45.1216         33.6367         11.7265
           18097         44.4501         43.7571         33.3745         11.6568
           18098         51.2674         44.5141         47.0755         13.2446
           18099         52.1077         46.3458         47.0443         13.3469
           18100         53.3662         45.0557         51.2374         12.9254
           18101         53.5490         46.3584         50.4643         13.0536
           18102         53.9017         45.8462         51.7501         12.8840
           18103         59.5070         47.2001         63.4823         9.65406
           18104         59.5520         46.6044         63.6745         9.79015
           18105         59.0830         46.7594         62.6707         10.1190
           18106         59.0446         47.3548         62.4740         9.98720
           18107         58.0284         46.2108         60.6328         10.9150
           18108         57.6253         47.3796         59.2880         11.1028
           18109         58.1502         46.9672         60.6171         10.7721
           18110         61.8212         44.8960         68.0790         8.71651
           18111         62.5114         44.9607         69.2325         8.28292
           18112         62.8449         44.3479         69.8200         8.25198
           18113         62.1375         44.2786         68.6623         8.68386
           18114         63.6162         45.2175         71.0869         7.38065
           18115         63.1051         45.7220         70.3140         7.36186
           18116         63.6622         45.7819         71.2687         6.84301
           18117         64.1829         45.2784         72.0424         6.85955
           18118         66.0010         45.3178         74.9816         5.10537
           18119         65.2037         45.7902         73.8918         5.10884
           18120         65.5917         45.8012         74.5375         4.56759
           18121         66.3936         45.3224         75.6222         4.56989
           18122         70.2266         44.1198         80.7765         2.84200
           18123         69.5072         44.3522         79.9004         2.81779
           18124         70.1591         44.1674         80.7666         2.27688
           18125         70.8848         43.9350         81.6420         2.30132
           18126         71.5414         43.7219         82.4867         1.73022
           18127         71.6739         43.7309         82.5851         2.30832
           18128         66.6055         44.9185         75.7757         5.17652
           18129         67.3140         44.8295         76.8089         4.66150
           18130         70.2490         44.0847         80.7173         3.39443
           18131         70.6155         43.9800         81.1351         3.54592
           18132         69.3205         44.2604         79.4909         3.90904
           18133         81.9564         39.9891         94.2123        -1.75303
           18134         82.5601         39.8980         94.8719        -1.71635
           18135         82.2225         40.3956         94.5715        -1.32129
           18136         81.6229         40.4866         93.9145        -1.35142
           18137         82.9396         39.3879         95.2083        -2.08211
           18138         83.6051         39.2879         95.9345        -1.99261
           18139         83.2254         39.7990         95.5999        -1.62823
           18140         85.1758         38.6689         97.5772        -1.96028
           18141         85.1694         39.2671         97.6716        -1.57706
           18142         87.1442         38.2056         99.6814        -1.46664
           18143         86.9441         38.6758         99.5386        -1.32367
           18144         87.9039         37.3264         100.369        -1.44586
           18145         88.2410         36.8063         100.647        -1.46805
           18146         87.8542         37.9159         100.441    -462.193E-03
           18147         87.6165         37.1458         100.070    -45.9144E-03
           18148         87.5464         37.5640         100.059    -145.819E-03
           18149         87.8701         37.2506         100.358    -236.514E-03
           18150         87.9411         36.8310         100.368    -136.335E-03
           18151         85.2388         38.5212         97.6995     152.950E-03
           18152         84.9022         38.9204         97.3849     76.6428E-03
           18153         85.5624         38.6850         98.0731     83.8370E-03
           18154         83.7494         38.6984         96.0998     203.879E-03
           18155         82.9107         38.7707         95.1925     170.820E-03
           18156         83.3478         39.2993         95.7320    -43.4723E-03
           18157         81.8461         38.0031         93.9264     792.735E-03
           18158         81.3426         38.5503         93.4471     425.618E-03
           18159         82.1361         38.4415         94.3042     406.256E-03
           18160         78.8195         39.6137         90.7654    -394.773E-03
           18161         78.2135         39.3756         90.0759    -99.9747E-03
           18162         75.3570         40.7029         86.8901        -1.70706
           18163         72.4665         41.2896         83.4834        -2.83324
           18164         73.2809         41.0255         84.4870        -2.24173
           18165         68.2484         42.0758         78.1453        -4.78930
           18166         69.2917         41.8635         79.4763        -4.45165
           18167         69.3570         41.8727         79.6239        -4.13019
           18168         68.3015         42.0841         78.2860        -4.46931
           18169         63.3457         42.4058         70.9469        -7.94838
           18170         64.0980         42.3649         72.1162        -7.48821
           18171         63.6814         42.7230         71.5597        -7.45041
           18172         62.9384         42.7642         70.3914        -7.91090
           18173         58.6582         41.9253         63.2124        -10.6058
           18174         58.6138         42.4138         63.0081        -10.6308
           18175         58.0043         42.4425         61.8943        -10.9419
           18176         57.4662         42.8599         60.7743        -11.2050
           18177         56.8014         43.0523         59.4263        -11.5449
           18178         56.6126         42.1860         59.3782        -11.6117
           18179         53.8067         42.0024         54.0047        -12.6857
           18180         53.2930         42.8207         52.4035        -12.9661
           18181         53.1023         41.8430         52.6902        -12.8774
           18182         52.2577         41.4016         51.3312        -13.0009
           18183         52.6115         42.6575         51.0873        -13.1358
           18184         51.9199         42.5510         49.7308        -13.2669
           18185         51.1340         43.7440         47.0403        -13.4919
           18186         50.6193         43.7327         45.9352        -13.5228
           18187         50.2396         42.6522         46.1362        -13.4669
           18188         50.7737         42.6626         47.2396        -13.4370
           18189         48.6052         43.2765         42.1414        -13.3846
           18190         47.7263         42.2229         41.4223        -13.2689
           18191         45.0020         41.5022         36.9169        -12.5435
           18192         44.8838         40.6670         37.5397        -12.6247
           18193         45.9425         41.6910         38.4941        -12.8534
           18194         46.0603         42.5265         37.8686        -12.7728
           18195         41.4674         38.5355         33.5610        -11.5687
           18196         40.2538         37.8803         32.0937        -11.1230
           18197         39.5187         36.6578         32.0558        -11.0371
           18198         42.2210         43.5113         29.9571        -9.92344
           18199         40.7217         42.1997         28.6249        -9.41672
           18200         40.3890         40.9932         29.2487        -9.90521
           18201         37.9369         40.6447         25.2574        -7.65637
           18202         36.2438         39.1688         23.6728        -6.98227
           18203         37.3737         41.5799         22.9993        -5.63461
           18204         44.6930         51.4690         22.4685     23.6077E-03
           18205         45.8591         52.8370         24.0603         1.10854
           18206         44.5290         51.1711         23.4512         2.19263
           18207         43.2806         49.8030         21.8586         1.10969
           18208         44.9234         50.5950         25.7398         5.71626
           18209         45.3897         50.3779         27.0463         7.14911
           18210         47.5957         51.7607         29.8266         8.95176
           18211         47.1208         50.6375         30.2186         9.54360
           18212         45.5813         49.1992         28.9157         9.01123
           18213         46.0788         50.3239         28.5171         8.41868
           18214         46.0688         47.6496         31.8148         10.8878
           18215         46.1141         47.1548         32.5153         11.2389
           18216         44.8764         45.9026         31.5687         10.9444
           18217         53.4485         56.0765         36.8538         11.8405
           18218         52.3859         54.2096         36.9811         12.1481
           18219         51.6331         53.7309         35.8644         11.8285
           18220         52.7284         55.6068         35.7413         11.5207
           18221         51.4515         51.7068         38.3566         12.7244
           18222         52.2276         53.0123         38.4096         12.6266
           18223         52.6317         53.0725         39.4026         12.8067
           18224         51.8721         51.7585         39.3641         12.9057
           18225         52.3718         48.2430         45.5078         13.4151
           18226         52.5634         49.1438         44.8781         13.4069
           18227         53.1101         49.7291         45.5929         13.3701
           18228         52.9284         48.8464         46.2248         13.3744
           18229         55.3200         51.4496         49.9463         12.7583
           18230         55.3725         50.9887         50.6431         12.6986
           18231         55.0486         50.3029         50.4251         12.8296
           18232         54.9909         50.7688         49.7310         12.8858
           18233         56.6396         51.8645         53.8832         11.6810
           18234         56.7728         51.0268         55.0072         11.5537
           18235         56.4456         50.3044         54.5602         11.8796
           18236         58.9528         48.7264         62.0330         9.58672
           18237         58.5621         48.8801         61.0242         9.98626
           18238         58.4815         49.6062         60.6751         9.79302
           18239         58.8655         49.4530         61.6957         9.38481
           18240         58.2905         48.3116         60.5070         10.4221
           18241         58.1824         47.7415         60.4382         10.6234
           18242         57.8391         48.1686         59.4763         10.8413
           18243         60.3165         47.3350         65.1857         8.82918
           18244         59.9009         47.5944         64.2887         9.12200
           18245         59.8371         48.1633         64.1453         8.86209
           18246         60.2472         47.8916         65.0455         8.57002
           18247         62.8159         46.7210         70.0043         6.65983
           18248         62.2712         47.2560         69.1212         6.66394
           18249         63.0835         46.8177         70.5425         6.16508
           18250         63.1921         47.4729         70.9925         4.82540
           18251         63.8853         46.8442         72.0427         4.88511
           18252         63.4789         46.8503         71.2781         5.58136
           18253         69.1647         44.5965         79.5979         1.71917
           18254         68.6402         44.7720         78.8843         2.31113
           18255         67.8876         45.1226         77.9292         2.31501
           18256         68.4180         44.9426         78.6609         1.71972
           18257         69.2950         44.6023         79.8244     535.263E-03
           18258         70.0826         44.2432         80.7956     526.646E-03
           18259         69.6517         44.4111         80.2417         1.14113
           18260         68.8690         44.7671         79.2684         1.15167
           18261         73.0777         43.0661         84.3768     12.1329E-03
           18262         71.7478         43.5789         82.8011     572.806E-03
           18263         72.1944         43.3633         83.3400     1.09451E-03
           18264         70.7040         43.9874         81.4825         1.72961
           18265         71.2561         43.7809         82.1881         1.16207
           18266         67.8124         45.2398         77.8902         1.70631
           18267         67.1691         45.5181         77.0101         2.20485
           18268         66.8093         45.7665         76.5672         1.87896
           18269         67.4565         45.4803         77.4511         1.38415
           18270         84.7148         38.1368         96.9392        -2.70365
           18271         84.1007         38.7145         96.3799        -2.33318
           18272         83.3463         38.8687         95.5530        -2.54845
           18273         85.8728         37.4846         98.1001        -2.74751
           18274         85.2353         38.0767         97.5221        -2.44742
           18275         87.8948         36.7730         100.241        -1.92337
           18276         87.4744         37.2538         99.8715        -1.84404
           18277         87.3334         37.1143         99.6797        -2.09435
           18278         87.7538         36.6343         100.048        -2.17447
           18279         89.0126         35.8112         101.308        -1.34430
           18280         89.0549         35.7820         101.356        -1.16558
           18281         88.7887         36.1952         101.147        -1.09365
           18282         88.7495         36.2181         101.102        -1.27272
           18283         88.3987         36.0983         100.735    -139.841E-03
           18284         88.9452         35.3274         101.181    -129.773E-03
           18285         88.5255         35.6973         100.801     31.2055E-03
           18286         88.5794         35.3416         100.793     225.984E-03
           18287         88.0747         36.0823         100.386     128.180E-03
           18288         86.9019         36.3371         99.1651     633.887E-03
           18289         86.4905         36.2091         98.6966     859.016E-03
           18290         83.4505         36.8994         95.4990         1.43880
           18291         82.0878         37.6031         94.1272         1.15030
           18292         78.7285         38.9831         90.6116     344.759E-03
           18293         80.0155         38.5307         91.9827     633.213E-03
           18294         75.5041         39.7544         87.0751     21.2486E-03
           18295         76.4744         39.5663         88.1514    -24.2373E-03
           18296         77.0393         39.1506         88.7449     590.088E-03
           18297         68.7294         42.0222         79.0771        -3.03724
           18298         67.6130         42.3866         77.6770        -3.34896
           18299         68.0624         42.2325         78.1964        -3.49623
           18300         66.6254         42.6631         76.2739        -4.28838
           18301         65.9164         42.9151         75.3385        -4.49197
           18302         65.8865         42.8419         75.1972        -4.91866
           18303         66.5880         42.5983         76.1299        -4.71162
           18304         59.7119         44.4108         64.9797        -9.24901
           18305         60.1073         44.3499         65.7563        -8.91368
           18306         59.8489         44.8658         65.3515        -8.75937
           18307         57.9357         45.2839         61.3110        -10.3807
           18308         57.5912         44.9714         60.5921        -10.7677
           18309         58.3093         44.6204         62.1502        -10.3202
           18310         56.2453         45.7021         57.3639        -11.6318
           18311         56.2499         44.8887         57.6341        -11.7543
           18312         56.6707         45.5618         58.3948        -11.3477
           18313         54.2732         45.1444         52.9881        -12.8055
           18314         53.6253         44.9897         51.5960        -13.0479
           18315         53.5065         43.9234         52.0750        -13.0281
           18316         54.3300         47.3433         51.6141        -12.7792
           18317         53.7827         46.0916         51.1434        -13.0355
           18318         54.2220         46.2584         52.1293        -12.8340
           18319         51.8608         45.8592         46.7051        -13.5026
           18320         51.3560         45.9905         45.4008        -13.5288
           18321         50.9592         44.9780         45.4896        -13.5468
           18322         51.4923         44.8544         46.8070        -13.5172
           18323         49.6294         45.7774         41.7162        -13.3781
           18324         50.5276         46.7691         42.6591        -13.4290
           18325         50.8023         48.0507         41.8680        -13.3023
           18326         46.3168         44.8894         35.9204        -12.2795
           18327         46.2699         44.1528         36.6008        -12.4880
           18328         47.5732         47.4158         35.7104        -12.0134
           18329         46.6649         46.6029         34.8145        -11.7783
           18330         46.4466         45.7246         35.3170        -12.0293
           18331         43.5852         44.6778         31.1849        -10.3978
           18332         44.6066         44.8591         32.8090        -11.1470
           18333         43.4283         46.8862         28.8220        -8.33351
           18334         42.9763         45.7511         29.1221        -8.90828
           18335         44.7312         47.9901         30.0574        -8.88524
           18336         41.7707         46.8415         25.8618        -5.57484
           18337         42.5065         48.1165         25.9409        -4.72096
           18338         49.8003         57.4744         27.1292     23.7602E-03
           18339         50.9598         58.7867         28.4361         1.16612
           18340         49.6579         57.1486         27.5716         2.26753
           18341         48.4220         55.8347         26.2636         1.12849
           18342         49.4749         55.2633         29.4099         7.16649
           18343         50.5104         56.1536         30.4224         7.76483
           18344         48.6309         53.9459         29.2946         7.68000
           18345         52.4648         57.7413         32.3643         8.94057
           18346         51.5828         56.3681         32.2141         9.33668
           18347         51.5234         56.9851         31.3859         8.38275
           18348         54.9960         57.9520         37.9803         11.8977
           18349         53.9577         54.6598         40.6282         12.8299
           18350         53.2719         54.0203         39.6666         12.7680
           18351         55.1572         53.8428         46.0067         12.9587
           18352         55.5572         54.1442         46.9681         12.8070
           18353         55.1998         52.9779         47.5082         12.9127
           18354         57.2903         54.5441         53.8186         10.7419
           18355         57.2522         54.9479         53.1027         10.9015
           18356         57.4386         55.7010         53.0718         10.5851
           18357         57.4685         55.3028         53.7847         10.4223
           18358         57.5111         51.8939         56.8896         10.4936
           18359         57.2929         52.5196         55.6659         10.7862
           18360         57.4481         53.3447         55.6776         10.4042
           18361         58.9460         50.9636         61.8592         8.23312
           18362         59.3091         50.6477         62.9061         7.77289
           18363         59.1208         50.1531         62.3357         8.57377
           18364         62.8618         48.1098         70.6255         3.95272
           18365         63.6385         47.3989         71.8298         4.01428
           18366         63.6435         47.9101         72.0608         2.22116
           18367         62.8716         48.5689         70.8460         2.28466
           18368         63.1045         48.5408         71.2680         1.44332
           18369         63.8893         47.8838         72.4857         1.37795
           18370         68.0657         45.3076         78.2633    -560.040E-03
           18371         67.0080         45.9280         76.8868    -347.031E-03
           18372         67.3459         45.7797         77.2888        -1.20860
           18373         68.4195         45.1592         78.6657        -1.42202
           18374         64.6215         47.1491         73.5170         2.19186
           18375         64.2536         47.2189         72.8826         3.08009
           18376         63.2908         47.9765         71.4260         3.11320
           18377         85.4672         36.7767         97.3299        -4.41473
           18378         89.4876         34.7803         101.504        -2.92600
           18379         88.7448         35.3079         100.806        -2.96937
           18380         88.7645         35.1500         100.743        -3.44352
           18381         90.7579         33.8797         102.711        -2.54118
           18382         91.2510         33.5024         103.180        -2.23598
           18383         90.8523         33.8243         102.854        -1.83555
           18384         90.3573         34.2012         102.385        -2.14026
           18385         89.7971         34.5816         101.942    -506.898E-03
           18386         90.2171         34.2145         102.312    -641.165E-03
           18387         90.2870         34.0355         102.355    -406.968E-03
           18388         89.8686         34.3985         101.985    -275.472E-03
           18389         89.0583         34.3389         101.104     824.297E-03
           18390         89.5021         34.1774         101.549     562.435E-03
           18391         89.9585         33.6868         101.929     780.874E-03
           18392         85.4677         35.2469         97.3469         2.39041
           18393         84.7177         35.8137         96.6586         2.10462
           18394         85.4851         35.6714         97.4820         1.81014
           18395         81.4298         36.6303         93.1470         2.86798
           18396         81.9987         36.6665         93.8186         2.40947
           18397         76.3227         38.8636         87.8723         1.65975
           18398         77.3634         38.6581         89.0302         1.41467
           18399         74.0346         39.7757         85.3944         1.06934
           18400         72.7784         40.2045         83.9919     915.470E-03
           18401         72.4131         40.4906         83.6003     252.559E-03
           18402         67.8122         42.2924         78.1910    -982.421E-03
           18403         69.0434         41.8154         79.6663        -1.00278
           18404         65.6924         43.1945         75.3070        -3.23659
           18405         66.4872         42.8479         76.3443        -3.01961
           18406         66.6929         42.7918         76.6979        -2.32926
           18407         65.8853         43.1407         75.6596        -2.54229
           18408         62.8026         44.3378         70.9783        -5.39838
           18409         62.3379         44.7602         70.3964        -5.09380
           18410         62.1152         44.6152         69.8077        -6.03206
           18411         60.2505         45.5162         66.4798        -7.41035
           18412         59.6936         45.7929         65.3796        -7.86886
           18413         59.9240         45.3806         65.6926        -8.10629
           18414         60.4929         45.1076         66.8051        -7.64173
           18415         56.3365         48.1042         56.9063        -10.9375
           18416         56.6542         47.7067         57.9413        -10.6578
           18417         56.6330         48.4860         57.7648        -10.3346
           18418         54.0648         49.4008         49.0749        -12.8914
           18419         53.7703         49.4722         48.1184        -13.0242
           18420         52.9771         50.0753         45.0934        -13.2123
           18421         52.2810         49.0199         44.4328        -13.3438
           18422         52.2137         47.9480         45.4520        -13.4252
           18423         52.8951         48.9984         46.1119        -13.2935
           18424         51.1114         49.3057         41.1500        -13.1267
           18425         50.8585         49.7982         39.9581        -12.9089
           18426         50.4244         48.6222         40.3577        -13.0645
           18427         48.7923         49.1393         36.2721        -12.0102
           18428         49.6578         49.8840         37.2122        -12.2343
           18429         50.0426         50.8913         36.8890        -11.9843
           18430         49.1817         50.1424         35.9493        -11.7589
           18431         46.9668         47.5885         34.3843        -11.4779
           18432         47.9265         48.3896         35.3604        -11.7773
           18433         48.2931         49.4197         35.0025        -11.4682
           18434         47.3452         48.6199         34.0270        -11.1688
           18435         48.6483         53.3619         31.8926        -8.24373
           18436         48.8737         52.6986         32.8317        -9.37661
           18437         49.5037         53.9685         32.8260        -8.79467
           18438         43.3315         49.4027         26.1574        -3.87430
           18439         54.7783         63.2525         31.6083     26.6343E-03
           18440         55.9275         64.5389         32.5987         1.12822
           18441         54.6773         62.9683         31.5381         2.29842
           18442         53.4581         61.6807         30.5449         1.19637
           18443         54.2952         61.4306         31.8953         6.22589
           18444         53.0673         59.9522         31.1776         6.29800
           18445         57.3786         64.6106         34.1159         7.26027
           18446         56.8675         63.6380         34.1356         7.98318
           18447         55.7889         62.5305         33.3803         7.64586
           18448         56.0282         59.6036         38.0595         11.6407
           18449         56.8561         61.2935         37.4131         11.0930
           18450         57.0852         61.2215         38.2638         11.3885
           18451         57.4109         59.8603         42.8220         12.1432
           18452         57.0830         58.9134         43.6876         12.2863
           18453         56.4472         57.8920         43.2318         12.4979
           18454         57.3180         56.9085         50.0771         11.3852
           18455         57.6139         58.0219         49.3809         11.2475
           18456         57.8123         58.3398         50.0453         10.8602
           18457         57.5215         57.2276         50.7399         10.9987
           18458         57.8911         57.4814         53.1233         9.63992
           18459         57.6834         56.3899         53.6336         9.92272
           18460         57.5836         56.4883         52.6766         10.4200
           18461         58.0501         55.4852         57.2628         7.94590
           18462         58.0408         56.3759         56.5125         7.80557
           18463         58.1095         56.6553         56.8601         7.19353
           18464         58.0029         57.0450         55.2411         8.36357
           18465         57.8662         56.5569         54.7199         9.13480
           18466         57.9935         57.6958         53.8115         9.00838
           18467         59.6977         50.5246         64.0135         7.01454
           18468         63.2256         48.5807         71.4718     662.765E-03
           18469         62.4201         49.1616         70.1467         1.56689
           18470         91.4618         33.3994         103.251        -3.53481
           18471         90.7998         33.7543         102.499        -4.43082
           18472         91.6762         32.9956         103.600    -609.480E-03
           18473         92.1629         32.6833         104.045    -580.515E-03
           18474         92.0349         32.6713         103.913    -216.235E-03
           18475         90.9316         33.1087         102.841     592.681E-03
           18476         91.8469         32.6623         103.713     253.096E-03
           18477         88.5821         33.1735         100.140         3.66740
           18478         89.2286         32.8738         100.755         3.72435
           18479         88.9300         32.8595         100.376         4.15141
           18480         88.2826         33.1614         99.7603         4.09083
           18481         85.1975         34.2304         96.5495         4.83122
           18482         84.0585         34.6175         95.3444         5.08250
           18483         73.8152         39.4769         85.0267         2.40257
           18484         74.3587         39.0811         85.5213         3.17568
           18485         73.1140         39.5477         84.1340         3.18383
           18486         72.5806         39.9426         83.6419         2.41135
           18487         71.8671         40.0440         82.7219         3.21238
           18488         72.4520         39.6066         83.2363         4.04331
           18489         68.2562         41.8807         78.7123         1.39235
           18490         69.5073         41.3272         80.1938         1.46794
           18491         70.0412         40.9704         80.7399         2.32417
           18492         64.5801         43.8291         74.1008        -1.46514
           18493         65.2507         43.4677         74.9140        -2.03714
           18494         65.6282         43.2917         75.4690        -1.22459
           18495         61.5826         45.6231         69.7473        -3.07414
           18496         61.4954         45.6287         69.5119        -3.63022
           18497         62.2648         45.1098         70.6893        -3.35700
           18498         62.3761         45.1029         70.9417        -2.79603
           18499         59.9678         46.8353         67.0369        -4.01385
           18500         59.6891         47.2174         66.7026        -3.34648
           18501         59.2475         47.4934         65.6145        -4.67759
           18502         58.8429         47.6523         64.4761        -5.97244
           18503         59.5011         47.0294         65.8604        -5.42833
           18504         57.3900         48.6848         60.3482        -8.55453
           18505         57.7659         48.4622         61.5551        -7.79701
           18506         57.3682         49.0993         60.5004        -7.97071
           18507         56.0747         50.9478         55.1660        -10.2631
           18508         56.2648         50.5948         56.1980        -9.84884
           18509         56.2168         51.5064         55.7601        -9.49102
           18510         55.6914         52.6180         52.0626        -10.9818
           18511         55.5402         52.6678         51.2495        -11.3063
           18512         55.3975         51.5460         51.6936        -11.6084
           18513         55.5596         51.4938         52.5069        -11.2852
           18514         55.7219         55.5336         47.4270        -11.6249
           18515         55.6275         54.9511         48.0993        -11.6097
           18516         55.9568         55.9143         48.1626        -11.2264
           18517         56.0607         56.4833         47.4932        -11.2458
           18518         54.0613         53.1420         44.3523        -12.7592
           18519         53.7906         52.0354         45.0519        -12.9148
           18520         54.2944         52.7938         45.6969        -12.7148
           18521         54.5691         53.9013         44.9990        -12.5570
           18522         53.6268         54.2523         41.2646        -12.4960
           18523         53.1255         52.8478         41.8537        -12.7746
           18524         53.8451         53.6337         42.8764        -12.7010
           18525         54.4409         56.0335         40.9536        -12.1331
           18526         53.0831         53.9415         40.1944        -12.3920
           18527         50.3091         51.7299         36.4838        -11.7084
           18528         50.9148         53.0246         36.2979        -11.3704
           18529         50.2327         52.5275         35.4615        -11.0962
           18530         49.6101         51.2300         35.6445        -11.4337
           18531         48.7457         55.4126         30.6302        -4.64322
           18532         50.7918         57.7463         32.1906        -4.75484
           18533         49.8001         56.8762         31.2719        -3.90930
           18534         61.9052         71.4434         37.7540     24.8225E-03
           18535         63.0262         72.7131         38.2672         1.04253
           18536         61.8967         71.3355         36.9966         2.07204
           18537         60.7255         70.0681         36.4838         1.05377
           18538         59.9825         68.3364         35.2759         5.60566
           18539         60.9710         69.5844         35.8174         5.32047
           18540         60.1957         68.3552         35.4322         6.26167
           18541         59.9027         67.7788         35.4038         6.84518
           18542         60.8060         68.6100         36.0574         7.38938
           18543         59.6516         67.1950         35.4548         7.49425
           18544         63.0148         70.5997         37.9401         8.67297
           18545         62.0306         69.3610         37.4924         8.78793
           18546         62.4191         70.0932         37.3210         8.29013
           18547         63.4151         71.3371         37.7704         8.17137
           18548         62.4981         69.0756         39.9874         9.96218
           18549         63.9195         71.2537         39.7144         9.33063
           18550         63.7063         70.8260         40.2565         9.53555
           18551         60.1062         65.0262         41.1834         11.0495
           18552         59.6619         64.4657         40.5861         11.1489
           18553         60.4250         65.7870         40.2420         10.8202
           18554         61.1007         66.3830         43.0509         10.5048
           18555         60.5122         65.2590         44.1029         10.5835
           18556         60.2818         64.8930         43.5464         10.8376
           18557         58.8627         61.8207         45.9329         11.1474
           18558         58.5804         61.3692         45.2759         11.4618
           18559         59.1392         62.5856         44.7738         11.2247
           18560         59.4185         63.0313         45.4265         10.9140
           18561         58.7167         61.0220         49.3848         9.97762
           18562         59.0942         62.0863         48.0435         10.1994
           18563         58.1624         58.8756         52.2468         9.36052
           18564         58.4060         59.9617         50.7895         9.69034
           18565         57.9537         56.0186         56.1061         8.47816
           18566         58.0924         57.4007         55.6484         7.68993
           18567         59.2917         52.4440         63.2551         5.20521
           18568         59.5034         51.8242         63.7998         5.50357
           18569         59.2586         51.9944         63.0128         6.16072
           18570         59.0559         52.6189         62.4728         5.86667
           18571         59.8540         52.9926         64.8918    -841.597E-03
           18572         60.0861         52.4120         65.5763    -142.842E-03
           18573         59.6334         53.1356         64.4880     469.316E-03
           18574         59.4072         53.7142         63.8050    -231.873E-03
           18575         63.6269         48.7048         71.7106        -2.97033
           18576         62.9490         49.3715         70.5295        -3.30465
           18577         63.4607         48.9785         71.1526        -4.10799
           18578         64.1448         48.3164         72.3370        -3.76390
           18579         64.8618         47.8323         73.0522        -5.05802
           18580         65.8436         47.0512         74.5069        -5.03078
           18581         65.1086         47.5338         73.7919        -3.74313
           18582         68.8562         45.0144         78.2047        -6.30446
           18583         67.6421         45.8136         76.5965        -6.29030
           18584         68.3588         45.3488         77.1166        -7.45180
           18585         69.5863         44.5498         78.7240        -7.46630
           18586         76.5785         40.5463         86.6095        -8.77013
           18587         70.1028         44.2418         79.7966        -6.32234
           18588         70.8845         43.7602         80.3960        -7.40010
           18589         72.1719         43.0143         82.0085        -7.31888
           18590         66.9573         46.2484         76.0518        -5.09114
           18591         68.1704         45.4373         77.6485        -5.21262
           18592         67.5433         45.8093         77.1096        -4.08454
           18593         66.3501         46.6200         75.5130        -3.96278
           18594         95.0215         31.8787         106.724        -2.89078
           18595         94.6919         32.0613         106.347        -3.58175
           18596         95.4794         31.9585         107.139        -3.66222
           18597         93.2442         32.0747         105.047    -290.793E-03
           18598         93.8584         31.7548         105.615     270.773E-03
           18599         93.5066         31.5809         105.120         2.28710
           18600         93.4002         31.4384         104.888         3.22986
           18601         92.6439         31.7026         104.184         2.97181
           18602         87.6398         33.3288         99.0603         4.41808
           18603         87.0750         33.6805         98.5723         4.12867
           18604         87.7188         33.5101         99.2702         3.81448
           18605         85.5514         33.5949         96.5615         6.06273
           18606         84.8211         34.0406         95.9292         5.74240
           18607         85.8739         33.7996         97.1259         5.20572
           18608         86.6266         33.3607         97.7847         5.52421
           18609         79.8735         36.3115         91.0352         5.14688
           18610         79.1096         36.7998         90.3583         4.64221
           18611         80.1647         36.5031         91.5404         4.31160
           18612         80.9268         36.0149         92.2161         4.81028
           18613         75.0770         38.0919         85.7765         5.63773
           18614         73.0837         39.1261         83.7548         4.91635
           18615         70.5023         40.2444         80.8145         4.90932
           18616         71.8011         39.6636         82.3019         4.93212
           18617         71.1520         39.7161         81.3204         5.82955
           18618         67.4495         41.8994         77.4318         3.76554
           18619         65.8358         42.7455         75.4450         3.65893
           18620         66.0084         42.7524         75.7586         3.10034
           18621         61.4276         45.8235         69.7958    -362.236E-03
           18622         61.7793         45.5851         70.2805        -1.01165
           18623         58.5533         48.4638         65.0599    -66.7293E-03
           18624         58.5283         48.5307         64.9543        -1.08747
           18625         59.2016         47.7737         66.1943        -1.02697
           18626         59.2006         47.7595         66.0890        -2.03013
           18627         58.6149         48.3990         64.9751        -2.32410
           18628         59.2573         47.6433         66.0535        -2.91430
           18629         57.2818         50.1861         61.5272        -4.64673
           18630         57.4153         49.8834         61.6365        -5.28355
           18631         57.7305         49.4684         62.6974        -4.33055
           18632         56.5058         51.1366         57.4616        -8.45583
           18633         56.6772         50.9579         58.4332        -7.71999
           18634         56.1903         52.8610         55.6287        -8.34874
           18635         56.2286         52.2671         55.8107        -8.79460
           18636         56.3502         51.7511         56.6746        -8.52692
           18637         56.0123         54.4724         52.2026        -9.80856
           18638         56.1701         55.5355         51.9057        -9.29681
           18639         56.1888         55.9209         51.0376        -9.64824
           18640         55.7730         54.8582         49.2564        -11.2121
           18641         56.2353         57.6036         45.4707        -11.4881
           18642         55.9439         56.7157         45.9747        -11.6456
           18643         56.1974         57.1924         46.4369        -11.3524
           18644         55.1240         57.4853         40.6800        -11.8003
           18645         55.9424         59.0280         40.6190        -11.4456
           18646         55.6564         58.9937         39.7503        -11.2887
           18647         55.6088         59.2650         39.1452        -11.0694
           18648         56.5646         60.8202         39.3565        -10.7269
           18649         55.4167         60.3381         37.2202        -9.84520
           18650         55.9756         61.3925         37.1959        -9.38523
           18651         55.2103         60.7119         36.4495        -9.06626
           18652         54.4468         60.6808         35.2872        -7.71058
           18653         55.2369         62.2379         35.4780        -6.50494
           18654         54.0782         60.7020         34.8371        -6.85022
           18655         52.8686         60.0742         33.7417        -4.98934
           18656         53.5677         60.5016         34.2955        -5.99448
           18657         54.9580         62.3789         35.2536        -5.33927
           18658         54.3039         61.9516         34.7089        -4.33885
           18659         65.2597         75.2837         39.9962     923.081E-03
           18660         66.3700         76.5541         41.3728     18.0558E-03
           18661         67.4289         77.7790         41.6355     802.150E-03
           18662         64.3093         73.8723         38.0511         3.72378
           18663         65.2568         74.7003         38.2396         4.91775
           18664         63.7675         73.0345         37.4806         4.64923
           18665         65.5454         74.5845         38.2256         6.40817
           18666         65.1643         73.9068         38.1363         7.03152
           18667         64.1413         72.6901         37.6574         7.05939
           18668         64.5166         73.3669         37.7453         6.43504
           18669         66.2043         74.8430         38.9255         7.73815
           18670         65.6839         74.3453         38.5185         7.46403
           18671         66.5621         75.4431         38.8623         7.31371
           18672         64.2378         71.8206         39.3176         9.05975
           18673         65.3161         73.3088         39.5867         8.69792
           18674         62.4186         68.6174         42.6813         9.91162
           18675         63.3280         70.1091         42.6514         9.42074
           18676         62.9766         69.5577         43.2848         9.39852
           18677         61.8988         67.7934         44.6162         9.47967
           18678         61.8533         67.7679         45.2264         9.17998
           18679         60.3677         65.2313         48.6254         8.09546
           18680         59.8114         63.9603         49.2818         8.36387
           18681         59.3468         62.8827         50.5636         7.97297
           18682         59.3775         63.0897         51.0996         7.25873
           18683         58.9533         61.8271         51.8877         7.49748
           18684         58.5961         61.1186         54.9778         3.44586
           18685         58.5966         61.1586         55.2807         2.45825
           18686         58.3740         59.8415         56.3663         2.73256
           18687         58.6601         60.9721         53.6969         6.16605
           18688         58.9772         62.1941         52.8381         5.90356
           18689         58.9644         62.2966         53.2801         5.04421
           18690         58.6442         61.0750         54.1390         5.30695
           18691         58.3212         56.2681         59.2069         4.51892
           18692         58.2544         57.1564         58.5108         3.97788
           18693         58.3313         56.7499         59.2782         3.27200
           18694         58.4028         55.8645         59.9737         3.81218
           18695         62.0740         50.8998         67.3266        -7.22112
           18696         62.3275         50.4233         68.2845        -6.39168
           18697         61.7447         51.1217         67.2723        -6.12348
           18698         64.1145         48.6538         71.0406        -7.14400
           18699         65.0114         47.8570         72.4101        -7.26408
           18700         64.5296         48.1916         72.1387        -6.16781
           18701         63.6467         48.9848         70.7691        -6.04798
           18702         69.9156         44.2907         78.0691        -9.82308
           18703         68.6268         45.1567         76.2958        -9.91174
           18704         69.5210         44.5042         76.7895        -11.1560
           18705         70.8217         43.6381         78.5660        -11.0647
           18706         74.9384         41.0287         82.9644        -12.2915
           18707         76.4394         40.2467         84.8990        -12.0035
           18708         75.1500         41.1412         84.1408        -10.5972
           18709         73.6566         41.9339         82.2203        -10.8703
           18710         69.0881         44.8592         77.5607        -8.65006
           18711         71.2429         43.4544         79.7912        -9.79637
           18712         70.4042         44.0207         79.2854        -8.62086
           18713         81.3746         37.9201         91.1081        -10.6150
           18714         80.3582         38.3322         89.6787        -11.3049
           18715         86.2626         35.7357         96.6339        -9.64992
           18716         87.5375         35.1708         97.9503        -9.60126
           18717         87.3844         35.2854         98.0006        -9.03401
           18718         86.1103         35.8445         96.6854        -9.08708
           18719         95.7476         32.2775         107.265        -5.23676
           18720         94.3179         32.5982         105.676        -6.07246
           18721         95.3168         32.4918         106.707        -6.06421
           18722         96.5789         32.5002         108.094        -5.77454
           18723         97.5691         32.4257         109.322        -4.54362
           18724         96.5902         32.2727         108.185        -5.01759
           18725         95.6383         32.6053         106.303        -9.11444
           18726         93.5626         32.9799         103.993        -9.68505
           18727         93.9334         32.7132         104.187        -10.1112
           18728         97.8541         33.2937         109.502        -6.37723
           18729         96.1703         32.6881         107.503        -6.76884
           18730         87.5092         31.6221         97.7277         8.11510
           18731         85.6350         32.4269         95.8402         8.25252
           18732         85.8163         32.8333         96.3508         7.44883
           18733         79.7866         34.6401         89.5233         9.17677
           18734         77.6442         35.8474         87.4897         8.66826
           18735         80.9944         34.5464         91.1649         8.26666
           18736         74.2087         37.7370         84.1025         7.81883
           18737         71.7415         39.1915         81.7037         6.76922
           18738         69.3109         40.1888         78.6871         7.29259
           18739         68.9979         40.6002         78.6301         6.37793
           18740         70.4239         39.8247         80.2207         6.65658
           18741         65.9495         42.4429         75.2528         5.12858
           18742         65.4929         42.6342         74.5501         5.54725
           18743         64.7045         43.2137         73.7368         4.78090
           18744         65.1738         43.0154         74.4488         4.36326
           18745         61.6840         45.3358         69.7606         3.90248
           18746         62.3601         44.9328         70.8605         3.29516
           18747         63.2079         44.2079         71.8320         4.34376
           18748         62.5397         44.6135         70.7308         4.95136
           18749         58.9865         47.9215         65.8250         1.21752
           18750         57.9924         49.1220         63.9665     445.447E-03
           18751         57.3766         50.1203         62.4358        -1.92371
           18752         57.8697         49.3443         63.6269        -1.32740
           18753         57.6165         49.7306         63.1266    -542.788E-03
           18754         57.1241         50.5168         61.9365        -1.14367
           18755         56.9054         50.9738         60.4393        -4.75446
           18756         56.5590         51.8806         59.2663        -4.81666
           18757         56.6457         51.5742         59.2730        -5.55318
           18758         57.0011         50.6707         60.4498        -5.49128
           18759         56.1201         54.4121         55.0576        -7.14721
           18760         56.1121         55.3317         54.6683        -6.40940
           18761         56.1457         55.0354         54.1278        -7.58449
           18762         56.2404         56.0576         52.4277        -8.38330
           18763         56.1631         55.5289         53.2657        -7.98722
           18764         56.9447         58.9815         47.9306        -9.89198
           18765         56.8143         58.5958         48.4690        -9.75086
           18766         57.2256         59.8355         47.8060        -9.47908
           18767         57.7918         61.4327         43.6067        -10.6967
           18768         58.4674         62.7479         43.5943        -10.2652
           18769         58.0090         61.9905         42.8592        -10.6798
           18770         58.1314         63.4069         39.5280        -10.0450
           18771         57.3182         62.0780         39.4355        -10.4021
           18772         58.2465         63.3063         40.1304        -10.2474
           18773         58.4423         65.1310         37.9562        -8.26455
           18774         59.1892         65.9200         38.4665        -8.44512
           18775         59.8518         67.0944         38.5502        -7.76668
           18776         59.1077         66.3069         38.0438        -7.57942
           18777         57.8528         64.7885         37.3338        -7.62418
           18778         59.1939         66.7257         37.9538        -6.91866
           18779         59.0719         66.9150         37.8646        -6.10599
           18780         59.0407         67.1659         37.8812        -5.28772
           18781         57.7812         65.6811         37.0912        -5.32594
           18782         68.4643         78.9545         41.7770         1.49637
           18783         68.5025         78.9958         43.0107     15.0998E-03
           18784         69.5098         80.1725         43.1490     709.296E-03
           18785         68.0049         77.9975         39.6946         4.52670
           18786         67.4368         77.1587         39.1878         5.23602
           18787         66.3961         75.9968         38.7768         5.03991
           18788         67.6944         76.9653         39.2053         6.81319
           18789         67.2572         76.2981         39.1397         7.22251
           18790         67.1678         76.0930         39.2301         7.47243
           18791         68.1501         77.4598         39.4011         6.92752
           18792         67.3938         76.1433         40.0249         7.95326
           18793         67.0303         75.5976         40.3437         8.17177
           18794         66.3499         74.7172         39.8418         8.34951
           18795         63.2815         70.2724         44.6541         8.37263
           18796         63.3596         70.3235         44.1925         8.63792
           18797         64.0716         71.4687         43.8303         8.34251
           18798         63.9724         71.3892         44.2862         8.08990
           18799         62.4992         69.1975         46.0796         7.81286
           18800         62.9589         69.8663         45.3938         8.02955
           18801         63.7319         71.2316         45.2007         7.40358
           18802         63.2469         70.5459         45.8819         7.18970
           18803         62.3618         69.3288         47.3111         6.43401
           18804         62.3043         69.0710         46.9513         7.06078
           18805         62.9323         70.1263         46.3753         6.93397
           18806         59.8802         65.0708         51.7483         3.68984
           18807         59.8534         65.1143         52.0564         2.72663
           18808         59.3204         63.7162         53.0294         2.93624
           18809         59.3525         63.6756         52.7220         3.89970
           18810         61.2738         68.1232         50.0489         2.47056
           18811         60.5661         66.7251         50.9882         2.47687
           18812         60.4831         66.4304         50.8326         3.56321
           18813         58.8757         62.3546         54.3246         2.19700
           18814         58.5799         61.0933         55.5666         1.45068
           18815         59.6642         55.2640         61.4741        -6.42778
           18816         59.8728         54.5526         62.3873        -6.32388
           18817         59.3836         55.5536         61.3287        -5.35495
           18818         64.0731         49.6618         66.9653        -12.6534
           18819         64.7034         49.3843         66.3703        -14.3800
           18820         66.2884         47.6930         68.4442        -15.2668
           18821         63.6101         49.7955         67.4622        -11.1777
           18822         64.3846         48.7542         69.5062        -10.4245
           18823         83.2650         34.3863         88.3312        -18.1258
           18824         86.2267         32.4929         91.5497        -18.0058
           18825         67.9050         45.7287         73.3430        -12.8409
           18826         66.9798         46.4229         73.1444        -11.2054
           18827         65.5552         47.6594         71.1517        -10.8711
           18828         81.3558         37.5246         89.9847        -12.7811
           18829         80.8266         37.4836         88.8052        -13.7875
           18830         83.1390         36.1681         91.0910        -14.1536
           18831         83.6743         36.2129         92.2636        -13.1475
           18832         90.1615         33.6303         99.7107        -11.6786
           18833         88.1111         34.0510         96.9732        -12.9401
           18834         77.3641         33.9065         84.9790         12.8511
           18835         80.4310         32.1032         88.1716         12.8438
           18836         71.8793         37.6563         80.0044         10.9637
           18837         71.5690         38.3016         80.2853         9.73706
           18838         73.9960         36.9215         82.8705         10.0729
           18839         74.3244         36.2734         82.5932         11.2940
           18840         62.6193         44.1701         69.8233         7.72414
           18841         60.9567         45.6099         67.3973         7.46207
           18842         61.4371         45.2956         68.5736         6.49521
           18843         57.4630         49.9118         62.3769         3.33013
           18844         58.0305         48.9899         63.2902         4.56278
           18845         57.1872         50.4165         61.3798         4.30585
           18846         55.8588         55.0839         56.3575         2.17505
           18847         55.8487         54.7811         56.7964         1.10328
           18848         55.9505         53.8706         57.7153         1.47462
           18849         56.0063         53.6424         58.0790    -713.386E-03
           18850         55.9056         54.2771         57.2968        -1.46146
           18851         56.0660         53.5630         58.0423        -2.19213
           18852         56.6051         59.3655         51.7764        -4.92633
           18853         56.6031         59.0529         51.7034        -5.67624
           18854         56.3621         58.0571         52.5333        -5.66406
           18855         56.3565         58.3617         52.6103        -4.91770
           18856         56.8814         59.1897         50.1936        -7.82335
           18857         57.0696         59.7117         49.4291        -8.15910
           18858         56.7955         58.6191         49.7217        -8.79256
           18859         56.6172         58.0961         50.4862        -8.45660
           18860         57.9591         61.6769         46.6176        -9.26007
           18861         58.5805         63.2290         46.5465        -8.37223
           18862         58.5475         63.0335         46.0884        -8.86115
           18863         59.5540         64.8798         44.3299        -9.09702
           18864         59.1714         64.1875         44.8243        -9.11339
           18865         59.4449         64.7675         44.9428        -8.75311
           18866         60.3963         66.3605         43.3929        -8.95591
           18867         61.1600         67.6466         41.7104        -9.06084
           18868         61.7175         68.5306         42.1790        -8.64276
           18869         61.9177         68.9605         40.9127        -8.67500
           18870         61.0502         67.6086         40.9120        -9.09969
           18871         61.0610         67.5485         41.3054        -9.12188
           18872         62.7655         70.6066         40.0813        -7.69662
           18873         63.4636         71.7397         40.1558        -7.05497
           18874         62.5846         70.5205         39.8749        -7.43151
           18875         62.7834         71.4091         39.9046        -5.76393
           18876         62.9405         71.4070         39.8629        -6.32398
           18877         63.9949         72.7872         40.4126        -5.93624
           18878         62.6625         71.4763         39.9690        -5.06776
           18879         62.6181         71.6384         40.3546        -4.13990
           18880         74.4699         85.8494         47.1888     7.99938E-03
           18881         75.2780         86.8233         46.9073     530.464E-03
           18882         73.4330         84.6922         45.7827     581.461E-03
           18883         71.1612         81.8112         41.3787         3.82520
           18884         72.6502         83.5872         42.1008         3.55182
           18885         72.4948         83.1738         41.1176         4.72077
           18886         72.2128         82.7515         40.8372         5.11666
           18887         71.2936         81.6420         40.5279         5.27981
           18888         72.6140         83.0656         40.6363         5.68824
           18889         72.5924         82.9962         40.6762         5.85106
           18890         71.3291         81.3765         40.4359         6.35567
           18891         69.4652         78.9328         40.9614         7.08006
           18892         68.5275         77.6599         40.8638         7.49639
           18893         69.1012         78.4196         40.5945         7.32209
           18894         67.1118         75.8323         42.0904         7.60843
           18895         68.0151         77.1278         41.9993         7.13507
           18896         67.5678         76.6038         42.5131         6.98981
           18897         66.6704         75.3053         42.6086         7.46569
           18898         66.5341         75.2687         43.2457         6.98267
           18899         67.3949         76.4645         42.8770         6.71785
           18900         67.5479         76.8179         43.2532         6.15098
           18901         66.6753         75.6175         43.6218         6.41074
           18902         64.9775         73.3676         45.0739         6.17984
           18903         65.8307         74.6138         44.5565         5.93610
           18904         65.7795         74.6543         44.8555         5.48685
           18905         64.9192         73.4000         45.3818         5.72888
           18906         62.5737         69.9866         47.7931         5.10041
           18907         62.6419         70.2454         48.0176         4.35583
           18908         61.7932         68.6544         48.6048         5.14703
           18909         60.9550         67.5395         50.9243    -124.530E-03
           18910         61.5536         68.5253         50.3629        -1.61623
           18911         61.1735         68.0033         50.4609     992.041E-03
           18912         61.5686         68.7143         49.9034         1.60951
           18913         62.2543         69.9405         49.2802     829.519E-03
           18914         59.1692         63.0551         54.2081        -1.24189
           18915         58.8604         61.5808         55.4470        -2.03752
           18916         58.8351         61.8495         55.2133    -934.137E-03
           18917         58.7076         59.2247         57.5332        -3.48024
           18918         58.7160         60.1335         56.7281        -2.87030
           18919         58.9893         60.8191         55.9950        -4.11885
           18920         58.9792         59.8937         56.7915        -4.74246
           18921         59.2668         61.7595         55.0993        -4.66492
           18922         58.9476         61.4203         55.5662        -3.03594
           18923         61.2033         61.7584         53.5670        -11.1135
           18924         60.8853         59.9931         55.1114        -11.2084
           18925         60.0244         60.0640         55.7338        -8.88048
           18926         60.3311         61.8202         54.1886        -8.78729
           18927         74.9073         63.4231         44.8168        -28.4165
           18928         69.0305         64.2482         47.1548        -21.9348
           18929         72.9850         66.2963         43.8957        -25.2646
           18930         73.3847         53.5909         53.7029        -28.9097
           18931         71.1045         52.1267         56.4446        -26.4256
           18932         64.3379         51.6073         62.2619        -16.4588
           18933         65.1023         52.0068         60.7597        -18.2736
           18934         66.8106         49.8473         62.7003        -19.7739
           18935         63.3872         51.0183         64.6013        -13.3864
           18936         63.9554         51.0383         63.6637        -15.0732
           18937         67.2113         39.8018         71.4033         15.0192
           18938         67.2824         39.8332         69.9523         16.6666
           18939         64.9562         41.8171         69.2812         13.7586
           18940         61.3116         45.4930         64.4866         12.4454
           18941         61.4846         45.1217         66.0145         11.0327
           18942         63.0940         43.4900         67.5164         12.4805
           18943         57.1666         50.6540         60.7426         5.45842
           18944         57.3269         50.7857         59.9410         7.26644
           18945         55.9463         55.2733         55.9747         3.44430
           18946         56.1069         55.3784         55.5897         4.81217
           18947         55.8497         56.6306         55.0344    -54.6353E-03
           18948         55.7957         55.6283         55.9457     545.104E-03
           18949         55.8732         56.2783         55.2607         1.89757
           18950         55.9120         57.2773         54.3410         1.29381
           18951         56.1555         58.0956         53.4191        -3.06359
           18952         56.1663         58.5967         53.2450        -1.41783
           18953         56.3278         59.2210         52.6058        -2.13663
           18954         58.0664         63.6432         49.1574        -3.33345
           18955         57.6187         62.6236         49.8157        -3.47514
           18956         57.5433         62.6170         50.0049        -2.64643
           18957         57.9936         63.6359         49.3483        -2.50336
           18958         59.7498         66.2822         46.6724        -5.53620
           18959         59.1286         65.0884         47.2593        -5.83891
           18960         59.0596         65.1592         47.5459        -5.15586
           18961         60.6837         67.4421         45.1744        -6.83128
           18962         59.9237         66.0434         45.6805        -7.28708
           18963         59.8263         66.0404         46.0478        -6.79390
           18964         60.9233         67.5928         44.4468        -7.56362
           18965         61.5418         68.5224         43.8152        -7.62945
           18966         60.9330         67.4989         44.1338        -7.91458
           18967         62.1716         69.5341         43.5225        -7.35767
           18968         63.0332         70.9816         43.4368        -6.61437
           18969         62.9360         70.7248         43.1955        -7.02578
           18970         65.1170         73.6910         41.8883        -6.88034
           18971         65.2964         73.9116         41.6403        -6.94004
           18972         64.4670         72.7095         41.6319        -7.37434
           18973         64.6214         72.9461         41.1531        -7.37488
           18974         64.5674         72.8539         41.3553        -7.39125
           18975         65.5870         74.2968         41.4600        -6.90544
           18976         65.6443         74.5674         40.9856        -6.46132
           18977         65.4707         74.4474         40.8978        -6.22126
           18978         64.3881         72.9930         40.5220        -6.67407
           18979         65.9395         75.2830         41.3670        -5.27558
           18980         65.8674         75.1001         41.1741        -5.63790
           18981         66.7581         76.2290         41.5536        -5.37526
           18982         66.8291         76.4040         41.7492        -5.01220
           18983         66.1433         75.7602         42.0544        -4.19509
           18984         65.9817         75.4607         41.6159        -4.75208
           18985         66.9869         76.6884         42.1143        -4.55305
           18986         78.0616         89.9981         49.3434     4.50299E-03
           18987         78.7269         90.8166         48.8230     414.934E-03
           18988         77.0342         88.8554         47.9091     477.634E-03
           18989         77.9410         89.8460         44.2597         2.59077
           18990         78.6943         90.7650         45.0983         2.15935
           18991         79.3497         91.5139         44.9786         2.21202
           18992         78.6021         90.5979         44.1371         2.64289
           18993         76.3336         87.7777         42.2322         3.88949
           18994         75.5168         86.8038         42.0201         4.07082
           18995         75.9653         87.4013         42.5772         3.66125
           18996         76.7842         88.3741         42.7919         3.48243
           18997         74.9890         86.0568         41.3353         4.69570
           18998         73.9752         84.7447         40.8947         5.28835
           18999         73.8160         84.5904         41.0049         5.17966
           19000         74.7604         85.7276         40.9585         4.95216
           19001         73.5852         84.2779         40.9486         5.36333
           19002         73.8438         84.5779         40.9140         5.35287
           19003         71.2504         81.3820         41.2986         6.02696
           19004         71.9140         82.2471         41.2550         5.72040
           19005         71.7165         82.0464         41.4340         5.60885
           19006         71.0466         81.1739         41.4791         5.91396
           19007         72.1324         82.7824         41.8286         4.58978
           19008         71.1716         81.6136         42.1380         4.76209
           19009         68.4550         78.5540         44.0438         3.43079
           19010         67.9524         77.8271         44.1329         3.97853
           19011         68.5599         78.6027         43.8041         3.93222
           19012         67.2509         77.0738         44.8947         2.99856
           19013         67.1396         76.9809         45.1042         2.54542
           19014         66.2609         75.7690         45.5559         2.94092
           19015         65.2791         74.5670         46.8132     350.385E-03
           19016         65.0346         74.2117         46.8556         1.14080
           19017         65.9355         75.4727         46.2411         1.01045
           19018         66.1877         75.8241         46.2000     222.474E-03
           19019         65.0587         73.5834         47.3248        -4.50216
           19020         64.1668         72.2659         48.0206        -4.44538
           19021         64.0264         72.3023         48.1064        -3.45178
           19022         60.1569         65.2697         52.4962        -3.12422
           19023         60.7991         66.6215         51.5061        -3.49480
           19024         60.8567         66.2645         51.6200        -4.77867
           19025         60.2063         64.9134         52.6107        -4.40850
           19026         59.7422         63.0616         53.8929        -5.36947
           19027         59.8902         62.1726         54.3585        -6.98019
           19028         59.4025         60.8734         55.5664        -6.27099
           19029         60.5337         64.0175         52.7658        -7.29818
           19030         60.9919         63.6691         52.5861        -9.11168
           19031         62.8058         63.5965         51.2904        -13.3071
           19032         63.3579         65.7025         49.8968        -12.7287
           19033         64.7142         65.8434         48.8823        -15.0739
           19034         64.1862         63.7330         50.2767        -15.6472
           19035         61.6925         58.0327         56.2285        -13.4116
           19036         60.7472         58.2808         56.7429        -11.2670
           19037         61.8287         59.7367         54.5971        -13.3531
           19038         60.1041         58.3164         57.2790        -9.50639
           19039         59.5675         57.9966         58.0529        -7.77636
           19040         59.4950         59.7350         56.5081        -7.15858
           19041         81.3294         93.7913         51.0022     1.13713E-03
           19042         81.9049         94.5079         50.3074     305.675E-03
           19043         80.3526         92.7031         49.6320     354.601E-03
           19044         80.1525         92.4765         45.7636         1.84932
           19045         80.6128         92.9938         45.4573         1.95475
           19046         79.8109         92.0281         44.6749         2.31701
           19047         79.9308         92.0865         43.5515         2.75549
           19048         80.3797         92.5766         43.1772         2.79295
           19049         79.5678         91.6152         42.9319         3.04172
           19050         79.3925         91.3005         41.3877         3.32499
           19051         79.9923         92.0127         41.6338         3.15700
           19052         80.1107         92.1413         41.3390         3.04571
           19053         76.4927         87.9562         40.9605         3.64272
           19054         76.7558         88.2066         40.9555         3.92624
           19055         77.4155         89.0243         40.9094         3.47325
           19056         74.7715         86.1457         41.4730         2.73266
           19057         74.4099         85.7593         41.6388         2.53625
           19058         73.4089         84.5537         41.8668         2.98341
           19059         72.7647         83.8880         42.2717         2.35888
           19060         72.9631         84.0800         42.1236         2.67813
           19061         74.1107         85.4547         41.7970         2.20944
           19062         73.8742         85.2142         41.9441         1.90274
           19063         73.7398         85.1372         42.3243    -640.469E-03
           19064         75.1008         86.6970         41.7402    -301.414E-03
           19065         70.8942         81.7889         43.6439    -671.786E-03
           19066         69.4853         80.0832         44.2964    -199.501E-03
           19067         69.6489         80.2845         44.1026     599.148E-03
           19068         71.0438         81.9847         43.4516     122.222E-03
           19069         66.7626         75.9852         46.1439        -4.49027
           19070         67.6265         77.2201         45.6212        -4.16243
           19071         68.0595         77.6014         45.3436        -4.92625
           19072         69.1290         79.0058         44.7466        -4.82636
           19073         68.6092         77.9880         44.9917        -6.04578
           19074         63.4309         70.7272         48.6900        -5.60172
           19075         63.6756         70.4523         48.5236        -7.19067
           19076         62.7025         68.8616         49.4984        -7.02702
           19077         62.3942         65.4480         50.7063        -10.9100
           19078         63.0089         67.3075         49.6172        -10.2887
           19079         63.9442         67.5574         48.8163        -12.1069
           19080         69.5869         74.0195         43.5879        -15.1646
           19081         67.8238         72.6901         44.9981        -13.6906
           19082         68.4494         74.4651         44.5343        -12.5595
           19083         70.1926         75.7958         43.1231        -14.0350
           19084         74.2634         75.7920         39.9142        -20.0221
           19085         74.3947         73.5882         40.2446        -22.0700
           19086         71.5677         71.4613         42.5344        -20.3766
           19087         71.4615         73.6651         42.2054        -18.3300
           19088         76.6161         68.6229         40.9012        -27.6573
           19089         71.7516         68.9519         43.3436        -22.3896
           19090         75.3060         71.2559         40.3820        -24.7679
           19091         84.2669         97.2152         52.1856    -1.81825E-03
           19092         84.7671         97.8440         51.1994     240.547E-03
           19093         83.3787         96.2247         50.8335     268.570E-03
           19094         82.8201         95.4424         43.9143         2.06052
           19095         82.8946         95.4878         43.3439         2.13728
           19096         82.3236         94.8343         43.3632         2.27855
           19097         82.8126         95.3077         42.1477         2.23181
           19098         83.4674         96.0450         41.9928         1.99649
           19099         82.7522         95.2044         41.6326         2.18958
           19100         84.4749         97.0779         40.5689         1.21095
           19101         83.8180         96.3345         40.3911         1.25743
           19102         83.1995         95.6568         40.6088         1.56703
           19103         80.2867         92.3818         40.5431         2.10162
           19104         79.4115         91.4016         40.5721         2.17523
           19105         78.7062         90.5776         40.7156         2.61554
           19106         79.5757         91.5568         40.6869         2.54210
           19107         81.7996         94.0889         39.9696     725.006E-03
           19108         80.9861         93.1985         40.0603     710.925E-03
           19109         77.4906         89.3661         40.8573     380.289E-03
           19110         76.1155         87.8385         41.3205     188.765E-03
           19111         76.7043         88.1091         41.2258        -4.20868
           19112         75.9239         87.1811         41.5452        -4.46610
           19113         75.2861         86.5702         41.8139        -3.87455
           19114         72.4274         83.2056         43.0892        -4.12887
           19115         72.9223         83.5773         42.8317        -5.08900
           19116         71.7307         82.1662         43.3984        -5.04871
           19117         71.2404         81.7913         43.6575        -4.09080
           19118         67.8929         75.0899         45.0830        -10.3884
           19119         66.9362         74.4222         45.8227        -9.17070
           19120         67.8419         75.9471         45.2587        -8.63081
           19121         68.7915         76.6171         44.5158        -9.85068
           19122         71.8047         75.6822         41.7831        -16.7782
           19123         69.2143         72.0043         44.0096        -16.7136
           19124         79.9955         85.9436         36.5885        -16.5208
           19125         77.3727         83.4383         38.2492        -15.8434
           19126         77.6500         84.8024         38.6141        -14.3943
           19127         80.2711         87.3080         36.9531        -15.0723
           19128         83.5438         86.1465         33.0235        -20.9177
           19129         84.0967         84.4802         32.3693        -23.2533
           19130         80.0570         82.9142         35.5949        -20.1550
           19131         83.0351         87.4744         33.9902        -18.8060
           19132         86.5055         90.8554         31.6356        -19.1656
           19133         87.0022         89.5328         30.6600        -21.2783
           19134         66.3533         71.7803         46.2493        -11.9880
           19135         67.2352         70.8405         45.6718        -14.7388
           19136         65.7307         69.9288         46.9212        -13.0389
           19137         86.8703         100.256         52.9483    -2.17606E-03
           19138         87.3415         100.840         51.8055     147.708E-03
           19139         86.0743         99.3676         51.4778     204.909E-03
           19140         85.1271         98.1767         45.5423         1.29807
           19141         84.2051         97.1206         45.4439         1.46996
           19142         84.6857         97.7271         46.7015         1.16240
           19143         85.3574         98.3710         44.4476         1.38968
           19144         85.8809         99.0244         45.3729         1.15773
           19145         84.0642         96.7056         41.7798         1.78820
           19146         83.3698         95.8978         41.4634         1.93069
           19147         85.0875         97.7754         40.7809         1.17604
           19148         85.0910         97.7408         40.3289     925.720E-03
           19149         83.1901         95.6307         40.2669         1.24945
           19150         82.4831         94.8428         40.1899         1.26458
           19151         81.7771         94.0590         40.3957         1.64977
           19152         82.4823         94.8472         40.4724         1.63451
           19153         84.5708         97.0475         39.1518    -493.413E-03
           19154         85.0111         97.4790         38.8804        -1.01119
           19155         83.8125         96.2085         39.1433    -855.061E-03
           19156         83.3781         95.7754         39.4097    -333.844E-03
           19157         82.1391         94.3837         39.4441        -1.36379
           19158         80.3284         92.4667         40.0152    -685.602E-03
           19159         81.5769         93.8125         39.6637    -765.107E-03
           19160         77.4700         89.0213         40.9287        -3.88079
           19161         77.3417         89.0131         40.9844        -2.99122
           19162         78.1700         89.8507         40.6593        -3.53501
           19163         81.9324         91.7354         38.1163        -10.6662
           19164         81.3934         90.6864         38.0059        -11.5906
           19165         79.6530         89.5179         39.2389        -10.0670
           19166         80.8488         91.4826         39.1724        -8.49684
           19167         79.2606         89.9590         39.8791        -7.89006
           19168         81.4683         92.3880         39.0488        -7.83952
           19169         69.5292         77.8761         44.1580        -9.28334
           19170         70.6895         78.8811         43.3347        -10.2498
           19171         88.3191         101.918         47.9306     472.529E-03
           19172         87.6985         101.165         46.8454     671.223E-03
           19173         87.6943         101.228         48.5702     491.909E-03
           19174         89.3607         102.918         45.0850     465.664E-03
           19175         88.8143         102.244         44.3067     602.072E-03
           19176         88.8331         102.371         45.6578     554.343E-03
           19177         87.5988         100.688         42.0986     812.500E-03
           19178         87.0871         100.160         42.5058     973.012E-03
           19179         87.2511         100.114         40.3049     442.532E-03
           19180         87.3212         100.241         40.7515     599.268E-03
           19181         86.9802         99.7062         39.3870    -81.3013E-03
           19182         87.5323         100.262         39.0837    -388.838E-03
           19183         86.7427         99.4020         39.0578    -388.483E-03
           19184         86.1888         98.8407         39.3516    -73.7577E-03
           19185         86.1520         98.6748         38.5936        -1.18521
           19186         86.3992         98.8970         38.3946        -1.54521
           19187         85.2741         97.7232         38.6803        -1.37152
           19188         84.0862         96.4106         38.8183        -1.92604
           19189         82.9184         95.1680         39.1316        -1.94148
           19190         83.3105         95.6365         39.1327        -1.34786
           19191         82.3941         94.2873         39.0715        -4.32275
           19192         80.9659         92.8254         39.6041        -3.94573
           19193         81.0875         93.0360         39.5970        -3.44082
           19194         82.5065         94.4905         39.0589        -3.82813
           19195         82.7942         94.3200         38.7882        -6.12598
           19196         81.6376         93.1805         39.2423        -5.73754
           19197         82.0362         93.7173         39.1377        -5.26378
           19198         83.1860         94.8521         38.6859        -5.65159
           19199         81.8801         93.0413         39.0053        -7.19607
           19200         81.0896         92.4831         39.4158        -6.16690
           19201         82.4001         93.7558         38.8720        -6.66017
           19202         83.2325         91.1370         35.9086        -14.1994
           19203         83.4878         92.1452         36.4580        -13.0348
           19204         86.2313         94.9099         35.0791        -13.2508
           19205         91.0521         105.132         53.5154    -2.61267E-03
           19206         91.4497         105.596         52.4515     3.68709E-03
           19207         90.9758         105.041         51.3334     34.0953E-03
           19208         90.5663         104.577         52.3971     26.8592E-03
           19209         90.8868         104.799         47.5877     149.830E-03
           19210         90.8566         104.656         45.9939     191.831E-03
           19211         90.8337         104.508         44.5658     204.722E-03
           19212         90.8101         104.354         43.2841     179.554E-03
           19213         90.3434         103.902         43.8872     276.788E-03
           19214         90.7957         104.207         42.1293     105.308E-03
           19215         90.7481         104.025         41.0881    -19.1681E-03
           19216         90.2396         103.540         41.6367     141.017E-03
           19217         91.6104         104.681         39.1967    -602.208E-03
           19218         91.0768         104.184         39.6936    -408.013E-03
           19219         89.3853         102.146         38.3706        -1.00625
           19220         88.7575         101.514         38.6262    -810.963E-03
           19221         89.3425         102.053         38.1274        -1.23431
           19222         90.2294         103.011         38.1344        -1.16176
           19223         90.1896         102.920         37.8921        -1.38443
           19224         89.1643         101.529         37.0394        -3.20042
           19225         89.3893         101.875         37.2418        -2.51114
           19226         87.5184         99.6064         37.2897        -4.53882
           19227         88.9837         101.087         36.7723        -4.63999
           19228         89.0754         101.093         36.6781        -5.07343
           19229         87.5981         99.6020         37.1983        -4.97245
           19230         90.2458         101.783         36.0234        -7.15001
           19231         91.4313         103.036         35.6425        -6.96096
           19232         92.0372         103.516         35.3794        -7.43555
           19233         90.8530         102.264         35.7604        -7.62601
           19234         88.2338         99.3452         36.5279        -8.37269
           19235         89.9702         101.150         35.9496        -8.31029
           19236         90.4703         101.435         35.6255        -8.95108
           19237         88.7314         99.6272         36.2022        -9.01514
           19238         92.6251         106.954         53.4781    -2.82778E-03
           19239         92.9512         107.321         52.4392    -24.7499E-03
           19240         92.5818         106.879         51.4248    -34.3605E-03
           19241         92.2451         106.512         52.4638    -13.1128E-03
           19242         92.5598         106.427         44.7172    -52.1455E-03
           19243         92.9555         106.797         44.0989    -119.887E-03
           19244         93.0346         106.619         41.9272    -247.601E-03
           19245         92.7776         106.247         41.2461    -284.148E-03
           19246         92.7097         105.706         38.2975    -980.304E-03
           19247         92.6605         105.551         37.7581        -1.24832
           19248         92.1811         105.119         38.1881        -1.05802
           19249         91.7931         104.363         36.6837        -2.38460
           19250         92.1381         104.765         36.7661        -2.14661
           19251         93.2003         105.808         36.3480        -2.29272
           19252         93.9305         106.322         35.4753        -3.26389
           19253         93.2095         105.540         35.5807        -3.58462
           19254         91.0563         103.125         36.0047        -4.94037
           19255         89.9792         102.131         36.4661        -4.47538
           19256         91.2339         103.446         36.0832        -4.21019
           19257         100.245         111.613         32.9955        -7.86843
           19258         98.1741         109.374         33.3678        -8.40071
           19259         94.5976         105.984         34.5116        -7.80333
           19260         93.8407         108.354         53.3444    -2.56512E-03
           19261         94.0935         108.625         52.3177    -34.0998E-03
           19262         93.8297         108.297         51.3623    -62.6358E-03
           19263         93.5672         108.026         52.3892    -31.6505E-03
           19264         93.9458         107.950         44.7094    -180.765E-03
           19265         93.9850         107.840         43.3901    -228.756E-03
           19266         93.6613         107.570         44.0924    -185.716E-03
           19267         94.8901         108.552         41.3886    -385.850E-03
           19268         95.1162         108.861         41.8306    -337.120E-03
           19269         95.3981         109.066         41.1620    -383.816E-03
           19270         95.3822         108.334         37.1070        -1.22847
           19271         94.8864         107.776         36.9738        -1.36529
           19272         94.7468         107.764         37.6501        -1.09586
           19273         96.0204         108.838         36.2736        -1.46112
           19274         96.0141         108.741         35.8877        -1.70333
           19275         95.2839         108.029         36.2029        -1.74300
           19276         95.3031         108.136         36.5791        -1.50392
           19277         95.6062         108.085         35.1351        -2.66249
           19278         96.4581         108.892         34.7287        -2.72566
           19279         96.1440         108.508         34.6493        -3.10375
           19280         95.2924         107.701         35.0553        -3.04263
           19281         98.8700         110.960         33.2980        -4.05090
           19282         99.4207         111.435         33.0838        -4.43215
           19283         98.1502         110.152         33.5068        -4.76477
           19284         97.5991         109.677         33.7188        -4.38583
           19285         103.237         115.155         32.7691        -5.68083
           19286         102.044         113.733         32.9063        -6.76918
           19287         101.548         113.255         32.8678        -6.51859
           19288         102.139         113.987         32.6788        -5.67070
           19289         104.321         116.365         32.6192        -4.95919
           19290         94.9753         109.651         53.1325    -1.30220E-03
           19291         95.1166         109.782         52.0575    -21.7544E-03
           19292         95.0233         109.637         51.0566    -50.1716E-03
           19293         94.8708         109.506         52.1322    -29.3637E-03
           19294         94.8902         109.110         45.8774    -170.885E-03
           19295         95.1324         109.287         45.0317    -188.595E-03
           19296         94.9646         109.032         44.4073    -211.494E-03
           19297         94.7172         108.855         45.2530    -193.481E-03
           19298         95.2214         109.217         43.6227    -237.056E-03
           19299         95.0428         108.950         43.0577    -265.236E-03
           19300         95.6705         109.255         40.4914    -417.621E-03
           19301         95.5688         109.315         41.5927    -325.743E-03
           19302         95.8388         109.504         40.9217    -359.393E-03
           19303         96.2030         109.452         38.3311    -681.347E-03
           19304         96.0108         109.194         38.0517    -782.124E-03
           19305         95.6923         108.927         38.4462    -750.767E-03
           19306         95.8871         109.187         38.7269    -651.885E-03
           19307         97.2742         110.186         36.2899    -986.260E-03
           19308         97.1138         109.961         36.0471        -1.16094
           19309         96.6053         109.500         36.4289        -1.19137
           19310         97.3851         110.000         35.0070        -1.74678
           19311         98.0189         110.577         34.5994        -1.75954
           19312         99.6569         112.029         33.4556        -1.79694
           19313         99.1487         111.584         33.8190        -1.76384
           19314         99.3946         111.857         33.8122        -1.42305
           19315         100.151         112.466         33.1429        -1.88778
           19316         100.960         113.238         32.7732        -1.55445
           19317         104.839         116.969         32.4282        -4.11441
           19318         104.198         116.285         32.1930        -3.75062
           19319         105.056         117.221         32.2537        -3.49141
           19320         95.2610         109.976         53.0666    -106.957E-06
           19321         95.3134         110.007         52.1004    -552.916E-06
           19322         95.3257         109.982         51.1173    -11.2603E-03
           19323         95.2633         109.950         52.0844    -11.3574E-03
           19324         95.9793         110.083         43.9362    -103.423E-03
           19325         95.9460         109.986         43.4677    -141.594E-03
           19326         95.7971         109.988         44.7938    -103.096E-03
           19327         96.6784         110.241         39.8961    -253.653E-03
           19328         96.5058         110.147         40.4478    -253.296E-03
           19329         96.7216         110.335         40.1835    -181.874E-03
           19330         97.2114         110.645         38.9446     29.1226E-03
           19331         97.1669         110.619         39.0602    -54.9192E-03
           19332         96.8637         110.481         40.1383    -34.2341E-03
           19333         98.7825         111.542         35.1309    -503.311E-03
           19334         98.7825         111.475         34.8524    -762.884E-03
           19335         98.2572         111.032         35.3684    -899.654E-03
           19336         98.2688         111.111         35.6465    -641.044E-03
           19337         101.563         113.789         32.4649        -1.55760
           19338         102.225         114.409         32.2006        -1.59671
           19339         101.925         114.091         32.2892        -2.11645
           19340         106.644         118.995         32.0534    -30.2593E-03
           19341         107.089         119.519         32.3127    -622.946E-03
           19342         106.495         118.830         32.0938        -1.22666
           19343         95.1657         109.867         53.0889     1.33387E-03
           19344         95.1331         109.801         52.0632     20.7424E-03
           19345         95.2701         109.958         52.0949     10.0695E-03
           19346         95.7942         110.118         45.9991     11.7730E-03
           19347         95.7497         110.078         46.0849     42.7864E-03
           19348         95.8586         110.108         45.2563     50.3407E-03
           19349         95.9041         110.148         45.1657     17.0301E-03
           19350         96.1556         110.223         43.5352    -12.4717E-03
           19351         96.2099         110.192         42.8605     88.8693E-03
           19352         96.3475         110.282         42.4432     39.3697E-03
           19353         99.1354         111.758         34.4689     810.845E-03
           19354         99.5592         112.115         34.0730     687.687E-03
           19355         99.5671         112.162         34.2204     376.480E-03
           19356         100.330         112.761         33.3898     639.937E-03
           19357         99.9929         112.502         33.7627     320.336E-03
           19358         99.9291         112.428         33.7511     630.020E-03
           19359         102.330         114.523         32.1706         1.32867
           19360         102.500         114.705         32.1204     754.806E-03
           19361         103.883         116.045         31.7278     338.499E-03
           19362         104.326         116.491         31.7094     866.912E-03
           19363         104.916         117.096         31.6575     412.622E-03
           19364         104.477         116.649         31.6752    -117.375E-03
           19365         107.594         120.490         34.5648         3.08403
           19366         106.536         119.016         33.5637         4.21269
           19367         106.629         119.216         33.9677         4.20685
           19368         107.683         120.684         34.9702         3.07462
           19369         107.019         119.435         32.2686     630.822E-03
           19370         105.984         118.242         31.8128     528.174E-03
           19371         94.6909         109.326         53.1923     2.30558E-03
           19372         94.5666         109.160         52.1656     34.5781E-03
           19373         94.9004         109.537         52.0572     30.1406E-03
           19374         95.2670         109.578         46.4067     134.705E-03
           19375         95.4179         109.580         44.8549     168.408E-03
           19376         95.4526         109.444         43.4262     224.221E-03
           19377         95.6380         109.699         43.8404     188.958E-03
           19378         96.5815         110.262         40.6542     179.213E-03
           19379         96.5576         110.171         40.2582     260.185E-03
           19380         96.8565         110.136         38.2458     512.595E-03
           19381         97.1624         110.321         37.5124     560.797E-03
           19382         97.4129         110.615         37.6418     387.364E-03
           19383         97.6982         110.758         36.8410     481.263E-03
           19384         97.4266         110.489         36.9461     624.115E-03
           19385         97.9401         110.875         36.1735     624.634E-03
           19386         99.1302         111.695         34.2498         1.07860
           19387         98.5806         111.267         34.8949     950.704E-03
           19388         98.5724         111.201         34.6743         1.21625
           19389         99.9124         112.285         33.3684         1.62157
           19390         100.301         112.671         33.2260         1.31983
           19391         99.5048         111.940         33.6913         1.51589
           19392         101.390         113.572         32.4800         2.24611
           19393         101.675         113.880         32.4078         1.78002
           19394         100.985         113.237         32.7110         1.77914
           19395         103.736         115.855         31.8947         2.35777
           19396         103.794         115.935         31.8319         1.78588
           19397         102.939         115.074         31.9905         2.01518
           19398         102.885         114.995         32.0543         2.58594
           19399         105.187         117.369         33.1445         5.17818
           19400         106.307         118.714         33.1929         3.94870
           19401         104.952         117.073         32.7880         4.91055
           19402         104.349         116.421         32.6164         4.76715
           19403         105.161         117.326         32.4566         3.99483
           19404         103.088         115.045         32.4745         4.93822
           19405         93.8407         108.354         53.3438     2.43936E-03
           19406         93.6195         108.086         52.4169     31.2738E-03
           19407         94.1370         108.675         52.3024     34.4415E-03
           19408         93.0231         107.110         46.5673     80.6741E-03
           19409         93.2747         107.453         47.3586     97.5729E-03
           19410         92.9317         107.124         48.1235     66.5354E-03
           19411         92.6741         106.782         47.3322     49.6909E-03
           19412         94.5734         108.617         44.5244     210.069E-03
           19413         94.2980         108.274         44.1652     218.721E-03
           19414         94.4919         108.379         43.2823     255.914E-03
           19415         94.7641         108.721         43.6437     247.122E-03
           19416         94.8598         108.550         41.5967     361.367E-03
           19417         95.1902         108.948         41.8783     337.617E-03
           19418         94.9787         108.836         42.7236     284.233E-03
           19419         94.6473         108.438         42.4417     308.839E-03
           19420         96.4793         109.479         36.9656         1.00112
           19421         96.4525         109.537         37.3880     863.732E-03
           19422         95.9579         109.045         37.5735     933.229E-03
           19423         95.9712         108.976         37.1611         1.06350
           19424         97.1252         109.467         34.2623         2.99777
           19425         97.4886         109.881         34.2684         2.67170
           19426         96.6063         109.054         34.7104         2.61656
           19427         99.2885         111.410         33.1640         3.69241
           19428         98.6473         110.724         33.3653         4.18480
           19429         99.6224         111.654         33.0255         4.27325
           19430         100.265         112.340         32.8247         3.78064
           19431         99.9162         111.862         32.9653         4.86464
           19432         102.070         114.007         32.5560         4.91420
           19433         101.126         112.977         32.7736         5.51714
           19434         102.131         114.004         32.6955         5.54546
           19435         106.285         118.635         32.7722         3.46964
           19436         107.555         120.289         33.8931         2.98638
           19437         107.535         120.199         33.4701         2.51382
           19438         92.6248         106.954         53.4788     1.86083E-03
           19439         92.3211         106.599         52.5267     14.2923E-03
           19440         93.0152         107.396         52.4978     24.6140E-03
           19441         92.7032         106.480         43.7316     96.8095E-03
           19442         92.9300         106.806         44.4395     107.056E-03
           19443         92.3295         106.135         44.3324     36.8396E-03
           19444         93.5432         107.032         40.9469     389.398E-03
           19445         93.4653         107.032         41.5363     320.311E-03
           19446         92.9089         106.432         41.5523     265.547E-03
           19447         92.9817         106.428         40.9635     338.414E-03
           19448         93.9921         107.108         38.4539     887.420E-03
           19449         93.4018         106.493         38.5505     884.400E-03
           19450         93.5525         106.570         38.0887         1.04387
           19451         94.1449         107.186         37.9925         1.04419
           19452         93.8971         106.679         36.8194         1.67462
           19453         94.6244         107.364         36.3920         1.78700
           19454         95.1282         107.946         36.5716         1.55783
           19455         94.4134         107.275         37.0031         1.44596
           19456         94.3455         106.723         35.2956         3.28071
           19457         94.2432         106.704         35.5376         2.89586
           19458         93.6454         106.072         35.6525         3.10312
           19459         95.8195         107.876         34.3237         4.78696
           19460         96.8223         108.915         34.0063         4.44933
           19461         95.8450         108.011         34.4127         4.18904
           19462         99.9451         111.072         32.7629         8.51784
           19463         100.146         111.465         32.9668         8.01313
           19464         98.4822         109.920         33.4307         7.60458
           19465         98.7362         110.292         33.3994         7.13260
           19466         97.1290         108.639         33.7973         7.32751
           19467         91.0520         105.132         53.5150     991.670E-06
           19468         90.6631         104.689         52.3745    -23.6094E-03
           19469         91.5383         105.699         52.4896    -660.183E-06
           19470         91.6659         105.390         44.1945    -54.8174E-03
           19471         92.0605         105.765         43.6399     13.8482E-03
           19472         91.9384         105.759         44.8866    -32.0643E-03
           19473         91.8782         105.389         42.1368     84.3345E-03
           19474         91.4387         104.949         42.4581    -18.2388E-03
           19475         91.1969         104.618         41.9081    -4.64166E-03
           19476         91.5265         104.553         38.9638     689.868E-03
           19477         92.1995         105.248         38.8033     784.349E-03
           19478         92.1457         105.263         39.2397     630.225E-03
           19479         91.4771         104.570         39.4015     535.336E-03
           19480         90.4741         103.270         38.1072         1.16885
           19481         90.6960         103.431         37.7198         1.46663
           19482         91.7495         104.512         37.4725         1.56375
           19483         91.5249         104.352         37.8591         1.27359
           19484         91.5448         103.666         35.8754         4.68603
           19485         91.6137         103.885         36.0322         3.90815
           19486         92.5962         104.236         35.2540         6.85184
           19487         94.1310         105.691         34.7185         7.16906
           19488         95.0262         106.712         34.4612         6.64471
           19489         93.9004         104.879         34.4731         9.03450
           19490         93.3683         104.087         34.3926         9.67098
           19491         89.3774         100.746         36.2585         7.67676
           19492         88.3329         99.4918         36.5189         8.24169
           19493         89.9578         101.024         35.8860         8.64217
           19494         89.1325         102.898         53.3662    -252.126E-06
           19495         88.6245         102.329         52.0924    -93.2594E-03
           19496         89.6949         103.570         52.2078    -56.9343E-03
           19497         89.6641         103.375         46.7406    -358.040E-03
           19498         90.2381         104.026         46.8458    -267.607E-03
           19499         90.1768         104.018         47.8874    -223.010E-03
           19500         89.5693         103.186         45.5448    -418.975E-03
           19501         89.9910         103.696         46.0614    -323.427E-03
           19502         89.2369         102.862         46.2149    -451.152E-03
           19503         88.9957         102.152         41.4067    -357.178E-03
           19504         89.7051         102.874         40.9660    -145.520E-03
           19505         90.2553         103.558         41.6450    -142.219E-03
           19506         87.0599         99.9621         40.8291    -672.902E-03
           19507         88.1987         101.230         40.9835    -473.972E-03
           19508         88.4207         101.213         39.0106     480.102E-03
           19509         88.7069         101.567         39.3038     311.014E-03
           19510         88.4627         101.092         38.0934         1.40015
           19511         87.4756         100.041         38.2235         1.49046
           19512         89.2293         101.816         37.6387         1.90998
           19513         86.2079         98.5536         38.0676         2.68025
           19514         87.3253         99.6240         37.5782         3.28248
           19515         88.4814         100.839         37.2758         3.15399
           19516         87.1456         99.1311         37.3553         5.00115
           19517         86.4852         98.5464         37.6404         4.50264
           19518         87.3731         99.0316         37.1089         6.44687
           19519         85.2578         96.8470         37.8711         6.40411
           19520         85.5669         96.6726         37.5189         8.07203
           19521         87.3376         100.800         47.8859    -611.376E-03
           19522         87.8208         101.313         47.0398    -630.473E-03
           19523         88.0159         101.601         48.7766    -433.741E-03
           19524         85.7483         98.8381         44.8013        -1.25473
           19525         86.2510         99.3641         44.2029        -1.19659
           19526         86.4731         99.7008         45.4691        -1.03454
           19527         87.0280         100.057         42.1191    -968.420E-03
           19528         87.7917         100.951         42.5935    -794.988E-03
           19529         85.3416         98.0037         40.1802    -779.611E-03
           19530         86.0471         98.8249         40.6345    -870.352E-03
           19531         80.2957         92.4401         40.2315    -940.579E-03
           19532         80.1626         92.3000         40.1680    -512.551E-03
           19533         81.2253         93.4600         39.9263    -236.191E-03
           19534         82.9983         95.3344         39.3059     879.307E-03
           19535         81.7879         94.0416         39.6268     759.512E-03
           19536         83.6146         95.9462         39.0324         1.55153
           19537         83.7534         96.0140         38.8313         2.33903
           19538         81.8512         93.9806         39.3962         2.42772
           19539         82.9799         95.1390         39.0087         2.81679
           19540         81.4474         92.9899         39.3212         5.68261
           19541         79.1160         90.6664         40.2588         4.77103
           19542         74.8594         85.5346         41.9006         6.21953
           19543         76.9050         87.7935         41.0155         6.46276
           19544         76.3094         87.3902         41.3415         5.47135
           19545         74.2894         85.1416         42.2251         5.22702
           19546         84.2665         97.2147         52.1885    -3.40093E-03
           19547         83.5632         96.4398         50.8883    -262.031E-03
           19548         84.2562         97.2727         50.0347    -473.704E-03
           19549         84.9444         98.0481         51.3335    -215.084E-03
           19550         84.0859         97.0346         46.5577        -1.26697
           19551         83.9095         96.7677         45.1773        -1.58423
           19552         83.6649         96.4154         44.0063        -1.84529
           19553         83.3481         95.9834         43.0215        -2.04831
           19554         84.1804         96.9733         43.5727        -1.76315
           19555         82.9509         95.4707         42.2182        -2.19211
           19556         82.4691         94.8773         41.5800        -2.27706
           19557         83.3999         95.9619         41.9024        -2.00631
           19558         79.8076         91.7971         40.8610        -2.81896
           19559         80.8499         92.9997         40.9797        -2.55151
           19560         81.9403         94.2399         40.3271        -1.54959
           19561         80.9033         93.0817         40.4410        -1.82439
           19562         80.9490         93.1389         40.3188        -1.58379
           19563         81.9927         94.3003         40.2016        -1.30677
           19564         80.3136         92.4456         40.2921        -1.34731
           19565         78.9778         90.9558         40.5495        -1.68284
           19566         80.5451         92.7044         39.9537     571.396E-03
           19567         81.5000         93.7495         39.7748     203.283E-03
           19568         80.2591         92.4070         40.1020     17.4201E-03
           19569         76.9336         88.7153         41.1115         1.34638
           19570         76.6147         88.3923         41.1874     532.797E-03
           19571         74.9477         86.5245         41.8103     243.150E-03
           19572         72.8960         82.5992         42.5466         8.06839
           19573         70.7459         80.2084         43.7305         7.45657
           19574         71.0348         80.0733         43.3817         8.67850
           19575         75.7663         84.2104         40.3601         11.8173
           19576         75.5397         83.1485         40.0842         13.1499
           19577         76.9631         84.9333         39.4190         12.9586
           19578         76.6965         81.7194         38.3857         17.0066
           19579         77.0929         83.3368         38.5451         15.5434
           19580         81.3297         93.7916         51.0021    -6.05171E-03
           19581         80.5566         92.9421         49.6795    -362.432E-03
           19582         81.3436         93.8874         49.0206    -666.540E-03
           19583         82.1007         94.7375         50.3419    -310.349E-03
           19584         80.8971         93.2074         43.5983        -2.55636
           19585         80.0438         92.1779         43.0535        -2.89937
           19586         79.3050         91.2133         41.7497        -3.39175
           19587         79.7464         91.7196         41.5371        -3.23742
           19588         75.0485         86.5560         41.5183        -1.84615
           19589         73.7930         85.1458         42.0077        -1.60493
           19590         73.4778         84.8436         42.3312    -232.257E-03
           19591         71.9959         83.0969         42.8927    -963.290E-03
           19592         71.5331         82.5657         43.1785    -433.306E-03
           19593         71.9836         83.0152         43.2166         1.83211
           19594         71.7686         82.8108         43.2650         1.16156
           19595         65.6691         74.5607         46.8829         4.11251
           19596         64.3252         72.6180         47.8869         4.02723
           19597         66.2143         75.5378         46.4804         3.10792
           19598         67.3519         76.9654         45.7877         3.65920
           19599         66.3083         75.7890         46.3915         2.35314
           19600         70.0768         77.0142         43.4431         12.0831
           19601         70.6068         78.2311         43.2192         11.2309
           19602         69.0460         76.9697         44.3903         9.81880
           19603         68.4969         75.7498         44.5970         10.6945
           19604         68.2323         73.6229         44.6744         13.2736
           19605         67.1290         71.6110         45.6326         13.7068
           19606         69.1393         72.7682         43.9738         15.8244
           19607         76.6313         68.5503         40.9506         27.7094
           19608         71.2812         66.9722         44.5049         23.0625
           19609         78.0619         89.9984         49.3452    -9.12538E-03
           19610         77.2217         89.0736         47.9899    -480.418E-03
           19611         78.1085         90.1289         47.5452    -889.141E-03
           19612         78.9310         91.0546         48.8987    -418.026E-03
           19613         77.9894         89.7800         42.9047        -3.31965
           19614         77.7887         89.4719         42.2265        -3.69035
           19615         78.6123         90.4877         42.7506        -3.29926
           19616         75.3243         86.4199         41.2051        -4.77609
           19617         76.6071         87.9834         41.4174        -4.32865
           19618         76.1478         87.4413         41.4597        -4.43041
           19619         75.3274         86.4483         40.9926        -4.62771
           19620         75.5139         86.7030         40.9928        -4.42468
           19621         76.2667         87.6052         40.9937        -4.19224
           19622         74.4800         85.5942         41.2696        -4.08929
           19623         74.9620         86.1158         41.1020        -4.22392
           19624         73.7816         84.6561         41.2284        -4.74445
           19625         73.3042         84.1368         41.3964        -4.61152
           19626         74.0671         85.1716         41.4271        -3.82756
           19627         75.3859         86.7581         41.2121        -3.32251
           19628         71.4133         82.2765         42.7907        -2.58607
           19629         72.5283         83.6404         42.4405        -2.09596
           19630         70.7247         81.5525         43.3549        -1.55107
           19631         72.3349         83.4645         42.6272        -1.50501
           19632         71.0702         81.9210         43.0905        -2.09321
           19633         68.2957         78.5950         44.8698    -352.791E-03
           19634         69.8340         80.5161         44.0109    -440.165E-03
           19635         68.6642         79.0472         44.5633        -1.00543
           19636         62.0196         69.4344         49.7744         1.13399
           19637         62.9680         70.9277         48.9384         1.85747
           19638         63.0627         71.2130         48.7160     726.241E-03
           19639         62.1372         69.7144         49.5527     2.77201E-03
           19640         66.5760         76.3229         46.0659     576.299E-03
           19641         66.4069         76.0356         46.2451         1.42926
           19642         67.8059         77.9092         45.3565         1.19400
           19643         67.3217         75.4393         45.6267         8.19291
           19644         69.8047         78.4344         44.0162         8.86384
           19645         64.0998         67.2393         48.8131         12.7424
           19646         65.1208         66.5940         48.3257         15.1523
           19647         69.6834         68.0091         44.8637         20.5664
           19648         67.2651         65.3383         47.5556         19.1586
           19649         68.8105         64.2826         47.2076         21.6695
           19650         72.5576         83.6489         45.9186    -15.5113E-03
           19651         71.6075         82.5898         44.4986    -723.307E-03
           19652         72.6304         83.7745         44.3569        -1.34812
           19653         73.5524         84.8328         45.7753    -638.844E-03
           19654         76.5532         88.1523         43.1663        -3.23746
           19655         75.7712         87.1734         42.5265        -3.68547
           19656         77.2912         88.9916         43.0846        -3.28124
           19657         74.9811         86.0792         41.4916        -4.56656
           19658         75.0367         86.2337         41.9293        -4.15995
           19659         74.2938         85.2845         41.4737        -4.58694
           19660         72.7648         83.2057         40.6983        -5.81707
           19661         73.2207         83.7755         40.7787        -5.66515
           19662         73.8482         84.5713         40.8708        -5.39534
           19663         73.3912         84.0042         40.7879        -5.54556
           19664         72.8407         83.3216         40.8937        -5.72442
           19665         73.5117         84.1820         40.9572        -5.40773
           19666         74.3279         85.1809         40.9317        -5.16538
           19667         73.6473         84.3176         40.8650        -5.48219
           19668         71.0301         81.1728         41.5299        -5.84841
           19669         72.1313         82.6308         41.5228        -5.22797
           19670         72.8296         83.4444         41.2546        -5.21852
           19671         71.7053         81.9699         41.2612        -5.83894
           19672         68.6749         78.0583         41.9841        -6.77479
           19673         68.6055         77.9008         41.7326        -7.01372
           19674         67.6116         76.5289         41.9295        -7.42502
           19675         67.6924         76.7061         42.1894        -7.18048
           19676         67.0273         76.4798         44.3601        -4.77251
           19677         68.1180         77.9827         43.9388        -4.26655
           19678         68.4491         78.3081         43.5164        -4.73060
           19679         67.3561         76.8030         43.9421        -5.23218
           19680         65.1215         73.6630         45.1523        -5.82808
           19681         64.2934         72.3303         45.5033        -6.39485
           19682         64.9993         74.1018         46.6779        -2.15462
           19683         64.6466         73.6458         47.0792        -1.43828
           19684         65.6943         75.1432         46.4522    -817.912E-03
           19685         60.2072         65.4713         52.3876         2.81902
           19686         59.4852         64.0651         53.4155     999.840E-03
           19687         59.5969         64.0655         53.4251         2.29944
           19688         60.9345         67.4991         50.5333        -2.17776
           19689         61.5808         68.7327         49.8910        -1.63692
           19690         61.7502         68.9877         49.4926        -2.49332
           19691         60.7915         66.5448         51.5209         3.71684
           19692         61.6806         67.9752         50.5131         4.68815
           19693         60.8811         62.7718         53.1970         9.58401
           19694         61.6906         62.7353         52.5928         11.5965
           19695         63.0543         59.9448         53.5471         15.5461
           19696         62.1468         58.7721         55.2239         14.1893
           19697         62.8531         57.5340         55.8242         15.6609
           19698         63.7856         58.7087         54.1514         17.0165
           19699         67.5074         56.7083         53.6610         22.3974
           19700         65.8275         55.3351         56.1358         20.2183
           19701         67.3645         53.1786         57.4912         22.0762
           19702         68.5040         78.9976         43.0109    -15.4465E-03
           19703         67.4956         77.8558         41.6957    -784.880E-03
           19704         68.6014         79.1119         41.8483        -1.51457
           19705         69.5801         80.2537         43.1630    -747.924E-03
           19706         69.8403         79.8502         39.9943        -5.64560
           19707         70.7058         80.8658         40.2568        -5.62165
           19708         70.4438         80.6927         40.3626        -5.12650
           19709         70.1210         79.9320         40.0337        -6.45775
           19710         68.6143         77.9604         39.6608        -7.04973
           19711         69.5937         79.1819         39.9814        -6.85069
           19712         68.9113         78.1695         40.7295        -7.37575
           19713         69.3542         78.7622         40.5827        -7.21002
           19714         68.6268         77.7879         40.3899        -7.50969
           19715         68.2161         77.2252         40.5372        -7.67965
           19716         68.6560         77.8966         41.4099        -7.22662
           19717         68.5817         77.7503         41.0908        -7.40966
           19718         67.2808         75.9548         41.2533        -7.93969
           19719         67.3612         76.1110         41.5794        -7.75568
           19720         67.5218         76.5701         42.6180        -6.90846
           19721         66.7738         75.5526         42.9638        -7.08731
           19722         67.2369         76.2982         43.0985        -6.58883
           19723         68.0072         77.3310         42.7453        -6.41004
           19724         65.8119         74.1320         43.2047        -7.56889
           19725         66.2498         74.8363         43.2830        -7.17142
           19726         63.5059         71.0090         45.7701        -6.97393
           19727         62.5017         69.3926         46.6984        -7.09272
           19728         59.6548         64.4295         52.0379        -4.17785
           19729         59.7492         64.8283         52.1994        -2.97112
           19730         59.9983         65.3903         51.5986        -3.44173
           19731         59.1841         62.8012         54.4259         2.20626
           19732         59.9773         64.5669         52.9343         3.83627
           19733         61.7998         53.9677         61.0730         12.5533
           19734         61.5942         55.8055         58.7270         13.0130
           19735         61.2052         55.0229         60.1727         11.6715
           19736         68.2540         46.0096         69.5075         17.4016
           19737         68.3902         46.5754         67.5792         19.0484
           19738         66.2825         47.9361         67.6534         15.9328
           19739         76.3532         39.1434         75.2895         22.9215
           19740         77.3524         38.9299         73.5745         25.2909
           19741         64.1689         74.0345         39.6270    -19.4165E-03
           19742         63.1656         72.8772         38.4129    -945.425E-03
           19743         65.3639         75.4054         40.1107    -848.904E-03
           19744         66.8470         76.4619         38.9029        -5.26797
           19745         65.6316         74.9997         38.3313        -5.41930
           19746         65.4261         74.5744         38.1829        -6.02126
           19747         66.6416         76.0483         38.7360        -5.86210
           19748         67.3273         76.6134         39.0123        -6.58932
           19749         65.0384         72.7465         40.6161        -8.99911
           19750         64.6151         72.1477         40.3942        -9.17390
           19751         64.0991         71.3479         40.8098        -9.38822
           19752         64.5156         71.9418         41.0144        -9.22154
           19753         63.8645         70.9416         42.1750        -9.29496
           19754         64.8735         72.4798         41.8580        -8.88860
           19755         64.6422         72.1247         41.3442        -9.11493
           19756         62.5643         69.0593         44.9771        -8.72264
           19757         63.2317         70.2194         44.8317        -8.27969
           19758         63.5646         70.6801         44.1836        -8.47523
           19759         62.8888         69.5204         44.3295        -8.91840
           19760         61.3808         67.0916         46.7130        -8.52965
           19761         61.3063         67.0829         47.3523        -8.01315
           19762         61.8680         68.1794         47.0276        -7.61445
           19763         59.7600         64.2784         50.9835        -6.25485
           19764         60.1124         65.0458         50.1536        -6.56888
           19765         59.7229         63.9453         50.3787        -7.33235
           19766         59.3860         63.1821         51.2096        -7.01969
           19767         58.6142         60.9843         54.5309        -4.77669
           19768         58.6388         60.8928         53.8776        -6.01510
           19769         58.3437         58.8649         57.7852    -659.851E-03
           19770         58.4330         59.8967         56.8406    -414.222E-03
           19771         58.3870         59.8332         56.7146        -1.40281
           19772         58.5659         57.8404         59.0504         2.08181
           19773         58.6464         56.7732         60.2025         1.80338
           19774         58.7569         56.7147         60.2716         2.67299
           19775         60.0764         55.1594         61.1767         8.13425
           19776         59.7332         55.6459         60.8180         7.23503
           19777         59.8635         54.9665         61.7702         6.88139
           19778         60.2094         54.4855         62.1199         7.79419
           19779         61.8356         51.7528         65.3485         9.25245
           19780         62.2382         50.9715         66.8120         8.50810
           19781         63.0398         50.1637         67.5470         9.71987
           19782         71.3393         43.1690         77.8526         13.2354
           19783         73.4294         41.6711         79.9587         14.0709
           19784         73.0262         41.8364         78.5726         15.2324
           19785         77.8870         38.0522         82.3947         17.9334
           19786         75.3319         39.7632         78.2775         18.9647
           19787         75.1875         40.0798         79.5961         17.3343
           19788         96.1312         31.3060         107.874    -695.918E-03
           19789         94.7882         31.3229         106.432        -1.79446
           19790         95.7834         31.2486         107.468        -1.50490
           19791         97.0402         31.3586         108.830    -874.803E-03
           19792         97.8737         31.7162         109.795     502.473E-03
           19793         96.9428         31.3986         108.749    -238.694E-03
           19794         93.8407         28.3964         103.908        -7.15223
           19795         93.5302         29.3092         103.954        -6.56342
           19796         91.3608         29.7416         101.506        -7.69567
           19797         91.6859         28.8285         101.459        -8.29107
           19798         89.8673         27.3671         98.1753        -11.1886
           19799         89.5279         28.5751         98.5274        -10.1078
           19800         86.7232         29.8380         95.5305        -10.8776
           19801         87.0785         28.6327         95.1754        -11.9669
           19802         84.3915         29.0532         91.4444        -13.8145
           19803         87.5308         27.3127         94.6992        -13.3442
           19804         75.4334         35.4990         83.6275        -11.6212
           19805         77.9597         33.9735         86.0740        -12.0971
           19806         78.3983         34.4481         87.3164        -10.6983
           19807         75.9033         35.9488         84.8965        -10.2224
           19808         64.4022         42.4365         70.6082        -10.9184
           19809         64.6997         42.0542         70.0743        -12.3019
           19810         66.2441         40.7761         71.8055        -12.8778
           19811         68.4561         39.7878         76.2205        -10.4284
           19812         66.0355         41.6189         73.9323        -8.93594
           19813         57.3223         50.1047         61.8800        -3.94556
           19814         56.7964         51.1754         60.7679        -2.82794
           19815         56.6486         51.5562         59.9780        -3.91168
           19816         57.2148         50.4875         61.1055        -5.02407
           19817         59.7097         46.9563         64.5182        -8.70422
           19818         61.0908         45.4968         66.0066        -10.1382
           19819         59.8487         46.7978         65.5990        -7.26847
           19820         63.6605         43.6188         71.8251        -6.43277
           19821         64.8077         42.8688         73.3478        -6.49983
           19822         64.1797         43.4743         72.9316        -5.18504
           19823         63.0471         44.2254         71.4030        -5.11496
           19824         65.4277         42.2431         73.7053        -7.68938
           19825         66.0449         42.1070         74.9295        -6.57153
           19826         56.4315         52.1074         59.8678         1.25654
           19827         56.1588         52.9000         58.9060     733.330E-03
           19828         56.2947         52.4348         59.4838    -355.480E-03
           19829         56.5633         51.6481         60.4460     169.127E-03
           19830         55.9593         54.6620         56.5465         3.50919
           19831         55.9490         54.4203         57.0361         2.55089
           19832         56.0812         53.5182         57.9394         2.87184
           19833         56.0830         56.3081         54.2085         5.43182
           19834         56.0265         55.8887         54.9283         4.76694
           19835         56.0475         54.8925         55.5974         5.44523
           19836         56.2426         56.5513         53.0611         7.07978
           19837         56.3052         57.3552         52.6823         6.50211
           19838         56.1982         56.8171         53.4832         6.00993
           19839         57.3595         60.5137         48.7776         8.17842
           19840         57.5275         60.8334         48.1944         8.52144
           19841         57.8535         61.7486         47.8519         8.14720
           19842         57.6738         61.4236         48.4334         7.80090
           19843         57.7159         61.2415         47.5679         8.77537
           19844         57.8874         61.5649         47.0122         9.03455
           19845         58.3086         62.6178         46.7221         8.59427
           19846         58.1280         62.2931         47.2745         8.33531
           19847         57.1627         59.8431         45.0882         10.8266
           19848         58.9649         63.7024         43.6572         9.89915
           19849         58.7229         63.3176         42.9149         10.2445
           19850         59.0443         64.3013         41.0372         10.1038
           19851         58.9066         64.2636         40.4845         10.0477
           19852         61.2810         68.1360         40.3658         8.82825
           19853         60.4899         67.0075         40.0770         9.09787
           19854         60.7110         67.4807         39.8236         8.82402
           19855         61.2670         68.8217         39.2774         7.69516
           19856         61.0875         68.3761         39.4074         8.12355
           19857         60.2943         67.5484         38.8351         7.91000
           19858         58.8427         67.1775         37.8891         4.44810
           19859         57.8749         66.1826         37.3647         3.92182
           19860         58.6906         67.2810         38.1206         3.13384
           19861         59.0440         67.0927         37.8576         5.52383
           19862         59.7468         68.1377         38.4120         4.78720
           19863         59.5817         68.7797         35.8038    -25.3347E-03
           19864         58.5858         67.6084         34.7772        -1.03003
           19865         60.9241         70.2974         36.6406        -1.03600
           19866         61.3470         69.9386         36.0526        -5.58925
           19867         61.1941         69.4111         36.0511        -6.56969
           19868         60.4428         68.2227         35.8104        -7.29592
           19869         61.5076         69.6081         36.3043        -6.99907
           19870         62.7140         69.9805         38.2627        -9.11748
           19871         63.3778         70.7438         38.7543        -9.16140
           19872         64.2189         72.0337         38.6790        -8.66676
           19873         63.5551         71.2712         38.1896        -8.62247
           19874         61.3513         67.4713         39.4498        -10.2801
           19875         60.5761         66.4132         39.0272        -10.4490
           19876         60.1416         65.5761         39.5079        -10.7501
           19877         60.9084         66.6351         39.9327        -10.5814
           19878         59.4621         63.3227         44.0864        -11.1660
           19879         60.1609         64.6973         43.4357        -10.9104
           19880         59.6090         63.7104         43.3359        -11.2126
           19881         60.1435         64.5870         48.1536        -8.88975
           19882         60.5136         65.3371         47.3251        -9.04390
           19883         60.0783         64.3470         47.2684        -9.59418
           19884         59.7209         63.5986         48.0976        -9.44025
           19885         59.4430         62.9304         48.9785        -9.24796
           19886         59.1879         62.3309         49.8059        -8.97943
           19887         59.6001         63.4416         49.7336        -8.34848
           19888         59.8645         64.0403         48.9067        -8.61654
           19889         58.1561         55.8604         57.8860        -6.94001
           19890         58.2413         54.8336         58.7570        -7.18314
           19891         58.2958         55.0226         59.1611        -6.48260
           19892         58.2153         56.0510         58.2892        -6.24086
           19893         58.0690         56.9199         56.1907        -7.59613
           19894         58.1520         57.6424         56.1047        -6.95902
           19895         58.1925         58.3565         55.2083        -7.18088
           19896         58.3453         56.6853         59.4733        -2.89488
           19897         58.4867         55.7446         60.4668        -3.03852
           19898         58.5187         55.8307         60.6601        -2.19285
           19899         60.2313         52.5025         65.6228         1.85348
           19900         59.7426         53.4909         64.2849         2.16128
           19901         59.4824         53.7547         63.8542         1.10982
           19902         59.9715         52.7697         65.1944     799.998E-03
           19903         63.0699         49.7104         69.2753         7.10225
           19904         62.2253         50.4933         68.2168         6.14734
           19905         63.4547         49.1938         70.3245         6.33701
           19906         68.3980         45.3002         75.6952         10.4151
           19907         67.8031         45.7801         74.3064         11.2805
           19908         66.3287         46.9035         72.7911         10.2497
           19909         80.6504         37.7635         88.9485         13.2361
           19910         78.4484         38.9644         86.6389         12.9803
           19911         78.6100         39.1008         87.3862         11.9887
           19912         91.6956         31.8983         103.157        -3.64339
           19913         90.8380         32.0023         102.173        -4.39233
           19914         92.0749         31.5814         103.391        -4.31953
           19915         92.9348         31.4712         104.369        -3.56666
           19916         90.2404         32.1004         101.492        -4.83954
           19917         89.7947         32.4157         101.156        -4.42540
           19918         89.2071         32.5040         100.479        -4.87640
           19919         77.2383         37.0063         87.9502        -6.21168
           19920         78.3718         36.3204         88.9658        -6.81499
           19921         79.7236         35.4645         90.1470        -7.49798
           19922         77.2268         36.5762         87.5512        -7.37647
           19923         78.5818         35.7229         88.7353        -8.06016
           19924         61.9671         45.3484         70.5377        -1.48952
           19925         62.7386         44.7443         71.5187        -2.53074
           19926         63.4409         44.3206         72.5377        -2.13205
           19927         62.6541         44.9178         71.5375        -1.09885
           19928         63.3037         44.2337         72.1267        -3.60093
           19929         63.9499         43.7501         72.8403        -4.34266
           19930         64.7189         43.3591         73.9784        -3.80132
           19931         64.0754         43.8420         73.2630        -3.05921
           19932         57.7957         49.4164         63.0290         3.66878
           19933         57.4506         49.9664         62.2722         3.54145
           19934         56.4707         52.1639         59.1196         4.34531
           19935         56.7233         51.4082         59.9589         4.54748
           19936         56.7120         51.4174         59.5758         5.36838
           19937         56.4594         52.1739         58.7367         5.16620
           19938         56.1399         54.0712         55.0071         7.67056
           19939         56.1644         53.7864         56.0876         6.64310
           19940         56.1184         54.4017         54.0533         8.33781
           19941         56.1097         54.4736         53.5336         8.77976
           19942         56.1518         55.3010         53.0340         8.46653
           19943         56.4149         57.2326         48.7412         10.3433
           19944         56.2902         56.6462         49.4346         10.2681
           19945         56.1158         56.0778         49.2668         10.6430
           19946         56.2358         56.6654         48.5765         10.7149
           19947         56.5971         57.8977         48.2198         10.2916
           19948         56.5463         57.6416         49.1168         9.89347
           19949         56.7500         58.8835         45.1577         11.1523
           19950         56.9864         59.2902         45.8234         10.7891
           19951         56.5862         58.3236         45.8973         11.1160
           19952         56.6563         59.5051         42.5407         11.4128
           19953         57.2599         60.7164         42.3943         11.0901
           19954         57.3759         60.7260         43.0821         11.0224
           19955         56.7820         59.5156         43.2306         11.3447
           19956         56.8271         60.4620         40.9739         11.1381
           19957         56.5813         60.3517         40.2732         11.0715
           19958         57.0333         62.1722         38.5088         9.97767
           19959         57.9854         63.5880         38.8102         9.66961
           19960         57.0780         61.9003         39.0346         10.3087
           19961         58.2068         64.8593         37.8009         8.24888
           19962         56.9980         63.3067         37.1518         8.42092
           19963         58.2797         65.3133         37.5756         7.59292
           19964         55.6021         63.2893         35.6526         4.87781
           19965         55.2762         62.4600         35.4561         6.10095
           19966         58.6619         66.4097         37.5990         6.17054
           19967         58.3827         65.7452         37.5009         6.95913
           19968         54.7775         63.2516         31.6211    -21.4383E-03
           19969         53.7599         62.0444         30.7792    -990.087E-03
           19970         56.1906         64.8505         32.8172        -1.00664
           19971         52.5846         59.3249         30.9287        -6.42778
           19972         53.1272         60.2619         31.0303        -5.71753
           19973         51.8053         58.9198         29.9714        -5.15997
           19974         51.2420         57.9836         29.8693        -5.87088
           19975         55.5904         61.9415         33.5967        -8.28322
           19976         55.9508         62.7042         33.4820        -7.68317
           19977         54.8895         61.5934         32.7223        -7.38999
           19978         54.5246         60.8340         32.8424        -7.98893
           19979         57.7582         63.4330         36.2005        -9.96823
           19980         56.5129         61.7267         35.7730        -10.1975
           19981         56.7154         61.6620         36.4017        -10.5506
           19982         57.9304         63.3588         36.8095        -10.3096
           19983         57.9330         62.1894         39.1193        -11.4192
           19984         57.2385         61.6254         37.9482        -11.2110
           19985         57.5889         61.3570         39.7647        -11.6962
           19986         56.4014         59.2725         39.9717        -12.1020
           19987         57.8604         59.8658         45.4412        -11.8235
           19988         57.6180         58.9565         46.6578        -11.8012
           19989         58.1057         60.0990         46.3854        -11.5542
           19990         58.4184         60.4852         47.7862        -10.9709
           19991         58.3043         60.3782         47.1300        -11.2287
           19992         57.8243         59.1747         47.4313        -11.5327
           19993         57.5914         57.1873         51.2945        -10.7804
           19994         57.5773         56.7283         52.2315        -10.5185
           19995         57.8879         57.8978         52.0225        -10.0747
           19996         57.9197         58.3581         51.0839        -10.3379
           19997         58.0145         56.2759         56.3249        -8.08169
           19998         57.8974         55.9339         55.7426        -8.83511
           19999         58.6423         54.7781         61.1992        -3.88664
           20000         58.5996         54.7000         60.9517        -4.50083
           20001         58.8011         53.9609         61.7596        -4.62392
           20002         58.8442         54.0413         62.0085        -4.00623
           20003         59.5501         52.4235         64.1639        -3.85910
           20004         59.3555         52.4913         63.5390        -4.68235
           20005         59.7271         51.6703         64.4520        -4.95658
           20006         61.0360         50.6240         67.6460        -1.92617
           20007         60.5028         51.4235         66.5629        -1.68169
           20008         60.2825         51.5243         66.0585        -2.52426
           20009         60.8131         50.7247         67.1414        -2.76873
           20010         65.3662         47.4073         73.9264         4.64860
           20011         66.3586         46.6912         75.0645         5.58451
           20012         64.6319         48.0110         72.6878         5.11639
           20013         70.0249         44.2738         79.4026         7.16465
           20014         71.6112         43.3326         81.3216         7.32870
           20015         70.3992         44.0374         79.4718         8.17970
           20016         73.5203         42.2389         83.3883         7.95266
           20017         75.2645         41.2575         85.2250         8.47409
           20018         75.1253         41.2756         84.7077         9.32918
           20019         79.1310         39.3452         89.8348         7.70170
           20020         78.9360         39.3756         89.3531         8.46202
           20021         77.2500         40.2535         87.6138         8.12023
           20022         77.4447         40.2222         88.0949         7.36004
           20023         87.5614         35.2563         98.6979         7.35870
           20024         86.2048         35.9386         97.3935         7.17356
           20025         87.9474         35.0904         99.2548         6.70277
           20026         92.6430         33.1258         103.925         6.52021
           20027         92.2711         33.3666         103.306         7.64622
           20028         91.5114         33.5401         102.671         7.11188
           20029         93.2195         32.5137         104.929         3.37626
           20030         92.7728         32.6442         104.557         2.72138
           20031         93.3441         32.3993         105.093         2.81905
           20032         94.3513         31.6509         106.107    -32.8882E-03
           20033         94.9630         31.5442         106.717     461.232E-03
           20034         94.4429         31.7446         106.211     931.967E-03
           20035         86.4917         33.9573         98.0120        -4.06522
           20036         85.8833         34.0347         97.2919        -4.58903
           20037         87.1757         33.4543         98.5578        -4.61692
           20038         83.5730         34.8475         94.8710        -5.02025
           20039         80.9603         35.8264         92.1340        -5.26599
           20040         82.7499         34.9424         93.8617        -5.66577
           20041         75.2459         38.7537         86.5056        -3.12501
           20042         74.0053         39.2005         85.1218        -3.22484
           20043         74.6469         38.7423         85.6946        -3.98437
           20044         75.8897         38.2949         87.0744        -3.88599
           20045         71.5462         40.1228         82.3180        -3.44469
           20046         72.2344         39.6451         82.9453        -4.26307
           20047         73.4580         39.1741         84.3438        -4.15075
           20048         72.7635         39.6509         83.7165        -3.33213
           20049         66.4788         42.8735         76.5530         1.00332
           20050         67.7028         42.3238         78.0733     653.429E-03
           20051         67.6974         42.3487         78.0280         1.36038
           20052         66.4900         42.8920         76.5127         1.71053
           20053         63.7967         44.2550         73.0111         1.99968
           20054         63.5371         44.3594         72.5453         2.85481
           20055         66.6098         42.6109         76.6784        -1.72520
           20056         65.4526         43.1993         75.2197        -1.76086
           20057         66.0543         42.7747         75.8760        -2.70213
           20058         74.2145         38.6527         85.0098        -4.93154
           20059         75.4070         38.2200         86.3596        -4.76532
           20060         70.8928         40.5628         81.6942        -2.59778
           20061         69.6670         41.0728         80.2633        -2.64295
           20062         70.3107         40.6332         80.8870        -3.48955
           20063         57.0304         50.3034         59.9646         6.89692
           20064         57.0021         50.5586         60.1489         6.22426
           20065         57.3343         49.8513         61.0810         6.22229
           20066         56.7512         50.4614         58.5199         8.22109
           20067         57.0332         49.6989         59.4561         8.21959
           20068         56.9945         49.3793         59.1358         8.81477
           20069         56.7119         50.1480         58.1942         8.81623
           20070         56.2603         51.0948         56.0997         9.55283
           20071         56.4467         50.5794         57.0258         9.31552
           20072         56.4622         49.9293         57.1034         9.75339
           20073         56.2686         50.4281         56.1800         10.0004
           20074         55.4989         52.1103         51.6073         11.4106
           20075         55.8120         52.8058         52.5523         10.6433
           20076         55.1704         54.3840         46.7247         12.1660
           20077         55.0086         53.6803         47.1676         12.2686
           20078         53.2054         51.8891         43.4318         12.9827
           20079         52.8812         51.9942         42.3552         12.9266
           20080         53.3791         53.0722         42.2694         12.7710
           20081         54.3469         57.0447         39.1071         11.5610
           20082         54.3885         56.5964         39.9063         11.8462
           20083         51.6496         54.1961         36.4748         11.2079
           20084         50.6058         52.5791         36.1614         11.4028
           20085         54.5197         60.0440         35.8777         8.83469
           20086         54.6751         59.7201         36.4680         9.50151
           20087         53.4294         58.0268         35.8468         9.70689
           20088         53.2515         58.3502         35.2573         9.04021
           20089         48.7521         55.0710         30.8303         5.51656
           20090         48.9713         54.7741         31.3470         6.64212
           20091         48.0792         54.0068         30.5414         6.09761
           20092         48.8000         54.1072         31.6152         7.41491
           20093         49.7987         57.4732         27.1462    -21.1335E-03
           20094         48.7887         56.2680         26.5396        -1.03745
           20095         51.2938         59.1859         28.6807    -998.003E-03
           20096         49.1109         53.9828         30.1602        -8.48972
           20097         49.0520         53.5046         30.6137        -9.02089
           20098         50.2847         54.8796         31.4284        -9.19821
           20099         54.0690         58.1120         35.2789        -10.8318
           20100         54.6972         59.4349         34.8759        -10.2598
           20101         53.3886         58.0343         33.8501        -10.0166
           20102         53.5375         55.8812         37.3936        -12.0398
           20103         54.7748         57.9674         37.3305        -11.6969
           20104         53.6555         56.5477         36.6300        -11.7025
           20105         55.3223         57.2963         40.2180        -12.4438
           20106         54.4296         56.0206         39.6983        -12.5465
           20107         55.2051         56.6614         41.0279        -12.6292
           20108         54.9446         55.2997         42.6901        -12.8991
           20109         54.8025         54.5594         43.5392        -12.9922
           20110         55.5536         55.7858         43.9977        -12.8166
           20111         55.7098         56.5260         43.1478        -12.7231
           20112         55.7260         53.6972         48.3235        -12.6711
           20113         55.3792         53.4322         47.4645        -12.8467
           20114         55.0675         52.4219         47.8478        -12.9516
           20115         55.4228         52.6876         48.7027        -12.7773
           20116         56.3507         55.5206         47.8207        -12.3973
           20117         56.2346         54.8086         48.5725        -12.3995
           20118         56.5070         55.3021         48.9201        -12.2056
           20119         56.6260         56.0157         48.1603        -12.2075
           20120         56.6872         51.7446         54.1365        -11.6396
           20121         56.2490         50.7197         53.6198        -12.0549
           20122         56.5238         50.6372         54.5431        -11.8008
           20123         58.5318         51.5198         60.4993        -8.72602
           20124         58.3646         52.3897         59.7649        -8.58237
           20125         58.3142         51.5612         59.7520        -9.17555
           20126         59.2040         52.6211         63.0181        -5.19424
           20127         58.9040         53.3396         62.0328        -5.33229
           20128         58.8877         53.1000         61.9000        -5.87174
           20129         61.1505         50.0082         67.6938        -3.71308
           20130         60.9485         49.9995         67.2062        -4.41114
           20131         61.5401         49.2645         68.2978        -4.48189
           20132         61.7482         49.2733         68.7841        -3.78372
           20133         63.6477         48.3186         72.1176    -66.7163E-03
           20134         64.3348         47.6757         73.1701    -434.259E-03
           20135         69.0695         44.8216         79.3865         2.42432
           20136         69.8814         44.3649         80.2888         3.20828
           20137         71.9883         43.1966         82.5779         4.63109
           20138         71.2445         43.6018         81.5609         5.12120
           20139         70.8267         43.8487         81.3279         3.89891
           20140         73.8259         42.2448         84.7341         4.66736
           20141         72.5687         42.9232         83.3867         4.07052
           20142         81.5074         38.3952         92.9145         5.87748
           20143         79.6220         39.2491         90.7917         6.31227
           20144         79.7339         39.2957         91.0937         5.62370
           20145         83.7411         37.0415         94.5861         8.11514
           20146         82.2999         37.7454         93.0869         8.10343
           20147         90.8870         33.7159         102.703         3.58384
           20148         91.3360         33.4636         103.172         3.18775
           20149         91.7054         33.2319         103.550         2.83156
           20150         91.9344         33.0828         103.790         2.50034
           20151         92.3302         32.8708         104.141         2.72256
           20152         91.9215         32.6150         103.780    -323.666E-03
           20153         91.2866         32.6940         103.105        -1.24395
           20154         80.5936         37.2720         92.3824        -2.22783
           20155         81.3859         36.7518         93.1396        -2.64791
           20156         82.1884         36.2478         93.8950        -3.06899
           20157         82.9185         35.7503         94.5606        -3.47608
           20158         83.8123         35.5166         95.5235        -3.21455
           20159         77.8013         37.8226         89.2717        -3.13847
           20160         78.8973         37.3848         90.4194        -3.25632
           20161         78.8238         37.6523         90.4401        -2.66834
           20162         77.7325         38.0808         89.2915        -2.54998
           20163         70.3367         41.1750         81.2129    -304.450E-03
           20164         71.3369         40.8263         82.3695    -304.622E-03
           20165         70.8282         41.1071         81.7819     352.078E-03
           20166         69.8377         41.4557         80.6278     352.135E-03
           20167         68.8446         41.9253         79.3911         1.56971
           20168         67.9726         42.2799         78.3129         1.90017
           20169         68.5799         41.9886         79.1125         1.03208
           20170         66.8620         42.7111         76.9062         2.34374
           20171         66.0205         43.0835         75.7990         2.75139
           20172         65.6416         43.2608         75.4046         2.12344
           20173         64.0822         43.9565         73.1327         3.67968
           20174         65.0262         43.4610         74.3702         3.68899
           20175         64.7794         43.4707         73.8944         4.41701
           20176         63.8445         43.9628         72.6597         4.40787
           20177         65.0888         43.5057         74.5747         2.99117
           20178         64.3622         43.8894         73.6445         2.88169
           20179         64.9272         43.6423         74.4980         2.01676
           20180         69.2034         41.6213         79.8839    -262.392E-03
           20181         69.7147         41.3128         80.4654    -992.539E-03
           20182         70.8599         40.8660         81.7958        -1.03500
           20183         60.7465         45.6926         67.7459         6.00843
           20184         60.7817         45.8441         67.9854         5.39921
           20185         61.4215         45.3857         69.0213         5.20846
           20186         58.6150         46.9630         63.3040         8.07768
           20187         58.8412         47.0485         63.9408         7.49706
           20188         59.4137         46.2744         64.9782         7.60100
           20189         57.6834         48.0223         61.0557         8.66934
           20190         58.0474         47.5262         61.9568         8.49877
           20191         58.0099         47.1783         61.7288         8.96613
           20192         56.2578         49.5678         56.3442         10.4269
           20193         55.9986         50.0737         55.1562         10.7725
           20194         55.2914         51.7463         51.0451         11.7651
           20195         55.3143         50.6071         52.1958         11.7711
           20196         54.5947         50.3665         49.8239         12.5277
           20197         54.9904         50.9678         50.6354         12.1526
           20198         54.9885         50.2236         51.3258         12.1759
           20199         53.9816         50.9725         47.0695         12.9040
           20200         53.5583         50.9602         45.7283         13.0486
           20201         53.1572         51.2156         44.1813         13.0823
           20202         52.5438         50.8871         42.8527         13.1104
           20203         46.2441         48.7313         31.9546         9.99783
           20204         46.2502         48.0581         32.6044         10.5414
           20205         45.5421         47.5823         31.8274         10.1890
           20206         43.6519         49.3571         26.8920         4.94953
           20207         44.1875         50.3229         26.9236         4.08787
           20208         45.1184         50.7604         28.2551         5.62557
           20209         48.7098         53.1263         32.2039         8.64154
           20210         47.0969         51.7057         30.7805         7.93153
           20211         48.4172         53.3262         31.5419         7.90912
           20212         44.6923         51.4697         22.4866    -26.3914E-03
           20213         43.6640         50.2483         22.2591        -1.24794
           20214         46.2437         53.2868         24.3834        -1.11926
           20215         49.4666         52.2181         33.0698        -10.8542
           20216         48.7265         51.9107         31.8912        -10.2956
           20217         48.0582         50.2507         32.6171        -10.9486
           20218         49.1996         49.0079         36.7574        -12.5050
           20219         50.3798         50.5314         37.4115        -12.5902
           20220         50.1158         50.8729         36.3196        -12.2761
           20221         51.4078         51.9184         37.9464        -12.6153
           20222         52.4782         53.3426         38.5597        -12.6300
           20223         52.4110         53.8528         37.6075        -12.3521
           20224         51.3266         52.4292         36.9930        -12.3374
           20225         52.3832         50.8099         42.1239        -13.2696
           20226         52.4019         50.2970         42.8977        -13.3364
           20227         53.2566         51.6386         43.3505        -13.2792
           20228         53.2637         52.1744         42.5763        -13.2100
           20229         54.7165         51.2580         48.2916        -13.0353
           20230         55.1760         51.6583         49.2217        -12.8549
           20231         55.7733         51.4043         51.4683        -12.4494
           20232         55.6000         50.3624         51.9836        -12.5261
           20233         55.9589         50.6714         52.7896        -12.2744
           20234         58.3440         49.9454         60.2310        -9.83131
           20235         58.2098         50.7246         59.6202        -9.74752
           20236         57.9419         50.6140         58.8631        -10.1639
           20237         61.7453         48.4556         68.4326        -5.69978
           20238         60.8754         49.0929         66.6874        -6.38685
           20239         61.4635         48.4061         67.7937        -6.33130
           20240         63.4348         47.9824         71.7022        -2.63951
           20241         63.9384         47.4696         72.4246        -3.02188
           20242         64.4307         47.2039         73.2114        -2.52067
           20243         66.3793         46.1082         76.0226        -1.42300
           20244         65.7335         46.3963         75.1004        -2.04849
           20245         66.4144         45.9401         76.0028        -2.27528
           20246         73.9178         42.4102         85.2207         2.37096
           20247         75.4929         41.7205         86.9932         2.59235
           20248         74.9901         41.8735         86.3702         2.99699
           20249         74.6456         41.9531         85.8982         3.51638
           20250         76.1440         41.2911         87.6003         3.47628
           20251         84.2115         37.5208         96.1099         4.19460
           20252         85.1490         37.0983         97.0970         4.01556
           20253         85.4626         36.7554         97.3065         4.50462
           20254         84.5243         37.1776         96.3185         4.68380
           20255         88.6153         35.0783         100.499         3.98105
           20256         89.6375         34.4058         101.424         4.23573
           20257         88.9082         34.8128         100.690         4.45860
           20258         90.1763         34.2655         102.148         2.80031
           20259         89.4026         34.8960         101.459         2.69044
           20260         89.9090         34.5656         101.960         2.40783
           20261         90.3034         34.2668         102.387         1.39100
           20262         90.0160         34.5841         102.127         1.71686
           20263         89.8868         34.7079         102.047         1.03094
           20264         90.9144         33.5850         102.919     748.598E-03
           20265         91.2646         33.2497         103.225     427.836E-03
           20266         91.7469         32.9807         103.667     816.499E-03
           20267         90.0269         33.9673         102.068    -227.425E-03
           20268         89.2992         34.4191         101.384    -437.648E-03
           20269         89.3327         34.1346         101.355    -833.566E-03
           20270         86.4637         34.9404         98.3831        -2.11678
           20271         78.3920         38.3599         90.1419        -1.42519
           20272         79.1731         38.2464         91.0003        -1.28724
           20273         74.0724         40.3820         85.4717     840.435E-03
           20274         73.5884         40.6236         84.9062         1.30449
           20275         72.5372         40.8466         83.7058         1.37109
           20276         73.0183         40.6050         84.2762     905.007E-03
           20277         69.0337         41.9210         79.4702         2.84240
           20278         68.0110         42.2665         78.1995         3.11464
           20279         68.1136         42.2194         78.4174         2.47888
           20280         69.1510         41.8710         79.6919         2.21075
           20281         65.5715         43.0563         74.8957         4.51462
           20282         66.0749         42.9471         75.6634         3.91592
           20283         66.9904         42.5608         76.7807         4.03628
           20284         66.4778         42.6655         76.0100         4.63470
           20285         62.8022         44.4485         71.0732         5.03802
           20286         63.5623         43.9829         72.1132         5.06972
           20287         69.5471         41.6889         80.2195         1.62613
           20288         70.6513         41.3449         81.5209         1.53013
           20289         70.2431         41.5264         80.9908         2.11292
           20290         65.9433         43.0420         75.5896         3.44701
           20291         67.0061         42.6506         77.0029         2.91667
           20292         67.1134         42.5645         77.0586         3.38682
           20293         62.4121         44.2978         70.1585         6.28854
           20294         62.9678         43.8477         70.9122         6.40637
           20295         62.3422         44.0009         69.8403         6.97217
           20296         61.7978         44.4487         69.0858         6.86062
           20297         60.3741         43.9286         66.1732         9.00577
           20298         59.6956         44.5699         64.9785         9.14641
           20299         60.0209         44.7673         65.6749         8.66591
           20300         57.6824         46.5587         60.7331         9.97809
           20301         57.6802         45.8904         60.7308         10.3248
           20302         57.1441         46.3344         59.3865         10.6997
           20303         53.4722         44.9896         51.2309         13.1080
           20304         53.2219         45.4924         50.2568         13.2108
           20305         53.8801         45.7295         51.6632         12.9785
           20306         51.7428         47.4375         44.8225         13.4687
           20307         52.4483         48.4439         45.5262         13.3771
           20308         52.4525         47.3652         46.6689         13.4201
           20309         51.7574         46.3615         45.9677         13.5097
           20310         51.1159         47.5134         43.2228         13.4259
           20311         51.0620         46.5397         44.1415         13.5061
           20312         48.6026         47.4972         37.6689         12.6022
           20313         49.0848         48.5143         37.5377         12.4862
           20314         49.8892         49.1486         38.5487         12.6749
           20315         49.2402         49.5056         36.7707         12.1391
           20316         48.6267         49.3282         35.7409         11.7886
           20317         49.5445         50.8481         35.9035         11.6289
           20318         39.4977         45.2597         17.7579    -37.3428E-03
           20319         38.3328         43.9344         17.8905        -1.30522
           20320         41.0531         47.1602         20.1401        -1.34913
           20321         43.8129         48.4068         26.2565        -7.25588
           20322         45.4329         50.4270         27.0871        -7.15246
           20323         44.2392         49.6941         25.4407        -5.90553
           20324         43.8124         47.5195         27.4140        -8.41808
           20325         42.5190         46.6447         25.8747        -7.51795
           20326         44.7862         45.7984         31.5213        -10.9293
           20327         44.2965         44.7956         31.7848        -11.0917
           20328         45.6001         45.7988         33.1697        -11.5577
           20329         46.0697         46.7975         32.9106        -11.3936
           20330         50.5247         50.0662         38.4163        -12.8279
           20331         49.5562         48.7951         37.8623        -12.7645
           20332         49.7003         48.2163         38.9797        -12.9788
           20333         51.2551         45.7404         45.7143        -13.3677
           20334         51.9971         46.2687         46.8720        -13.3495
           20335         52.3485         47.5221         46.3044        -13.3965
           20336         51.6220         46.9926         45.1456        -13.4153
           20337         54.0330         47.8824         50.1594        -13.0719
           20338         53.2420         46.1985         49.8842        -13.1219
           20339         55.6382         47.7167         54.3530        -12.3563
           20340         55.5482         48.5963         53.4299        -12.4598
           20341         55.0573         47.9166         52.7414        -12.6602
           20342         58.9856         46.7420         62.4747        -10.1913
           20343         59.4929         46.1797         63.6265        -9.94598
           20344         59.2783         47.2602         62.9894        -9.82539
           20345         57.9090         47.6135         59.8420        -10.8724
           20346         57.6712         48.3669         58.9949        -10.9485
           20347         60.1203         47.8066         64.7660        -8.76727
           20348         59.6005         48.3802         63.5943        -9.01950
           20349         59.4800         47.7916         63.3574        -9.44493
           20350         63.4812         46.3152         71.1018        -6.38720
           20351         63.7578         46.4531         71.6441        -5.84165
           20352         62.6780         46.9076         69.8046        -6.58018
           20353         64.8729         46.0035         73.4196        -5.14096
           20354         67.0848         45.5201         76.8799        -2.40503
           20355         65.8949         46.1270         75.2375        -2.84248
           20356         66.5554         45.7073         76.1099        -2.97284
           20357         74.7220         42.4335         86.2711     532.290E-03
           20358         74.7577         42.3377         86.2979     923.660E-03
           20359         73.9551         42.6291         85.3817     780.309E-03
           20360         73.9249         42.7204         85.3576     387.853E-03
           20361         76.6505         41.5085         88.3876         1.71435
           20362         75.7647         41.9073         87.4188         1.35518
           20363         76.5309         41.6431         88.2796         1.38721
           20364         79.3387         40.4209         91.3019         2.25463
           20365         79.0347         40.3335         90.9072         2.71846
           20366         78.1029         40.7535         89.9185         2.47430
           20367         78.4120         40.8355         90.3152         2.01168
           20368         82.8821         38.9122         95.0312         2.72197
           20369         82.1109         39.2251         94.2228         2.68077
           20370         82.8389         39.2010         95.0545         2.34045
           20371         85.4309         37.9128         97.7058         2.51206
           20372         84.9149         38.5267         97.2554         2.20320
           20373         85.4324         38.4981         97.8313         1.99600
           20374         85.9419         37.8783         98.2743         2.29982
           20375         87.3051         37.1780         99.6633         2.03968
           20376         87.9235         36.3647         100.174         2.31748
           20377         87.3371         36.8098         99.6111         2.38829
           20378         88.7708         35.9781         101.061         1.68531
           20379         88.7995         36.1378         101.141         1.28110
           20380         88.1939         36.3194         100.554     67.6441E-03
           20381         88.5967         35.8843         100.909     201.121E-03
           20382         88.5113         36.2964         100.887     361.061E-03
           20383         88.1095         36.7314         100.532     226.580E-03
           20384         86.4155         36.3050         98.6317    -855.679E-03
           20385         85.7709         36.8890         98.0345    -705.396E-03
           20386         85.2807         36.7931         97.4842    -939.144E-03
           20387         84.6339         37.3983         96.8813    -701.377E-03
           20388         84.0063         37.3579         96.1899    -894.538E-03
           20389         74.3012         40.7003         85.6952         1.66398
           20390         73.9536         40.8663         85.2755         2.00492
           20391         73.1705         40.9761         84.3725         2.11474
           20392         73.5145         40.8087         84.7932         1.77479
           20393         72.0588         41.3689         82.9916         2.98557
           20394         72.4893         41.1857         83.5440         2.56046
           20395         73.6006         41.0794         84.8374         2.39540
           20396         73.1619         41.2607         84.2856         2.81967
           20397         71.6882         41.5098         82.4838         3.48493
           20398         70.6336         41.6475         81.2151         3.70162
           20399         68.2268         42.0615         78.0847         4.92859
           20400         68.2343         42.0838         78.1668         4.63263
           20401         69.2580         41.8831         79.4752         4.27552
           20402         69.2325         41.8711         79.3776         4.57460
           20403         65.7680         42.7687         74.9394         5.33575
           20404         67.4120         42.3146         77.1565         4.67532
           20405         66.6843         42.4195         76.0800         5.36955
           20406         61.0319         43.5027         67.3026         8.76762
           20407         60.2144         43.5917         65.8357         9.32900
           20408         56.7799         44.2427         59.0053         11.4815
           20409         56.2311         44.4982         57.7304         11.8033
           20410         53.2358         40.1092         54.1793         12.4230
           20411         53.7490         40.4573         54.9039         12.3691
           20412         53.1914         39.4679         54.5419         12.2399
           20413         52.2034         42.3477         50.4775         13.1845
           20414         52.2978         43.3371         49.9049         13.2815
           20415         52.9471         43.8079         50.9433         13.1752
           20416         49.1188         40.5217         45.8221         13.2636
           20417         48.9522         41.2083         44.8597         13.3466
           20418         49.7196         42.1584         45.5112         13.4427
           20419         48.7127         41.7376         43.8694         13.3838
           20420         49.4599         43.6818         43.5127         13.4850
           20421         49.7236         43.1428         44.5969         13.4942
           20422         46.7538         41.7479         39.9875         13.0821
           20423         47.4677         43.6462         39.4584         13.0822
           20424         47.8345         43.3043         40.5482         13.2241
           20425         45.6038         45.2899         34.1833         11.6647
           20426         46.2559         45.3456         35.3553         12.0637
           20427         41.8972         43.1162         29.7661         9.89523
           20428         41.2591         41.3609         30.3729         10.4135
           20429         40.4812         41.3596         29.0452         9.76009
           20430         36.6095         41.0065         20.4005        -5.13479
           20431         38.3484         42.5245         22.3503        -6.14172
           20432         37.8272         42.7220         20.4245        -4.51466
           20433         35.6137         38.0458         23.0073        -7.45756
           20434         37.2805         39.3537         24.6989        -8.22764
           20435         36.4321         39.4548         22.6975        -7.09381
           20436         41.2408         41.5152         29.7949        -10.4322
           20437         41.7980         42.7777         29.3468        -10.1865
           20438         43.2049         40.1073         35.3074        -11.9379
           20439         43.9012         41.4416         35.1029        -12.0058
           20440         42.0908         39.5041         33.8789        -11.5706
           20441         46.5399         43.6509         37.7871        -12.6772
           20442         45.8397         42.2975         37.9831        -12.5972
           20443         46.7841         42.7933         39.3314        -12.8276
           20444         47.4622         44.1480         39.1361        -12.9068
           20445         48.7043         44.0208         41.9715        -13.1694
           20446         49.1788         43.4029         43.7108        -13.1818
           20447         49.6234         44.6494         43.2579        -13.2804
           20448         50.6211         43.2755         46.9557        -13.1266
           20449         51.4740         43.8345         48.2330        -13.1143
           20450         51.7329         45.0590         47.5504        -13.2603
           20451         50.9007         44.5019         46.2736        -13.2725
           20452         52.3446         44.4640         49.5167        -13.0731
           20453         54.2372         42.0026         55.5171        -11.9327
           20454         54.9664         42.6398         56.4773        -11.8554
           20455         54.7267         43.3812         55.4656        -12.1492
           20456         58.7601         42.9772         63.3085        -10.3047
           20457         59.3085         43.6085         64.0214        -10.1479
           20458         57.1355         44.4171         59.6278        -11.3227
           20459         60.0700         45.6567         64.8425        -9.65774
           20460         60.7155         45.1612         66.1050        -9.35140
           20461         61.0216         45.6574         66.6098        -9.00742
           20462         63.3808         44.9745         70.6802        -7.69288
           20463         62.6364         45.2415         69.4575        -8.05278
           20464         62.5944         44.7733         69.3828        -8.28515
           20465         63.3432         44.5162         70.6076        -7.92502
           20466         64.6699         45.2968         72.8360        -6.44359
           20467         65.8304         44.9539         74.5773        -5.87533
           20468         69.2286         44.4634         79.5703        -2.71650
           20469         69.8724         44.2306         80.3237        -2.98242
           20470         70.6228         44.0069         81.3091        -2.44667
           20471         73.6214         43.2475         84.9494        -1.54956
           20472         72.6175         43.4704         83.7499        -1.84519
           20473         73.5697         43.3360         84.8609        -1.88346
           20474         76.2392         42.6513         88.0073    -736.719E-03
           20475         75.9829         42.4917         87.7196    -402.566E-03
           20476         75.4880         42.7353         87.1468    -779.198E-03
           20477         77.0031         41.8111         88.8539     677.277E-03
           20478         77.8705         41.5980         89.8240     720.597E-03
           20479         78.1222         41.3441         90.0790         1.11830
           20480         77.2497         41.5573         89.1072         1.07519
           20481         82.3808         40.4162         94.7492         1.30564
           20482         81.6258         40.4816         93.9184         1.33076
           20483         83.8519         39.6557         96.2733         1.61335
           20484         83.7867         40.1454         96.2712         1.32351
           20485         84.3863         39.9617         96.9090         1.34257
           20486         87.3203         38.0236         99.8462         1.44790
           20487         87.7361         37.6122         100.235         1.40444
           20488         87.3590         37.5544         99.8013         1.72600
           20489         87.7372         38.2931         100.356         1.00338
           20490         87.6903         37.9870         100.253         1.19232
           20491         85.7147         37.5677         98.0809    -402.637E-03
           20492         83.3980         37.9426         95.6164    -585.182E-03
           20493         84.1269         38.0083         96.4196    -486.682E-03
           20494         83.5746         38.7144         95.9113    -176.300E-03
           20495         82.8466         38.6498         95.1074    -266.244E-03
           20496         81.5359         38.9310         93.7039    -135.676E-03
           20497         82.1222         38.4213         94.2864    -420.039E-03
           20498         73.9688         41.8349         85.1470         3.33299
           20499         73.5049         41.9449         84.5678         3.60886
           20500         72.9594         41.8260         83.9163         3.72339
           20501         73.4156         41.7184         84.4902         3.44585
           20502         72.8457         41.4392         83.8734         3.17242
           20503         72.6345         41.5796         83.5732         3.52945
           20504         71.4839         41.6423         82.1810         3.84524
           20505         70.5332         41.7111         81.0043         4.17125
           20506         71.4889         41.7048         82.1412         4.07732
           20507         69.4988         41.8381         79.5469         5.16491
           20508         68.7369         41.8537         78.5240         5.58373
           20509         68.2804         41.8932         77.9722         5.59820
           20510         69.0387         41.8781         78.9956         5.17830
           20511         67.0153         42.0387         76.3001         6.04566
           20512         67.7794         42.0200         77.3661         5.59079
           20513         67.5109         41.9114         76.9052         6.05397
           20514         63.8475         42.2783         71.7067         7.72077
           20515         64.5088         42.1647         72.6823         7.42600
           20516         64.3601         41.9240         72.4186         7.66423
           20517         63.7078         42.0370         71.4485         7.96180
           20518         62.1417         41.9878         69.0206         8.80896
           20519         62.2147         42.3239         69.1463         8.65431
           20520         58.6828         42.0708         63.2160         10.5989
           20521         59.0804         41.8727         63.9602         10.3994
           20522         58.8130         41.5235         63.5847         10.5200
           20523         58.4061         41.7242         62.8238         10.7208
           20524         56.6762         41.2160         59.9191         11.4421
           20525         56.9970         41.9099         60.2123         11.4046
           20526         57.5611         41.6712         61.3388         11.1117
           20527         55.0172         41.0292         56.9453         12.0714
           20528         54.7581         40.5919         56.7167         12.0582
           20529         54.4247         40.8280         55.9457         12.2386
           20530         51.1264         40.7091         49.6211         13.0952
           20531         51.3366         41.8290         49.1284         13.2561
           20532         52.0147         41.2290         50.9761         13.0234
           20533         49.2841         39.9154         46.7070         13.1463
           20534         48.3089         39.5979         45.1078         13.1303
           20535         44.5333         37.1652         40.3827         12.5436
           20536         45.4530         38.3687         40.8814         12.7945
           20537         46.0093         38.2662         42.0230         12.8412
           20538         45.1103         37.0660         41.5302         12.5917
           20539         44.4798         38.8916         38.5682         12.6276
           20540         44.1406         39.2875         37.5614         12.5129
           20541         45.6654         40.3363         39.3338         12.8808
           20542         40.6245         38.6606         31.9616         11.1028
           20543         38.8458         36.8559         30.6993         10.6402
           20544         38.8091         37.6522         29.8468         10.3510
           20545         40.5946         39.4558         31.1129         10.8126
           20546         32.8577         36.1922         20.3420         5.54295
           20547         31.1679         34.7063         18.4740         4.71822
           20548         31.8472         35.8769         18.0430         4.03600
           20549         33.4560         37.3615         19.9101         4.86083
           20550         35.5598         37.9303         23.7979         7.35100
           20551         35.9168         38.7525         23.5232         6.98816
           20552         37.1663         39.1554         25.4255         8.10913
           20553         30.1523         34.1265         11.3624        -1.03292
           20554         28.9543         32.3321         8.79533    -22.8634E-03
           20555         27.4254         30.8398         9.40667    -944.373E-03
           20556         31.0797         34.7409         16.9488        -4.49331
           20557         28.3154         31.6153         15.3880        -4.16085
           20558         32.5081         34.0715         22.1234        -7.30851
           20559         33.5972         34.2500         24.1277        -8.16360
           20560         34.1937         35.4138         23.7681        -7.99718
           20561         34.4378         33.5919         26.6052        -9.00794
           20562         34.2655         33.9492         25.8107        -8.78705
           20563         32.5045         32.1852         24.7183        -8.27098
           20564         32.6840         31.8111         25.5247        -8.50014
           20565         39.1927         34.7288         33.9716        -10.8889
           20566         39.4290         35.4726         33.5594        -10.9628
           20567         38.2651         34.5351         32.5021        -10.6085
           20568         44.9611         38.5182         40.5712        -12.3092
           20569         43.6678         37.3679         39.3803        -11.9899
           20570         43.5500         36.2254         40.4086        -11.7656
           20571         44.8403         37.3820         41.5979        -12.0812
           20572         49.2956         39.1868         48.3712        -12.2501
           20573         50.2785         39.9282         49.5659        -12.3283
           20574         49.2491         40.1604         47.3126        -12.5728
           20575         51.3025         40.5952         50.9547        -12.3304
           20576         50.2206         38.8149         50.5257        -11.8857
           20577         60.6551         42.2549         66.8499        -9.11759
           20578         61.2735         42.0941         67.9237        -8.71954
           20579         61.8719         42.5500         68.6849        -8.61328
           20580         58.1634         42.3346         62.5857        -10.3817
           20581         56.9764         41.9749         60.6767        -10.7959
           20582         62.4449         43.5623         69.2750        -8.57198
           20583         62.2962         44.3202         68.9175        -8.58974
           20584         66.1804         44.3709         74.9437        -6.32013
           20585         65.4066         44.4539         73.8079        -6.71629
           20586         69.1442         44.0588         79.0441        -4.97868
           20587         68.2168         44.0429         77.7793        -5.47008
           20588         68.7226         43.9482         78.4203        -5.41752
           20589         73.3675         43.9146         84.4629        -3.13395
           20590         72.8027         43.8488         83.7840        -3.24493
           20591         72.4472         43.9259         83.3184        -3.51147
           20592         73.0079         43.9959         83.9960        -3.39919
           20593         75.5225         43.4628         87.1210        -1.92260
           20594         76.0334         43.5925         87.7128        -1.90188
           20595         76.7630         43.3885         88.5803        -1.51499
           20596         76.2503         43.2615         87.9886        -1.53553
           20597         77.4719         43.2192         89.4083        -1.19858
           20598         78.2457         43.0580         90.3002    -899.105E-03
           20599         77.8914         42.8804         89.8939    -837.734E-03
           20600         77.1268         43.0452         89.0133        -1.13631
           20601         80.7880         42.5025         93.1667    -63.3464E-03
           20602         80.2907         42.2146         92.5919     12.1773E-03
           20603         79.5455         42.5625         91.7691    -305.550E-03
           20604         80.0498         42.8486         92.3506    -380.399E-03
           20605         83.7457         40.7520         96.3025     994.352E-03
           20606         83.0731         40.2869         95.5014         1.29554
           20607         86.2497         40.4202         99.0201     940.084E-03
           20608         86.2058         41.1951         99.0634     769.422E-03
           20609         86.5465         41.0573         99.4230     749.790E-03
           20610         86.5965         40.2787         99.3836     918.065E-03
           20611         87.1483         39.7438         99.9211     871.704E-03
           20612         87.6013         38.8611         100.305     482.974E-03
           20613         87.7522         38.4819         100.413     569.711E-03
           20614         86.8362         39.8082         99.6023     258.488E-03
           20615         86.6378         39.2616         99.3172     162.530E-03
           20616         86.9348         39.0931         99.6173     202.248E-03
           20617         85.8296         39.1944         98.4297     46.4333E-03
           20618         85.7666         39.8221         98.4381     144.704E-03
           20619         85.2933         39.8877         97.9286     134.474E-03
           20620         85.3545         39.2596         97.9203     36.2270E-03
           20621         84.1597         40.4155         96.7425     277.694E-03
           20622         83.5468         40.5364         96.0791     353.380E-03
           20623         83.5046         39.9607         95.9752     231.083E-03
           20624         82.6817         40.2844         95.0999     397.397E-03
           20625         83.3788         39.3212         95.7685     35.4143E-03
           20626         78.9352         41.2835         90.9714         1.44565
           20627         79.5219         40.9415         91.6216         1.17277
           20628         71.5685         42.3083         82.1113         4.61053
           20629         72.1278         42.5708         82.8104         4.39293
           20630         71.1362         41.9448         81.5997         4.66058
           20631         70.6627         41.8562         81.0261         4.74292
           20632         71.3125         41.8293         81.8672         4.39686
           20633         64.5491         41.7351         72.6721         7.67055
           20634         65.1013         41.9320         73.5031         7.28709
           20635         62.4043         40.9744         69.5524         8.71255
           20636         61.6593         41.0271         68.3859         9.08648
           20637         61.8842         41.3316         68.6711         9.01704
           20638         59.2309         40.0582         64.8427         9.94229
           20639         59.7724         40.2170         65.6516         9.75554
           20640         59.3110         39.7196         65.1435         9.72870
           20641         55.5321         40.1239         58.4117         11.6286
           20642         56.0002         39.9255         59.3730         11.3625
           20643         55.5730         39.2774         58.9984         11.2862
           20644         55.1001         39.4784         58.0373         11.5523
           20645         52.6527         38.2156         54.4858         11.9077
           20646         52.5216         38.8589         53.7592         12.2131
           20647         50.0580         38.0081         49.8620         12.5184
           20648         49.0969         37.2975         48.6934         12.4432
           20649         49.1984         38.2289         48.0552         12.7388
           20650         50.1494         38.9369         49.2229         12.8137
           20651         46.0071         36.0143         44.2039         12.3506
           20652         46.8869         37.1107         44.7604         12.6330
           20653         47.2599         36.8250         45.7316         12.5181
           20654         38.2339         34.7000         31.8217         10.7909
           20655         36.7709         33.0230         31.0379         10.3793
           20656         35.4752         32.7067         29.1985         9.85219
           20657         36.9802         34.3976         30.0005         10.2673
           20658         32.4187         30.5455         26.2942         8.75081
           20659         31.3824         30.4728         24.5964         8.18127
           20660         24.3856         26.5813         15.5461         4.45895
           20661         25.3106         26.7396         17.6758         5.34885
           20662         23.6020         24.8741         16.7368         4.98415
           20663         27.3734         28.1089         20.0497         6.34503
           20664         25.7575         26.5815         18.8623         5.84450
           20665         26.9400         28.2950         18.8756         5.85819
           20666         24.6650         27.5245         7.59943    -853.759E-03
           20667         23.5677         25.6628         4.98920    -15.8084E-03
           20668         21.8715         24.1976         5.97425    -754.542E-03
           20669         23.1684         26.0612         8.58107        -1.59028
           20670         27.4807         30.3152         16.0775        -4.65767
           20671         26.7559         29.0988         16.7312        -5.03538
           20672         28.7511         30.8608         18.6491        -5.83018
           20673         29.2910         28.1097         23.8218        -7.52667
           20674         29.2112         28.7050         22.9167        -7.34767
           20675         27.3462         27.0396         21.5266        -6.71693
           20676         27.4203         26.4420         22.4310        -6.89597
           20677         30.9764         30.2412         24.2890        -7.94944
           20678         31.0000         29.6761         25.0341        -8.09395
           20679         30.9408         26.5334         28.4792        -8.12189
           20680         32.7313         28.5404         29.3923        -8.78913
           20681         31.4462         27.6381         28.1565        -8.37457
           20682         43.2275         33.3599         42.9207        -10.7297
           20683         41.9198         32.6213         41.2835        -10.5753
           20684         42.3224         31.8175         42.8843        -10.0705
           20685         48.0740         36.3554         48.8612        -11.2302
           20686         48.6608         37.3248         49.0110        -11.5755
           20687         47.1383         36.0318         47.4268        -11.3034
           20688         48.6698         34.9268         51.4674        -9.95931
           20689         48.8704         34.6936         52.0878        -9.63739
           20690         49.7560         35.4817         52.9448        -9.86792
           20691         49.5592         35.7156         52.3216        -10.1924
           20692         61.3248         41.6047         68.2896        -8.31633
           20693         61.5411         41.2851         68.8945        -7.76121
           20694         58.7487         40.5273         64.6951        -9.04458
           20695         59.4190         41.1648         65.4061        -9.13862
           20696         58.7485         41.2200         64.2180        -9.58156
           20697         58.0768         40.5832         63.5071        -9.48847
           20698         62.9402         42.3375         70.4660        -7.89313
           20699         62.4530         42.3956         69.6642        -8.23305
           20700         61.8950         42.0421         68.9658        -8.29948
           20701         65.6743         43.1207         74.2860        -6.79632
           20702         65.0502         43.1997         73.3238        -7.22267
           20703         64.3300         42.9030         72.3561        -7.45125
           20704         66.9267         43.7783         75.9409        -6.32955
           20705         65.7723         43.8195         74.2981        -6.86395
           20706         66.3195         43.6476         75.0824        -6.65737
           20707         72.0374         44.1789         82.7271        -4.02624
           20708         71.6085         44.0540         82.2042        -4.11934
           20709         76.1481         43.9333         87.8275        -2.10407
           20710         75.6419         44.2415         87.2036        -2.44474
           20711         76.3277         44.2076         88.0288        -2.16599
           20712         78.8128         44.1892         90.9578        -1.26593
           20713         79.1530         44.6716         91.3548        -1.27903
           20714         79.8447         44.5293         92.1569        -1.01694
           20715         79.5067         44.0464         91.7601        -1.00345
           20716         82.4973         42.7919         95.1008     125.427E-03
           20717         82.1148         42.4353         94.6492     173.523E-03
           20718         81.6544         42.7990         94.1568    -33.8707E-03
           20719         83.3132         43.7499         96.0742     49.3623E-03
           20720         82.9146         43.2486         95.5971     66.0662E-03
           20721         84.1594         42.8890         96.9616     355.647E-03
           20722         84.4437         43.5378         97.3259     269.806E-03
           20723         84.8481         43.1213         97.7456     394.320E-03
           20724         86.7179         41.7290         99.6864     612.269E-03
           20725         86.6235         42.5358         99.6632     527.682E-03
           20726         86.7989         42.4684         99.8511     504.073E-03
           20727         86.8955         41.6629         99.8753     589.275E-03
           20728         86.9089         42.4894         99.9749     480.123E-03
           20729         87.0506         41.8514         100.069     430.500E-03
           20730         86.9552         42.7128         100.048     406.012E-03
           20731         86.8892         42.9119         99.9941     368.724E-03
           20732         86.9813         42.0507         100.013     391.915E-03
           20733         86.7334         41.6424         99.6995     326.674E-03
           20734         86.4225         41.7690         99.3708     302.197E-03
           20735         83.2689         41.2002         95.8318     514.937E-03
           20736         83.4541         41.9146         96.0969     576.723E-03
           20737         83.0760         41.6149         95.6520     599.380E-03
           20738         81.4708         41.8344         93.8702     960.042E-03
           20739         81.0909         42.2843         93.4667         1.14301
           20740         78.5170         41.8411         90.5086         1.77082
           20741         77.1831         41.4846         88.9629         2.03754
           20742         78.3054         41.4705         90.2570         1.69525
           20743         77.8421         43.1466         89.7503         2.24101
           20744         77.2392         43.0319         89.0381         2.43841
           20745         77.2707         42.6457         89.0707         2.38058
           20746         77.8758         42.7544         89.7835         2.18074
           20747         69.7561         42.3727         79.8429         5.12296
           20748         70.8336         42.6306         81.1975         4.77828
           20749         71.2335         43.0557         81.7386         4.41691
           20750         68.2922         41.8401         77.9221         5.82100
           20751         69.2655         42.0777         79.1702         5.49384
           20752         68.7728         42.1348         78.5923         5.44924
           20753         58.2199         38.4966         64.1344         9.36846
           20754         58.3317         38.8348         64.0598         9.63570
           20755         59.0198         39.0981         65.0426         9.43703
           20756         58.9162         38.7628         65.1191         9.16986
           20757         51.9970         36.7435         54.5099         11.3308
           20758         52.0844         36.0835         55.2805         10.7943
           20759         50.8743         35.2342         53.8614         10.6998
           20760         50.8021         35.9007         53.0992         11.2364
           20761         46.5145         33.2067         47.8908         10.9191
           20762         46.7335         33.9211         47.5623         11.3221
           20763         47.7861         34.5099         48.9111         11.3754
           20764         42.3318         31.5211         42.0782         10.8655
           20765         44.0436         33.0357         43.5842         11.3832
           20766         35.1177         25.8437         35.3503         8.74245
           20767         34.8910         26.3996         34.4540         8.99874
           20768         36.6934         27.9453         35.9458         9.62435
           20769         34.1062         30.5818         29.0678         9.52182
           20770         35.2082         31.2488         30.2146         9.90589
           20771         34.3920         29.8936         30.2219         9.64824
           20772         33.2800         29.2172         29.0856         9.26894
           20773         18.5115         20.7657         10.3118         2.53362
           20774         18.9326         20.6088         12.7283         3.36774
           20775         17.4194         19.3681         10.7161         2.64756
           20776         19.3589         20.3333         14.5010         3.91146
           20777         21.0427         21.7384         16.0388         4.53323
           20778         20.6951         20.9205         16.5419         4.58434
           20779         19.0103         20.8458         4.57301    -648.770E-03
           20780         17.9706         18.8905         2.00860    -5.28015E-03
           20781         16.0578         17.4711         3.43683    -531.307E-03
           20782         17.3518         19.4293         5.99494        -1.17307
           20783         18.9011         19.4912         15.0463        -3.83946
           20784         19.0115         20.2932         13.8144        -3.61123
           20785         16.7412         18.1516         12.0113        -2.86007
           20786         19.4833         18.4311         17.5997        -4.26325
           20787         19.0476         18.8759         16.2444        -4.05214
           20788         17.2454         16.2644         16.0116        -3.50810
           20789         24.4582         20.0478         24.1130        -5.72320
           20790         23.7668         18.4870         24.2948        -5.22788
           20791         26.5226         21.5842         26.0313        -6.37195
           20792         29.9136         25.2837         28.0243        -7.71909
           20793         28.8135         23.9529         27.5343        -7.25402
           20794         29.9855         24.3451         29.0510        -7.52188
           20795         36.7070         29.1855         35.5923        -9.44418
           20796         35.4095         28.6582         33.8807        -9.23034
           20797         35.3023         27.9405         34.4379        -8.97824
           20798         45.6411         31.4930         49.4221        -8.27064
           20799         52.2122         36.2714         56.7650        -9.07721
           20800         52.0510         36.7040         56.0061        -9.67959
           20801         50.9341         35.9083         54.7242        -9.57764
           20802         51.0876         35.4795         55.4784        -8.97479
           20803         60.0947         40.0124         67.8137        -6.45669
           20804         60.9704         40.5350         68.8523        -6.44462
           20805         60.7477         40.4861         68.3837        -6.91424
           20806         73.0692         44.3900         84.0154        -3.62846
           20807         72.6974         44.1900         83.5671        -3.72033
           20808         72.4071         44.3800         83.1748        -3.93498
           20809         75.2724         45.3198         86.7067        -2.80033
           20810         74.6669         45.3501         85.9649        -3.00418
           20811         74.9556         45.7572         86.3097        -2.85984
           20812         75.5596         45.7270         87.0499        -2.65453
           20813         76.8549         45.6899         88.6201        -2.20767
           20814         75.8804         45.2542         87.4510        -2.56474
           20815         76.2383         45.7855         87.8720        -2.43228
           20816         79.0619         45.8610         91.2462        -1.45283
           20817         79.9316         46.5970         92.2648        -1.19123
           20818         81.0347         45.6298         93.5474    -813.697E-03
           20819         81.6375         45.4740         94.2398    -613.326E-03
           20820         81.4032         44.8079         93.9552    -602.584E-03
           20821         80.7940         44.9628         93.2592    -800.028E-03
           20822         83.2161         45.5511         96.0463    -214.787E-03
           20823         82.6045         45.2694         95.3409    -332.298E-03
           20824         82.8229         45.7799         95.6048    -333.140E-03
           20825         85.4978         45.5938         98.6299     205.600E-03
           20826         85.8089         44.9848         98.9462     290.097E-03
           20827         85.6138         43.9917         98.6633     352.391E-03
           20828         86.3332         45.0981         99.5409     316.132E-03
           20829         86.2302         46.1251         99.4811     261.683E-03
           20830         86.4008         46.3366         99.6836     257.648E-03
           20831         86.4981         45.3121         99.7387     313.415E-03
           20832         86.6874         45.5612         99.9659     299.010E-03
           20833         86.6094         45.4318         99.8708     304.766E-03
           20834         86.5381         46.5351         99.8476     258.137E-03
           20835         86.7350         43.9393         99.9098     320.258E-03
           20836         86.6275         44.5392         99.8340     305.474E-03
           20837         86.5724         43.9576         99.7302     313.074E-03
           20838         86.6881         43.3559         99.8105     331.419E-03
           20839         86.4277         44.4954         99.6078     302.569E-03
           20840         86.3662         43.8511         99.4925     311.190E-03
           20841         85.9810         44.5179         99.1097     321.364E-03
           20842         85.7147         43.9058         98.7700     346.266E-03
           20843         85.9663         43.7509         99.0394     328.043E-03
           20844         83.3092         42.5207         95.9808     652.235E-03
           20845         83.9121         42.1926         96.6295     521.327E-03
           20846         82.3105         44.9968         94.9813     952.316E-03
           20847         82.6999         44.5591         95.4086     871.231E-03
           20848         82.6868         45.5561         95.4305     858.537E-03
           20849         80.9065         45.3123         93.3730         1.30169
           20850         81.5760         45.0716         94.1404         1.13219
           20851         74.6494         43.2072         85.9303         3.38883
           20852         75.4585         43.5121         86.9138         3.08141
           20853         75.2951         43.9566         86.7225         3.07664
           20854         74.4892         43.6484         85.7411         3.38583
           20855         63.1911         40.0722         71.6166         6.53786
           20856         63.8649         40.4830         72.6208         5.94362
           20857         62.5135         39.7623         70.8555         6.42324
           20858         59.6674         38.3357         67.0780         7.36213
           20859         60.6322         38.8692         68.1790         7.46404
           20860         61.1184         39.0581         69.0145         6.89218
           20861         54.3213         35.2564         60.4551         7.84004
           20862         53.9431         34.7879         60.4965         6.93728
           20863         47.3935         31.7526         51.0776         9.14406
           20864         46.8918         30.7203         51.3236         8.11737
           20865         46.3693         30.7966         50.2398         8.65758
           20866         42.0462         27.4831         45.7604         7.66357
           20867         43.9233         28.5627         48.1085         7.59642
           20868         42.5565         27.2848         46.8950         6.99952
           20869         41.6256         27.7956         44.6561         8.31011
           20870         40.5725         26.1070         44.4516         7.04987
           20871         40.1180         26.4195         43.3475         7.69586
           20872         37.4295         26.3025         38.7873         8.65829
           20873         39.1666         27.8468         40.2508         9.29707
           20874         39.4246         27.3071         41.2471         8.82489
           20875         30.3682         25.1860         28.3150         8.15054
           20876         28.6501         24.1179         26.6106         7.58991
           20877         29.6083         25.5663         26.7312         7.99741
           20878         15.2286         15.8012         12.4846         2.80704
           20879         16.2481         17.4080         12.0822         2.90450
           20880         21.7643         20.6851         18.8282         5.18890
           20881         23.6143         21.8385         20.7525         5.86666
           20882         22.7560         20.3020         20.8713         5.59110
           20883         20.8579         19.1516         18.9485         4.90288
           20884         9.77746         10.6349         2.05990    -231.897E-03
           20885         8.69300         8.61556    -152.470E-03     34.1304E-03
           20886         8.01877         9.21151         4.00786    -318.352E-03
           20887         15.1837         14.1151         14.6407        -2.80543
           20888         16.0405         13.8879         16.1651        -3.03394
           20889         18.0166         16.0305         17.5169        -3.72300
           20890         18.6772         15.6442         18.8287        -3.83568
           20891         20.5221         17.5831         20.1108        -4.51506
           20892         19.9107         17.9728         18.7868        -4.40155
           20893         22.9679         15.1905         25.0871        -4.02050
           20894         21.8480         15.4317         23.4448        -4.13661
           20895         30.8246         21.3665         32.8928        -6.17779
           20896         32.7134         22.2347         35.2379        -6.26044
           20897         32.7007         23.2101         34.4577        -6.90549
           20898         34.5137         24.8581         36.0363        -7.53767
           20899         34.4130         23.9802         36.6237        -6.97978
           20900         35.9689         26.2307         37.2819        -8.03535
           20901         38.2862         25.8223         41.6102        -6.88248
           20902         36.5662         24.5608         39.7383        -6.60116
           20903         43.1572         28.7721         47.6020        -6.79126
           20904         44.7016         29.6074         49.6592        -6.47764
           20905         44.5435         30.0253         48.9143        -7.27252
           20906         44.4659         30.4936         48.2777        -7.93264
           20907         45.7043         31.0230         50.0608        -7.60288
           20908         48.8943         32.2004         55.0318        -5.69614
           20909         49.2434         32.9910         54.7606        -6.93745
           20910         48.2740         32.0828         53.9255        -6.40816
           20911         59.3054         39.4875         67.4776        -4.80132
           20912         58.1905         38.7965         66.3187        -4.31002
           20913         59.0029         39.4836         67.4753        -3.34847
           20914         56.2733         37.4223         64.1028        -4.31899
           20915         57.1111         38.0528         65.2635        -3.54925
           20916         57.3823         38.1672         65.1572        -5.07926
           20917         62.0947         41.1404         70.2352        -6.31756
           20918         61.5291         40.8719         69.4159        -6.68121
           20919         61.5427         40.8026         69.6762        -6.07872
           20920         66.2372         43.3633         75.6129        -4.77869
           20921         64.9354         42.6815         73.9884        -5.11704
           20922         70.2397         44.4518         80.4418        -4.56635
           20923         71.0037         44.6276         81.4079        -4.30868
           20924         70.5090         44.3029         80.7543        -4.66025
           20925         69.7506         44.1262         79.7885        -4.91874
           20926         71.3690         45.0400         81.8851        -3.99451
           20927         72.1260         45.2183         82.8276        -3.75814
           20928         71.7559         44.8045         82.3486        -4.07277
           20929         75.1945         46.9669         86.5826        -2.46948
           20930         74.7759         46.3390         86.0824        -2.76470
           20931         74.2015         46.4390         85.3830        -2.83591
           20932         74.6241         47.0663         85.8865        -2.54226
           20933         78.3485         47.2835         90.3774        -1.63678
           20934         78.0439         47.8032         89.9990        -1.64600
           20935         78.9331         47.8654         91.0600        -1.41839
           20936         79.7983         47.7203         92.0915        -1.20155
           20937         80.3149         48.4090         92.6864        -1.02342
           20938         80.5933         47.9356         93.0261    -978.300E-03
           20939         80.0799         47.2515         92.4318        -1.15139
           20940         81.7658         48.3958         94.3952    -673.943E-03
           20941         82.1207         47.9549         94.8155    -587.216E-03
           20942         81.6323         47.1676         94.2500    -717.598E-03
           20943         81.2700         47.6055         93.8252    -805.309E-03
           20944         83.9137         48.1975         96.8940    -184.962E-03
           20945         83.7897         47.6003         96.7471    -200.287E-03
           20946         84.2349         48.4569         97.2656    -125.320E-03
           20947         84.5734         48.3446         97.6553    -58.9958E-03
           20948         84.4984         47.3376         97.5561    -47.7515E-03
           20949         84.1551         47.4473         97.1649    -115.560E-03
           20950         86.4283         49.1056         99.7941     166.715E-03
           20951         86.5308         49.2050         99.9129     164.181E-03
           20952         86.4688         47.6980         99.8122     209.960E-03
           20953         86.6216         48.2687         100.001     198.717E-03
           20954         86.5630         48.3306         99.9357     195.847E-03
           20955         86.4407         48.4122         99.7976     197.105E-03
           20956         86.2880         48.5370         99.6251     201.057E-03
           20957         85.0798         44.9957         98.1258     413.310E-03
           20958         85.1605         46.0032         98.2655     383.959E-03
           20959         84.7302         46.1409         97.7823     447.256E-03
           20960         84.6447         45.1324         97.6418     477.930E-03
           20961         84.4316         46.3949         97.4513     483.278E-03
           20962         84.9223         47.2811         98.0363     380.268E-03
           20963         84.6298         47.5357         97.7066     418.580E-03
           20964         82.9318         47.5385         95.7501     708.828E-03
           20965         83.0343         46.7086         95.8581     735.050E-03
           20966         83.4741         47.2884         96.3740     621.116E-03
           20967         83.3747         48.1185         96.2655     593.729E-03
           20968         80.1962         47.2268         92.5598         1.29648
           20969         80.5368         46.8104         92.9601         1.27583
           20970         80.9907         47.5666         93.4896         1.09414
           20971         79.3201         46.8065         91.5313         1.53947
           20972         79.0857         47.3750         91.2488         1.49746
           20973         78.5341         46.8668         90.6014         1.70259
           20974         78.7682         46.3067         90.8807         1.75086
           20975         76.5822         45.9018         88.2863         2.30128
           20976         75.8341         45.4513         87.3899         2.58135
           20977         75.9165         44.8479         87.4833         2.71392
           20978         76.6634         45.2993         88.3800         2.43443
           20979         73.3388         45.1605         84.3968         3.03841
           20980         72.4331         44.6687         83.2942         3.36593
           20981         72.3871         44.0181         83.2096         3.70507
           20982         63.0589         40.5740         72.0829         4.43148
           20983         64.0183         41.1465         73.2220         4.34655
           20984         63.1139         41.0184         72.3028         3.60115
           20985         58.7098         37.7090         66.6484         5.65992
           20986         60.2280         38.7037         68.5698         5.21301
           20987         59.1969         38.1096         67.4486         4.93481
           20988         48.8481         31.1067         54.9003         6.11651
           20989         49.7411         31.9355         55.5946         6.80654
           20990         50.6122         32.3690         56.9440         6.17638
           20991         47.4702         30.7395         52.4827         7.46917
           20992         45.7306         29.6488         50.3524         7.52241
           20993         43.1604         27.2239         48.1062         6.24805
           20994         41.1171         25.9130         45.6277         6.31393
           20995         36.8470         23.3066         40.4758         6.31317
           20996         38.5167         24.9231         41.9355         7.04633
           20997         39.0271         24.6241         43.0907         6.35167
           20998         31.7858         21.2290         33.9303         6.54995
           20999         32.2336         20.6412         35.0371         6.01535
           21000         30.3368         18.7469         33.3501         5.22371
           21001         29.8245         19.3346         32.2431         5.75800
           21002         27.0976         19.0277         28.4347         5.90876
           21003         27.3882         18.1102         29.4296         5.44700
           21004         24.9737         17.0488         26.6220         5.10438
           21005         27.0155         19.9793         27.6277         6.30766
           21006         24.8155         18.1995         25.6897         5.54269
           21007         25.0475         19.4720         25.0954         5.97491
           21008         15.5869         15.4068         13.8088         3.03587
           21009         17.2956         16.8153         15.3022         3.63029
           21010         15.5074         14.4530         14.7097         3.04483
           21011         65.1607         43.6635         74.6139        -3.16679
           21012         66.7237         44.6303         76.4541        -3.00721
           21013         68.7107         45.2365         78.7708        -3.33157
           21014         68.2476         45.4728         78.2508        -2.89007
           21015         76.3049         49.6566         87.8107        -1.45132
           21016         75.6793         48.6830         87.1095        -1.82691
           21017         75.0611         49.0076         86.3422        -1.72014
           21018         78.5109         50.4509         90.4297        -1.06259
           21019         77.8933         49.5351         89.7420        -1.34132
           21020         77.4486         50.1242         89.1663        -1.24114
           21021         80.6483         49.7738         93.0339    -828.424E-03
           21022         81.1609         51.4582         93.5535    -570.334E-03
           21023         81.3481         50.5344         93.8313    -628.907E-03
           21024         82.6785         51.1871         95.3808    -360.710E-03
           21025         81.8578         50.6069         94.4342    -529.803E-03
           21026         82.1594         51.6930         94.7342    -416.689E-03
           21027         83.4014         51.5350         96.2213    -237.800E-03
           21028         83.7506         52.4436         96.5875    -165.380E-03
           21029         84.0432         51.6757         96.9745    -145.872E-03
           21030         83.7020         50.7674         96.6079    -217.402E-03
           21031         85.2413         49.1989         98.4282     29.6453E-03
           21032         84.9714         48.9414         98.1164    -4.05549E-03
           21033         85.1947         50.2064         98.3673     7.98355E-03
           21034         86.5291         50.3076         99.9139     136.432E-03
           21035         86.4801         51.1427         99.8484     117.687E-03
           21036         86.5554         52.3675         99.9066     88.6528E-03
           21037         86.4540         51.5900         99.8093     107.857E-03
           21038         86.2562         51.4462         99.5815     117.143E-03
           21039         85.8158         50.0041         99.0894     188.413E-03
           21040         85.9767         51.1486         99.2615     138.968E-03
           21041         83.7189         49.7609         96.6522     434.732E-03
           21042         83.2639         49.0805         96.1315     548.456E-03
           21043         82.8920         50.8211         95.6485     458.454E-03
           21044         83.1002         49.9259         95.9237     508.130E-03
           21045         83.5687         50.7979         96.4480     382.752E-03
           21046         81.3158         50.4230         93.7972     684.008E-03
           21047         81.6325         49.7105         94.2015     735.870E-03
           21048         82.1413         50.6794         94.7656     558.690E-03
           21049         78.9572         48.3856         91.0737         1.33035
           21050         78.7150         49.7371         90.7267         1.06647
           21051         78.2468         48.6184         90.2197         1.35981
           21052         76.4508         48.3606         88.0795         1.58748
           21053         77.5038         48.2893         89.3435         1.53415
           21054         77.4135         49.2273         89.1935         1.26413
           21055         74.6030         47.2597         85.9044         2.03185
           21056         75.3683         48.1888         86.7878         1.66412
           21057         74.9997         48.7039         86.3179         1.42864
           21058         74.2254         47.7749         85.4334         1.79631
           21059         73.0210         47.0715         84.0163         2.03090
           21060         72.3703         47.1977         83.2344         1.85760
           21061         71.7194         46.1910         82.4817         2.36256
           21062         62.0806         69.1759         41.1320         8.60606
           21063         61.0777         67.6164         41.0921         9.10035
           21064         61.5944         68.4710         40.8689         8.82535
           21065         62.4559         69.6971         41.8888         8.32494
           21066         62.6601         70.0226         41.3915         8.33092
           21067         60.0802         65.8033         43.5243         9.11460
           21068         59.6616         65.0487         43.8933         9.25111
           21069         59.3682         64.4837         43.6637         9.58314
           21070         61.2337         68.2292         44.5606         7.04793
           21071         60.5689         67.0669         44.8607         7.45661
           21072         60.8573         67.4029         44.3043         7.82802
           21073         61.5261         68.5638         44.0064         7.41961
           21074         58.7859         64.1776         47.3072         6.71102
           21075         59.1022         64.6047         46.6842         7.20905
           21076         59.5697         65.7894         46.6657         6.12999
           21077         59.1397         65.2158         47.3232         5.51197
           21078         58.7855         64.6392         47.9098         5.13187
           21079         58.6815         64.1469         47.7036         6.13993
           21080         57.3275         61.5727         50.1637         4.74547
           21081         57.7082         62.6540         49.5461         4.24872
           21082         57.0618         61.0753         50.7205         4.12570
           21083         55.8695         54.6911         56.8814         1.37779
           21084         55.8131         55.4922         56.1026     701.740E-03
           21085         55.8588         54.6663         56.9579     652.779E-03
           21086         56.0405         53.6149         57.7818        -2.89845
           21087         55.9264         54.9713         56.3220        -3.15421
           21088         56.0640         54.1183         57.0957        -3.84637
           21089         57.5797         53.7312         55.4133        -10.5700
           21090         57.5387         52.3616         57.0050        -10.0709
           21091         56.7739         53.3346         56.8262        -7.75204
           21092         56.8051         54.7027         55.2441        -8.25693
           21093         69.2842         53.3770         48.2719        -27.0655
           21094         63.5974         55.0518         49.7851        -20.6247
           21095         67.0550         56.3937         46.8593        -24.2411
           21096         67.6906         43.5403         60.0595        -23.7635
           21097         70.9703         40.4216         62.4495        -25.9951
           21098         59.5487         47.8553         61.7222        -11.5474
           21099         60.9164         46.3366         62.9173        -13.1722
           21100         60.9342         45.8153         64.4768        -11.7004
           21101         59.6194         47.3377         63.2819        -10.0769
           21102         62.6519         43.8911         67.4121        -11.7364
           21103         62.5490         44.2112         65.8735        -13.3014
           21104         66.3060         76.1104         42.9976         3.02575
           21105         65.3568         74.6741         41.3007         4.95403
           21106         66.2819         75.8841         41.9241         4.42105
           21107         66.6471         76.2480         41.8852         4.73877
           21108         64.2261         72.8084         40.4573         6.65235
           21109         65.6221         74.6338         40.9774         6.19698
           21110         67.2983         76.6579         41.5565         6.09135
           21111         65.9818         74.8623         41.5425         6.66877
           21112         66.4637         75.5110         41.4549         6.51400
           21113         63.8620         72.0552         42.7417         6.81450
           21114         63.0766         70.8802         42.9790         7.16046
           21115         63.1388         70.8882         42.6894         7.41974
           21116         63.9262         72.0664         42.4504         7.07595
           21117         62.5458         70.4527         44.0699         6.08517
           21118         62.1081         69.9407         44.5714         5.67065
           21119         61.8459         69.4180         44.5656         6.15428
           21120         61.6220         69.3051         45.0310         5.39026
           21121         62.9457         71.3240         44.2475         4.93690
           21122         60.4431         67.8624         46.5036         3.71133
           21123         59.5782         66.3193         47.1966         4.23626
           21124         59.8820         66.6665         46.7603         4.90768
           21125         60.7395         68.2000         46.0683         4.38229
           21126         58.2504         64.2153         49.0170         2.19677
           21127         58.5472         64.6869         48.5923         2.91257
           21128         58.9969         65.6892         48.1990         1.68963
           21129         57.8287         63.4537         49.6648     933.173E-03
           21130         57.4967         62.7339         50.1855     159.139E-03
           21131         57.4953         62.7097         50.1670     899.894E-03
           21132         56.4523         59.0576         52.5978        -3.59808
           21133         56.3418         59.2189         52.6797        -2.00007
           21134         56.1789         56.8725         54.2155        -4.67758
           21135         56.3842         55.7283         54.9167        -6.27444
           21136         56.1884         54.6544         56.1276        -5.39574
           21137         55.9976         55.7961         55.4195        -3.80327
           21138         57.1641         56.2484         53.5760        -9.07419
           21139         56.7128         57.2666         53.2529        -7.08560
           21140         58.4191         56.8889         51.9609        -12.0070
           21141         58.9633         58.6685         50.3312        -12.3059
           21142         60.0049         57.9018         50.0275        -14.6276
           21143         59.4467         56.1161         51.6576        -14.3202
           21144         58.4508         50.0300         59.2098        -11.1050
           21145         57.5868         51.2100         58.6766        -9.23139
           21146         58.4289         51.1781         57.5477        -11.9470
           21147         57.6866         50.3394         59.9537        -8.51025
           21148         57.0614         52.0067         58.1867        -7.99403
           21149         68.2866         78.4047         43.4906         3.37659
           21150         67.8596         77.9388         43.8194         2.91881
           21151         70.5879         80.9655         42.3985         4.56160
           21152         70.1216         80.4013         42.4702         4.60507
           21153         70.9642         81.4818         42.9950         4.13830
           21154         71.4326         82.0460         42.9202         4.09677
           21155         69.7538         79.8959         42.0888         4.94954
           21156         70.8932         81.3405         42.3214         4.50598
           21157         70.0604         80.2755         42.0150         4.89293
           21158         68.0953         77.7297         41.6532         5.70857
           21159         68.9869         78.9144         41.6974         5.27776
           21160         68.6114         78.4508         41.7182         5.33587
           21161         66.9159         76.2725         41.8992         5.78680
           21162         68.2193         77.9825         41.7488         5.33278
           21163         67.8259         77.5141         41.8641         5.30309
           21164         64.6068         73.1550         42.5366         6.44969
           21165         64.4302         72.9881         42.8061         6.21732
           21166         63.6838         71.8869         43.0076         6.58095
           21167         64.5536         73.4759         43.2866         5.00842
           21168         64.8119         73.7447         43.0332         5.28884
           21169         63.7293         72.5121         43.9360         4.43229
           21170         64.8132         74.0718         43.4528         3.85585
           21171         64.4433         73.6630         43.7586         3.42896
           21172         62.0670         70.5865         45.4655         1.99905
           21173         63.0632         72.0254         44.8090         1.71808
           21174         62.0408         70.6158         45.5642         1.14419
           21175         59.4845         66.6156         47.7120     948.332E-03
           21176         60.1638         67.7325         47.0620         1.26351
           21177         60.5504         68.3904         46.7767     198.245E-03
           21178         58.3951         64.4257         49.0157        -2.21021
           21179         58.1363         64.0397         49.3087        -1.30584
           21180         58.7066         65.1824         48.6269    -959.678E-03
           21181         58.9653         65.5714         48.3354        -1.86234
           21182         58.1269         63.5600         49.3940        -3.58631
           21183         58.5671         64.1274         48.8395        -4.63448
           21184         58.0748         62.8662         49.5567        -5.16740
           21185         57.6623         57.8521         51.9302        -9.75706
           21186         57.8839         55.2925         53.5937        -11.3186
           21187         60.0721         63.9044         47.4367        -10.1004
           21188         60.5215         63.3020         47.2249        -11.7608
           21189         59.2680         61.2184         48.8764        -11.0791
           21190         58.8457         61.8287         49.0773        -9.41344
           21191         66.7342         65.3200         42.1126        -19.6983
           21192         67.3410         63.2914         42.5931        -21.6842
           21193         65.0678         61.5477         44.7218        -19.9849
           21194         64.4842         63.5690         44.2437        -18.0020
           21195         70.0317         58.2182         44.0916        -26.6955
           21196         65.5806         59.1388         45.8335        -21.7044
           21197         68.5093         60.9452         43.1182        -24.1376
           21198         75.4480         86.8897         48.4146         1.33492
           21199         76.0378         87.6156         48.0643         1.44447
           21200         72.2615         83.0843         43.3620         3.70395
           21201         72.2385         83.0754         43.7914         3.52066
           21202         73.0493         84.0704         44.1694         3.20271
           21203         72.2558         83.0509         42.1651         3.97507
           21204         72.0033         82.7312         42.4505         4.08057
           21205         72.9809         83.9435         42.7969         3.68118
           21206         72.0606         82.8281         41.9643         3.96033
           21207         73.0072         84.0047         41.9568         3.53370
           21208         71.5000         82.1697         41.7190         3.99838
           21209         71.0407         81.6419         41.6502         3.96023
           21210         67.7398         77.5762         42.0488         4.63651
           21211         68.2719         78.1950         41.9035         4.73789
           21212         69.1117         79.3155         41.7785         4.23184
           21213         68.5781         78.6989         41.9234         4.13081
           21214         68.0281         78.2994         42.2193         2.60117
           21215         67.7976         78.0789         42.3526         2.10654
           21216         66.9359         76.9837         42.6635         2.45926
           21217         64.5341         74.0041         43.9125         1.77392
           21218         64.9290         74.4611         43.6608         2.31538
           21219         65.1220         74.8440         43.7160    -119.701E-03
           21220         66.2315         76.2469         43.1147    -708.693E-03
           21221         65.9918         75.9011         43.2491        -1.42743
           21222         64.8697         74.4974         43.8497    -837.871E-03
           21223         63.6233         72.6133         44.5864        -2.87805
           21224         64.7314         74.0047         43.8663        -3.44086
           21225         64.4023         73.4490         44.0389        -4.00388
           21226         63.2996         72.0644         44.7643        -3.44635
           21227         62.4429         69.8005         45.1448        -6.83346
           21228         64.1891         72.0551         43.8613        -7.41439
           21229         63.4693         70.7655         44.3235        -8.01264
           21230         60.2800         66.4935         47.0097        -6.53738
           21231         60.9480         66.9437         46.3484        -7.91123
           21232         60.2436         65.5245         47.0698        -8.25603
           21233         62.7061         62.0627         45.9764        -16.5315
           21234         62.3407         63.6688         45.7087        -14.7600
           21235         64.0790         65.1706         43.9692        -16.2390
           21236         69.6028         73.6168         39.0017        -16.0744
           21237         67.7962         71.5014         40.3776        -15.7118
           21238         66.5949         71.4784         41.4564        -13.7879
           21239         68.3637         73.6007         40.1036        -14.1408
           21240         71.2558         71.7985         37.6232        -20.0678
           21241         74.3791         74.8589         34.9684        -21.0024
           21242         75.2993         73.3055         34.4944        -23.3456
           21243         61.3926         61.1354         47.3346        -15.1081
           21244         62.9483         60.3691         46.6627        -17.8665
           21245         61.6118         59.4510         48.0180        -16.4375
           21246         76.5333         88.2283         47.5512         1.56588
           21247         75.8974         87.4976         44.6862         2.42640
           21248         75.2182         86.6845         44.5080         2.63047
           21249         75.3953         86.9013         45.1488         2.42762
           21250         76.0664         87.7040         45.3373         2.22850
           21251         75.5060         87.0135         43.1573         2.73915
           21252         75.0904         86.5164         42.4400         2.83335
           21253         75.5254         87.0532         41.7794         2.40376
           21254         76.0136         87.6237         41.9971         2.33387
           21255         75.9625         87.5718         41.5867         2.14913
           21256         73.6190         84.8269         41.3615         2.70470
           21257         69.8884         80.6781         41.5408     638.800E-03
           21258         70.4926         81.3730         41.3610     927.517E-03
           21259         71.6133         82.6877         40.9407     349.462E-03
           21260         70.9965         81.9794         41.1216     60.4836E-03
           21261         67.9189         78.3410         42.3297     74.7195E-03
           21262         68.2799         78.7677         42.1613     625.897E-03
           21263         68.7688         79.2803         41.8568        -1.84503
           21264         67.2083         77.3652         42.5877        -2.05511
           21265         67.4306         77.7044         42.5251        -1.27998
           21266         67.8756         77.8101         42.1121        -4.32059
           21267         69.3853         79.5096         41.2989        -4.85131
           21268         67.7312         77.4001         42.0744        -5.26141
           21269         67.9902         77.0121         41.6400        -7.40930
           21270         66.2590         74.6343         42.5192        -7.86290
           21271         66.4827         75.3705         42.5774        -6.72039
           21272         61.7272         68.4842         45.6999        -7.33485
           21273         62.6806         69.2435         44.8260        -8.73173
           21274         79.3066         91.4891         48.7526     964.906E-03
           21275         78.5988         90.6769         47.9176         1.21152
           21276         78.4646         90.5462         45.8796         1.56795
           21277         77.7865         89.7449         45.2574         1.82419
           21278         78.1774         90.2044         46.4974         1.54142
           21279         76.3923         88.0789         43.6856         2.39717
           21280         77.2349         89.0830         44.1568         2.10096
           21281         77.5418         89.4397         43.6982         2.00776
           21282         76.8211         88.5742         40.9853         1.47599
           21283         77.0717         88.8620         41.2834         1.61144
           21284         77.8006         89.6949         41.1373         1.32871
           21285         77.5553         89.4099         40.8378         1.19240
           21286         74.4740         85.9142         40.6263         1.29139
           21287         75.3008         86.8544         40.4893         1.12643
           21288         74.7487         86.2352         40.4451     974.928E-03
           21289         72.6565         83.8814         40.5695    -94.4683E-03
           21290         72.1080         83.2487         40.8616     637.501E-03
           21291         72.5013         83.6757         40.4473        -1.04703
           21292         72.9420         84.1864         40.3486    -809.635E-03
           21293         73.8255         85.1547         39.9671        -1.27764
           21294         73.3854         84.6441         40.0655        -1.51261
           21295         71.9608         82.2589         39.9803        -5.83485
           21296         71.7767         81.8304         39.9501        -6.55240
           21297         70.8155         81.0441         40.5678        -5.43824
           21298         72.0654         80.5568         38.9129        -10.4004
           21299         72.7909         80.6762         38.1470        -11.7222
           21300         81.8884         94.5162         49.4954     492.083E-03
           21301         81.6353         94.2461         48.2822     642.076E-03
           21302         78.9259         91.0854         45.3374         1.51142
           21303         78.3441         90.3875         44.1089         1.75023
           21304         78.0597         90.0627         44.7110         1.80190
           21305         80.7983         93.2438         44.5052         1.01337
           21306         80.9353         93.3758         43.7658     950.256E-03
           21307         80.2472         92.5783         43.5249         1.14088
           21308         80.9354         93.2317         41.0856     530.557E-03
           21309         80.7581         93.0721         41.6878     720.519E-03
           21310         81.4859         93.8958         41.7842     573.161E-03
           21311         79.3800         91.4328         40.1766     419.106E-03
           21312         79.2607         91.2761         39.8347     166.195E-03
           21313         78.4731         90.4296         40.3621     667.110E-03
           21314         78.8008         90.7139         39.2480    -404.753E-03
           21315         77.6630         89.4790         39.5767    -80.4293E-03
           21316         79.0682         91.0339         39.4872    -111.424E-03
           21317         77.8418         89.4951         38.4858        -2.09078
           21318         77.1505         88.7924         38.8548        -1.67651
           21319         77.7883         89.5063         38.7597        -1.47802
           21320         78.4836         90.2127         38.3868        -1.89574
           21321         77.8866         89.4532         38.2357        -2.75524
           21322         78.7207         90.2669         37.7855        -3.25962
           21323         77.7299         89.1639         38.0642        -3.50228
           21324         76.6621         87.3869         37.8942        -6.22072
           21325         77.6654         88.2570         37.3222        -6.91876
           21326         76.6304         87.0156         37.6825        -7.29136
           21327         73.7371         82.9754         38.4120        -9.38107
           21328         72.7359         82.3131         39.1635        -8.26554
           21329         74.3083         84.1705         38.5029        -8.07013
           21330         79.6013         86.7056         33.5009        -14.1527
           21331         77.1007         84.5501         35.2935        -13.3446
           21332         83.0601         95.8916         49.4426     334.101E-03
           21333         82.6823         95.4321         50.0702     343.858E-03
           21334         83.1825         96.0338         46.6254     419.158E-03
           21335         82.8278         95.6228         46.4260     495.246E-03
           21336         82.7542         95.5468         46.9790     495.056E-03
           21337         83.1039         95.9520         47.1798     419.457E-03
           21338         82.8553         95.5569         43.7748     459.651E-03
           21339         82.1306         94.7537         44.1432     651.448E-03
           21340         82.5593         95.2523         44.4072     556.514E-03
           21341         82.9641         95.5266         41.5236     199.916E-03
           21342         82.1341         94.6339         41.9568     444.326E-03
           21343         82.6375         95.2128         42.1818     375.841E-03
           21344         81.5747         93.6770         38.4496    -919.268E-03
           21345         81.5619         93.7249         38.9171    -564.496E-03
           21346         82.1316         94.2952         38.5023    -849.200E-03
           21347         80.1531         91.8974         37.5461        -2.58660
           21348         79.8177         91.6295         37.9581        -2.01445
           21349         82.6305         94.1661         35.9620        -4.23019
           21350         84.4471         95.9980         35.1747        -4.28712
           21351         82.6297         93.8788         35.6059        -5.45559
           21352         84.0948         95.3060         34.9302        -5.70482
           21353         83.1421         94.2962         35.2920        -5.86588
           21354         84.3471         94.2278         33.7173        -9.58833
           21355         84.7452         94.9232         33.8359        -8.91230
           21356         84.5806         97.6479         50.4076     108.758E-03
           21357         84.2659         97.2950         49.6073     165.334E-03
           21358         83.9620         96.8483         44.5870     260.357E-03
           21359         83.4532         96.2656         44.4247     356.984E-03
           21360         83.4182         96.2624         45.2453     381.188E-03
           21361         83.6824         96.1078         39.4084    -392.641E-03
           21362         84.1132         96.4912         38.7178    -666.722E-03
           21363         83.4496         95.7613         38.6724    -676.098E-03
           21364         84.4919         96.6760         37.2290        -1.38973
           21365         85.1295         97.3449         37.0689        -1.33744
           21366         84.6973         96.8171         36.7769        -1.65178
           21367         82.4605         94.4303         37.2016        -1.97157
           21368         82.8958         94.8211         36.8131        -2.31872
           21369         84.8047         96.5767         35.4435        -3.24317
           21370         85.7357         97.4522         34.9060        -3.50864
           21371         85.1727         96.8130         34.9935        -3.86938
           21372         85.4821         96.9622         34.6082        -4.60027
           21373         86.6230         98.0008         34.0101        -5.02345
           21374         85.6415         96.9286         34.3366        -5.43137
           21375         86.6941         97.5273         33.5595        -7.09509
           21376         88.2559         99.1468         33.0042        -6.88017
           21377         88.4389         99.1634         32.8137        -7.42176
           21378         90.2407         100.707         31.9339        -8.11892
           21379         90.0881         100.299         31.6777        -8.75068
           21380         85.4102         98.6084         47.8263     56.1133E-03
           21381         85.0671         98.2063         47.3632     98.3153E-03
           21382         85.3095         98.5063         48.9610     59.8833E-03
           21383         85.7314         98.9310         46.4057     26.9441E-03
           21384         86.0160         99.2576         46.5165     434.252E-06
           21385         86.1185         99.3050         45.1504    -18.4738E-03
           21386         85.8313         98.9765         45.0425     2.80169E-03
           21387         86.1596         99.2291         43.3976    -57.9795E-03
           21388         86.0820         99.0467         42.2843    -100.462E-03
           21389         85.7372         98.7084         42.7701    -61.1410E-03
           21390         85.8276         98.8966         43.8830    -19.3125E-03
           21391         85.5349         98.2385         40.2938    -273.790E-03
           21392         85.1708         97.9526         41.3619    -120.831E-03
           21393         85.6042         98.3954         41.0284    -185.044E-03
           21394         85.9066         98.5193         39.2686    -442.056E-03
           21395         85.9694         98.6712         39.9324    -327.001E-03
           21396         87.0225         99.2045         35.9679        -1.39790
           21397         87.3466         99.5724         36.0294        -1.17971
           21398         87.8295         99.9804         35.4386        -1.31969
           21399         87.5044         99.6115         35.3815        -1.54154
           21400         87.2096         99.2691         35.3178        -1.80474
           21401         87.7432         99.7431         34.8277        -1.91835
           21402         89.1846         100.804         33.1969        -3.50322
           21403         89.2582         100.962         33.2959        -2.98814
           21404         90.1024         101.776         32.8805        -2.90780
           21405         90.0363         101.628         32.7815        -3.42413
           21406         93.2011         104.318         31.6230        -5.85920
           21407         91.8876         102.710         31.7578        -7.00501
           21408         91.6048         102.547         31.8979        -6.55932
           21409         86.2670         99.6119         50.1030    -9.22946E-03
           21410         86.3697         99.7215         51.0578    -11.5088E-03
           21411         86.3862         99.7452         49.0065    -10.0238E-03
           21412         86.5482         99.6460         43.2218    -69.4949E-03
           21413         86.6290         99.7811         43.7775    -44.7618E-03
           21414         86.8086         99.9102         42.9424    -57.8131E-03
           21415         86.8657         99.7262         40.5592    -183.536E-03
           21416         86.8253         99.6266         40.0989    -230.400E-03
           21417         86.5805         99.4322         40.7177    -204.532E-03
           21418         86.6276         99.5360         41.1821    -157.007E-03
           21419         87.0775         99.7302         38.7957    -354.719E-03
           21420         86.9293         99.6673         39.5249    -287.118E-03
           21421         87.9751         100.377         36.6877    -503.879E-03
           21422         87.9712         100.304         36.3008    -705.339E-03
           21423         89.0230         101.139         34.7290    -877.737E-03
           21424         89.0659         101.219         34.8729    -605.417E-03
           21425         89.4545         101.548         34.4298    -577.309E-03
           21426         89.4113         101.467         34.2834    -848.128E-03
           21427         92.0125         103.674         32.0230        -2.04317
           21428         92.9167         104.558         31.6661        -1.75954
           21429         93.0070         104.598         31.5984        -2.33187
           21430         86.6089         100.007         49.6735    -2.78878E-03
           21431         86.6362         99.9766         46.9316    -8.93697E-03
           21432         86.6524         100.007         47.2588    -5.40794E-03
           21433         86.8732         100.051         43.7620    -17.0170E-03
           21434         86.8469         100.052         44.1446    -49.8635E-06
           21435         87.2368         100.174         40.9139    -5.27652E-03
           21436         87.2634         100.159         40.5357    -43.8874E-03
           21437         87.1194         100.092         41.3338    -57.7663E-03
           21438         87.8347         100.417         37.8712    -171.896E-03
           21439         88.0672         100.545         37.0961    -255.101E-03
           21440         87.8952         100.375         37.1973    -371.529E-03
           21441         89.6701         101.748         34.2582     183.912E-03
           21442         89.4053         101.551         34.6856    -21.9441E-03
           21443         89.1082         101.306         35.0656     190.406E-03
           21444         92.9825         104.676         31.6554    -291.782E-03
           21445         92.4368         104.163         31.9389    -694.535E-03
           21446         92.0234         103.788         32.1654    -237.799E-03
           21447         92.5728         104.300         31.8825     165.227E-03
           21448         94.5173         106.150         31.1694    -959.236E-03
           21449         94.0455         105.693         31.2595    -356.887E-03
           21450         94.7103         106.354         31.1196     165.400E-03
           21451         86.4553         99.8281         50.4489     11.3598E-03
           21452         86.5166         99.9001         49.6279     9.29638E-03
           21453         86.5204         99.8916         51.3728     9.29316E-03
           21454         86.5296         99.8604         47.0498     14.7556E-03
           21455         86.6202         99.9349         46.3872     13.6881E-03
           21456         86.6323         99.9861         47.3015     8.86883E-03
           21457         86.5493         99.9121         47.9638     10.1495E-03
           21458         86.7520         99.8781         43.2922     49.5300E-03
           21459         86.9089         99.9452         42.1391     69.9481E-03
           21460         87.2331         99.9245         38.9749     275.824E-03
           21461         87.1820         99.8106         38.5624     375.770E-03
           21462         87.4964         100.075         38.0370     356.669E-03
           21463         87.5426         100.186         38.4505     253.686E-03
           21464         88.3674         100.688         36.0440     515.987E-03
           21465         88.4292         100.791         36.2413     300.869E-03
           21466         88.2243         100.616         36.5070     379.375E-03
           21467         89.9545         101.971         33.8855     508.328E-03
           21468         90.0810         102.038         33.5958     845.509E-03
           21469         92.5575         104.224         31.8039         1.57559
           21470         92.7860         104.401         31.7020         2.19520
           21471         93.6117         105.219         31.3983         1.81583
           21472         98.3388         110.414         32.7106         2.64111
           21473         98.2267         110.256         32.4263         2.30157
           21474         97.3769         109.137         31.7910         3.18128
           21475         97.5036         109.299         32.0680         3.52463
           21476         86.2631         99.6062         50.3217     10.0118E-03
           21477         86.3415         99.6394         46.8441     14.5127E-03
           21478         86.6078         99.7550         43.7440     50.7823E-03
           21479         86.4384         99.5999         44.1889     41.3376E-03
           21480         86.3851         99.4815         43.4205     64.7903E-03
           21481         86.0442         98.8058         40.3784     269.913E-03
           21482         86.5325         99.2980         40.0286     283.460E-03
           21483         86.3135         99.1291         40.6236     223.079E-03
           21484         87.7547         99.9895         35.8867         1.06635
           21485         87.0142         99.2593         36.2942         1.20172
           21486         88.1500         100.328         35.4151         1.08847
           21487         88.4885         100.555         34.7507         1.38189
           21488         88.6354         100.757         34.9313         1.10562
           21489         89.4102         101.244         33.5196         2.15922
           21490         88.9039         100.854         34.1142         1.73978
           21491         88.7293         100.620         34.0072         2.15186
           21492         94.9870         106.543         31.1984         2.69261
           21493         94.9746         106.468         31.2586         3.44424
           21494         96.3474         107.905         31.5270         3.97201
           21495         95.0322         106.380         31.4049         4.79341
           21496         96.3874         107.884         31.5715         4.50577
           21497         98.0422         109.978         31.9637         1.89346
           21498         98.8261         111.097         33.1296         1.54469
           21499         85.8421         99.1201         49.0382    -13.9669E-03
           21500         85.9903         99.2916         50.1166     272.468E-06
           21501         85.0513         98.0719         44.5483    -81.8155E-03
           21502         84.7061         97.6785         44.4516    -129.485E-03
           21503         84.7900         97.7130         43.5237    -85.6667E-03
           21504         85.1367         98.1069         43.6191    -39.8432E-03
           21505         85.3876         98.4083         43.9225    -22.9435E-03
           21506         85.3095         98.2529         43.0046     8.53357E-03
           21507         85.7163         98.4162         40.1138     296.101E-03
           21508         85.3251         97.9485         39.7794     367.229E-03
           21509         85.6145         98.1950         39.2228     463.001E-03
           21510         86.1965         98.4125         36.5376         1.36353
           21511         86.4917         98.7751         36.7551         1.13187
           21512         85.6830         97.6545         35.6610         2.30393
           21513         86.3716         98.3884         35.5296         2.09206
           21514         85.8039         97.8839         36.0533         1.84763
           21515         85.1176         97.1517         36.1857         2.05427
           21516         88.0263         99.9778         34.5185         2.05185
           21517         87.6730         99.5658         34.4960         2.44019
           21518         88.3762         100.208         33.9848         2.54020
           21519         86.6592         98.1502         34.1214         4.51325
           21520         87.6623         99.0790         33.6016         4.76684
           21521         86.2744         97.4565         33.9763         5.84013
           21522         86.7821         97.8507         33.6894         6.26957
           21523         88.0802         99.2221         33.2194         5.93450
           21524         87.5629         98.8159         33.5035         5.50397
           21525         88.2688         99.0890         32.9446         7.11460
           21526         88.0345         98.6309         32.8738         7.82524
           21527         89.9443         100.667         32.2770         7.38362
           21528         83.3203         96.1540         50.8932    -222.677E-03
           21529         82.8256         95.6013         50.0477    -329.622E-03
           21530         84.6786         97.6962         45.3853    -152.543E-03
           21531         84.2955         97.2577         45.2663    -213.660E-03
           21532         84.3222         97.2402         44.3329    -190.442E-03
           21533         83.4933         96.1906         42.4835    -234.650E-03
           21534         83.9282         96.7377         43.3520    -219.346E-03
           21535         83.4724         96.2187         43.2251    -295.630E-03
           21536         83.0303         95.5676         41.1418    -120.454E-03
           21537         83.0344         95.6218         41.7357    -229.568E-03
           21538         82.5195         94.9980         41.1060    -209.893E-03
           21539         83.7681         96.2215         39.5784     350.769E-03
           21540         83.6276         96.0189         39.1691     483.926E-03
           21541         83.2622         95.5995         39.0072     531.412E-03
           21542         82.7901         95.0581         38.8139     636.200E-03
           21543         83.3287         95.5772         38.2956     876.732E-03
           21544         82.5511         94.5321         37.1986         1.92409
           21545         81.5930         93.4924         37.3657         2.14434
           21546         82.4310         94.2760         36.7414         2.63380
           21547         82.3276         93.9087         36.1673         3.97216
           21548         83.1789         94.8340         35.9281         3.72405
           21549         82.3616         94.0732         36.4098         3.32573
           21550         85.6059         97.0145         34.4704         4.91501
           21551         85.8557         97.1240         34.2263         5.50397
           21552         86.6339         97.9726         33.9614         5.18717
           21553         87.6552         97.9934         32.7855         8.53609
           21554         89.7930         100.285         32.1255         8.07098
           21555         82.3067         95.0165         49.1329    -463.466E-03
           21556         81.3427         93.8676         44.4787    -866.387E-03
           21557         81.9187         94.5299         44.5823    -718.178E-03
           21558         82.0501         94.7013         45.2141    -684.677E-03
           21559         80.8002         93.1749         42.7050    -900.445E-03
           21560         81.0804         93.4682         42.2545    -762.954E-03
           21561         81.4987         93.9554         42.5126    -678.916E-03
           21562         81.2221         93.6665         42.9624    -813.012E-03
           21563         80.2180         92.3002         39.4183     190.485E-03
           21564         79.7878         91.8114         39.2870     307.590E-03
           21565         80.6682         92.7659         39.1266     436.281E-03
           21566         78.9032         90.7000         38.4139         1.60616
           21567         78.5114         90.3471         38.8931     941.029E-03
           21568         77.9629         89.7253         38.8649         1.19347
           21569         78.9113         90.5150         37.8029         2.98295
           21570         77.9684         89.4674         38.0648         3.22936
           21571         78.8068         90.2696         37.5953         3.75097
           21572         85.5226         95.7621         33.5587         8.77875
           21573         83.2492         93.4202         34.4770         8.85612
           21574         82.8744         92.7011         34.3282         9.63511
           21575         80.6400         93.0662         48.7906    -758.281E-03
           21576         79.7138         92.0129         46.3599        -1.20739
           21577         80.0919         92.4519         45.8531        -1.16433
           21578         80.6688         93.1286         46.7077    -956.647E-03
           21579         80.2975         92.6926         47.2139    -997.967E-03
           21580         80.6065         93.0157         44.2551        -1.06404
           21581         81.1868         93.6558         43.5916    -869.791E-03
           21582         77.7764         89.6835         41.9474        -1.67657
           21583         77.8352         89.7594         42.3814        -1.78126
           21584         76.9987         88.7830         42.3037        -2.05203
           21585         77.5732         89.4237         40.5328    -948.292E-03
           21586         77.6215         89.4840         40.8082        -1.16745
           21587         76.8182         88.5714         40.8958        -1.39953
           21588         76.7652         88.5099         40.6204        -1.18027
           21589         76.9960         88.7625         40.1046    -580.187E-03
           21590         76.4612         88.1563         39.8981    -248.664E-03
           21591         77.2467         88.3093         37.8784         5.12430
           21592         77.9399         89.1479         37.6870         4.71461
           21593         76.9173         88.1485         38.1954         4.24605
           21594         77.1683         87.5787         37.4394         7.35083
           21595         77.7578         88.4268         37.3328         6.69457
           21596         75.9409         86.6147         38.2082         6.17618
           21597         75.3548         85.7706         38.3150         6.83159
           21598         79.0694         86.6382         34.2327         13.4136
           21599         81.9311         88.7595         31.9005         14.7002
           21600         81.9081         89.5889         32.6389         13.4357
           21601         78.2173         90.2100         48.3331        -1.17547
           21602         77.5036         89.3720         47.9680        -1.35606
           21603         77.3366         89.2024         46.8976        -1.62046
           21604         78.0520         90.0439         47.2653        -1.43189
           21605         79.5036         91.7570         45.0078        -1.36043
           21606         79.1577         91.3584         45.5318        -1.43235
           21607         78.4591         90.5345         44.9424        -1.66810
           21608         75.2267         86.6890         42.0974        -2.66187
           21609         75.2010         86.6680         41.7664        -2.53189
           21610         76.1157         87.7427         42.1716        -2.35354
           21611         75.1259         86.6379         40.8030        -1.62987
           21612         75.9678         87.6040         40.7173        -1.38354
           21613         75.9855         87.6161         40.9457        -1.65115
           21614         75.1492         86.6513         41.0317        -1.89760
           21615         74.2914         85.7108         40.6080        -1.21221
           21616         74.2373         85.6312         40.7525        -1.56974
           21617         73.2613         84.5023         40.9372        -1.82685
           21618         71.3942         82.4326         40.9127     478.034E-03
           21619         72.5595         83.7503         40.4671     878.863E-03
           21620         72.6362         83.8542         40.5158     355.591E-03
           21621         71.4843         82.5421         40.9587    -40.0830E-03
           21622         72.7183         83.7332         40.0790         2.96209
           21623         74.3995         85.5396         39.3414         3.45277
           21624         73.7947         84.9669         39.6873         2.78724
           21625         71.8580         82.3017         40.1138         5.23863
           21626         70.2505         80.6222         40.9572         4.46328
           21627         69.4128         79.4456         41.2401         5.23221
           21628         71.0262         81.1283         40.3910         6.00916
           21629         64.9643         71.9815         43.0643         9.73527
           21630         66.7117         73.6685         41.7856         10.8880
           21631         67.3153         74.9763         41.5440         9.98022
           21632         70.5135         73.5250         38.1348         17.4722
           21633         73.3781         77.7291         36.1826         16.7908
           21634         70.4457         75.0123         38.4505         15.7223
           21635         75.6089         87.1375         47.1033        -1.77999
           21636         76.4349         88.0942         47.9879        -1.45294
           21637         75.3369         86.8290         44.7442        -2.54450
           21638         74.7902         86.1623         43.9262        -2.88138
           21639         74.2096         85.4508         43.2461        -3.18400
           21640         73.3740         84.4289         42.9984        -3.50938
           21641         73.4677         84.5423         42.6956        -3.50128
           21642         72.5782         83.4603         42.1042        -3.79643
           21643         72.3994         83.2628         41.8681        -3.74578
           21644         73.4489         84.5325         42.1541        -3.43575
           21645         71.3711         82.1047         41.5316        -3.54573
           21646         71.9334         82.7812         41.5247        -3.40886
           21647         71.6648         82.4235         41.5968        -3.67311
           21648         69.4681         80.0181         41.7622        -2.61875
           21649         69.8183         80.3934         41.6537        -2.89520
           21650         68.3994         78.6545         42.0496        -3.22371
           21651         67.2382         77.5102         42.6328    -153.436E-03
           21652         67.7717         78.1368         42.3811        -1.00167
           21653         67.2156         77.3638         42.5923         2.14285
           21654         68.1070         78.4514         42.1592         2.15914
           21655         67.7503         78.0796         42.3525         1.50684
           21656         63.5134         71.7439         44.4622         5.76672
           21657         65.5414         74.3248         43.1533         6.23583
           21658         64.2781         72.9963         44.0516         5.10787
           21659         63.4516         70.5280         44.2983         8.44272
           21660         62.8608         69.1836         44.6451         9.32098
           21661         64.3852         70.6358         43.4125         10.6123
           21662         60.8736         63.1552         46.9328         12.6277
           21663         62.5081         64.2309         45.4006         14.5666
           21664         70.0306         58.1551         44.1671         26.7088
           21665         64.9781         57.6938         47.1032         21.5440
           21666         72.9930         84.0164         46.7728        -1.93297
           21667         73.4879         84.6156         46.4513        -2.11723
           21668         73.3390         84.4366         44.8756        -2.85161
           21669         72.4164         83.3174         44.4376        -3.16567
           21670         72.4183         83.2974         43.8059        -3.45979
           21671         73.3295         84.3798         43.2472        -3.47008
           21672         72.5470         83.4154         43.0156        -3.77485
           21673         70.4454         80.7793         41.8725        -4.70379
           21674         70.4729         80.8389         41.7882        -4.59564
           21675         70.9464         81.4291         41.8634        -4.43643
           21676         69.6030         79.8529         41.7174        -4.43493
           21677         69.3491         79.5813         41.7395        -4.30575
           21678         69.9913         80.4143         41.6711        -3.94924
           21679         64.6899         74.1833         43.8071        -2.02663
           21680         65.6928         75.4292         43.2393        -2.43954
           21681         64.7130         74.1315         43.7253        -2.69615
           21682         63.2781         72.3900         44.7899     59.7453E-03
           21683         64.4845         74.0037         44.0854     471.138E-03
           21684         64.6483         74.2272         43.9502    -366.768E-03
           21685         61.1306         69.2243         46.3365         1.35166
           21686         62.1222         70.7468         45.5877     577.479E-03
           21687         61.2504         69.4661         46.2355     226.864E-03
           21688         59.4368         66.1082         47.8754         3.43240
           21689         61.5665         67.9377         45.8198         7.92348
           21690         62.1680         69.2292         45.3246         7.20295
           21691         61.6048         57.1130         49.4891         17.4217
           21692         62.9150         55.5931         49.7350         19.6559
           21693         63.6002         59.1929         46.8582         19.3147
           21694         72.3448         83.2364         46.9179        -1.77602
           21695         71.6945         82.4847         45.9337        -2.25882
           21696         66.9482         76.3601         41.4578        -5.72046
           21697         66.6625         75.9178         41.2770        -6.06212
           21698         67.7718         77.3440         41.6092        -5.71012
           21699         68.0691         77.7903         41.7948        -5.36939
           21700         70.2754         80.5536         41.9314        -4.80363
           21701         69.8568         80.0143         41.9466        -4.98330
           21702         69.0683         78.9932         41.7803        -5.33128
           21703         66.5706         75.7673         41.8853        -6.05873
           21704         66.3582         75.5404         42.0272        -5.93104
           21705         67.0977         76.5674         41.9861        -5.52158
           21706         67.3086         76.7928         41.8459        -5.64829
           21707         64.4486         72.9365         42.6060        -6.48470
           21708         65.0980         73.8990         42.5383        -6.07500
           21709         65.3904         74.2395         42.2890        -6.20628
           21710         64.7427         73.2800         42.3579        -6.61972
           21711         65.5557         74.8376         42.8763        -4.73534
           21712         65.1606         74.4076         43.1383        -4.40890
           21713         66.1929         75.8309         42.8044        -3.86664
           21714         66.5930         76.2671         42.5462        -4.18946
           21715         61.2274         68.8608         45.5594        -4.78154
           21716         62.0648         70.1919         45.0379        -4.39797
           21717         62.1570         70.1920         44.7813        -4.98351
           21718         60.0687         67.4376         47.0140        -2.62115
           21719         60.1256         67.4419         46.8716        -3.20618
           21720         59.4449         66.2459         47.5051        -3.43800
           21721         59.7222         67.0071         47.4665        -1.19888
           21722         58.9868         65.7019         48.1925        -1.47459
           21723         58.2797         64.3279         49.1480         1.22539
           21724         58.7924         65.3571         48.5065     885.985E-03
           21725         58.4068         64.6503         48.9559    -90.1150E-03
           21726         57.8989         63.6212         49.5968     249.328E-03
           21727         57.3012         61.6175         50.6789         3.69976
           21728         56.9238         60.4185         51.4288         4.17360
           21729         57.4271         61.0808         50.7070         5.56887
           21730         57.7963         62.2769         49.9453         5.09580
           21731         56.6296         58.2935         52.7368         5.82568
           21732         56.2885         57.3158         53.8612         4.80840
           21733         56.3658         56.6145         54.1761         5.88794
           21734         58.6945         51.6354         56.6435         12.8472
           21735         57.7013         51.1304         58.6034         9.61209
           21736         58.6220         50.0778         58.8584         11.7181
           21737         60.2189         49.6389         57.6458         15.2833
           21738         61.0640         50.8258         55.5067         17.1827
           21739         59.4509         52.8257         54.5305         14.7297
           21740         70.9855         40.4160         62.4503         26.0092
           21741         66.4937         42.8943         62.3327         21.3685
           21742         8.80581         7.79148         9.33019    -908.896E-03
           21743         6.77687         6.01919         7.27770    -422.489E-03
           21744         14.3022         6.58606         16.2008        -1.34293
           21745         16.9189         7.74581         19.1258        -1.69320
           21746         18.2361         6.96565         20.5334        -1.34697
           21747         19.5709         9.36623         22.1066        -2.13286
           21748         28.7617         15.6188         32.4576        -3.49972
           21749         31.0045         12.6638         35.3319    -37.7446E-03
           21750         32.2197         15.5494         36.9262        -1.52319
           21751         40.1123         23.1722         45.9244        -3.00913
           21752         42.3137         24.9457         48.5000        -2.93105
           21753         46.5424         28.4660         53.4072        -2.81917
           21754         44.4518         26.7151         50.9823        -2.89055
           21755         48.7125         30.3186         55.8656        -2.97144
           21756         50.9353         32.1863         58.3532        -3.24172
           21757         49.8208         31.3286         56.8611        -4.03400
           21758         53.3121         34.0838         61.0130        -3.53299
           21759         55.5932         35.8833         63.7296        -3.07473
           21760         57.6715         37.5794         66.1689        -2.71132
           21761         58.5826         38.5492         67.3096        -1.82906
           21762         65.2494         43.1070         74.9095        -2.37764
           21763         66.1685         43.2076         75.9427        -2.90846
           21764         72.4309         47.5922         83.2890        -1.64017
           21765         75.0542         48.8384         86.3754        -1.37501
           21766         79.8726         50.5909         92.0652    -786.157E-03
           21767         80.9171         51.5390         93.2562    -553.301E-03
           21768         81.8220         52.2105         94.2955    -403.039E-03
           21769         81.4158         50.9190         93.8909    -610.322E-03
           21770         82.6256         52.6721         95.2270    -301.698E-03
           21771         83.3536         52.9724         96.0786    -230.679E-03
           21772         84.5944         53.1582         97.5496    -145.858E-03
           21773         84.0105         53.1213         96.8548    -181.470E-03
           21774         85.1106         53.1350         98.1655    -118.637E-03
           21775         85.5577         53.0911         98.6989    -98.3778E-03
           21776         85.9341         53.0552         99.1466    -82.4548E-03
           21777         86.2388         53.0316         99.5079    -73.4372E-03
           21778         86.6169         53.0938         99.9516    -70.0461E-03
           21779         86.4594         52.6955         99.7820    -80.5275E-03
           21780         86.6236         52.3232         99.9880    -90.0676E-03
           21781         86.6712         53.3011         100.007    -67.2935E-03
           21782         86.4043         52.2466         99.7331    -84.5906E-03
           21783         85.8528         52.5306         99.0740    -49.1029E-03
           21784         85.5338         51.8570         98.7239    -31.0890E-03
           21785         84.7136         52.7259         97.7168     52.1003E-03
           21786         80.1804         51.5238         92.3686     688.775E-03
           21787         79.1829         51.6918         91.1468     752.542E-03
           21788         78.0904         51.5991         89.8245     828.111E-03
           21789         78.3010         50.5829         90.1666         1.04748
           21790         73.5792         50.0584         84.4512         1.08692
           21791         74.1778         49.7891         85.2098         1.31659
           21792         74.9081         50.8908         85.9955     914.356E-03
           21793         70.6297         48.1247         81.0271         1.48161
           21794         72.1479         49.1356         82.7889         1.27786
           21795         67.3514         45.7997         77.2265         1.96790
           21796         69.0342         47.0184         79.1772         1.70733
           21797         63.6446         43.2118         72.9360         2.26624
           21798         65.5368         44.4581         75.1164         2.28123
           21799         60.8139         41.3447         69.7378         1.72046
           21800         61.7264         42.4984         70.7816     838.378E-03
           21801         60.6948         41.9678         69.5934     18.6224E-03
           21802         57.3235         38.1730         65.4047         3.98890
           21803         52.9251         34.8326         60.3749         3.90060
           21804         44.4684         28.1128         50.6219         3.98566
           21805         40.2901         25.4122         45.3846         4.86748
           21806         32.7840         18.7200         37.2517         3.36711
           21807         30.1879         16.6951         34.2867         3.13201
           21808         25.0777         13.0678         28.4247         2.68380
           21809         27.6293         14.8143         31.3521         2.91078
           21810         19.9293         10.0300         22.5494         2.18115
           21811         22.5159         11.4661         25.4931         2.44286
           21812         14.6819         7.85029         16.6395         1.60023
           21813         16.5652         10.2738         18.5218         2.31559
           21814         17.3201         8.81550         19.6009         1.90346
           21815         9.46261         6.81250         10.6384     899.965E-03
           21816         12.0435         7.18427         13.6669         1.26936
           21817         1.77166     545.256E-03         1.88501    -324.550E-03
           21818         1.95763         2.06270     411.769E-03    -292.903E-03
           21819         7.49911         8.37588         5.89267     487.250E-03
           21820         8.14051         9.32742         3.80136     301.829E-03
           21821         9.60944         10.6483         7.46934     948.550E-03
           21822         14.3264         15.9715         4.51590     793.754E-03
           21823         15.8186         17.8482         6.51159         1.35275
           21824         20.1348         22.5528         6.96750         1.33817
           21825         20.8093         22.2884         3.36945     13.4120E-03
           21826         31.4471         35.7564         13.7739         2.09664
           21827         30.1153         34.0914         11.4108         1.08122
           21828         31.6089         35.6188         10.9105     25.1637E-03
           21829         44.6269         50.8715         24.5437         4.07556
           21830         50.8510         58.3487         28.8067         3.27930
           21831         55.9716         64.3198         32.5697         3.15565
           21832         53.4357         61.3118         30.7583         3.46469
           21833         59.5491         68.6238         35.2733         2.10158
           21834         60.6778         69.8044         35.9613         2.95448
           21835         58.3357         67.0902         34.2997         2.98137
           21836         64.1638         73.9629         38.6447         1.94446
           21837         64.1699         74.0361         39.6198     23.4533E-03
           21838         72.4085         83.5198         44.3950         1.20835
           21839         71.5095         82.4745         44.5323     637.037E-03
           21840         72.5558         83.6465         45.9215     9.88495E-03
           21841         76.0257         87.7115         46.4861         1.00243
           21842         75.7075         87.3195         44.8553         1.97352
           21843         79.3589         91.5798         48.2224     767.455E-03
           21844         78.9822         91.1449         46.4906         1.50485
           21845         82.4576         95.1815         49.4916     574.010E-03
           21846         82.0003         94.6582         47.6612         1.12519
           21847         85.2468         98.4256         50.0630     446.573E-03
           21848         84.7253         97.8054         47.7462     934.421E-03
           21849         87.8321         101.419         50.6968     248.737E-03
           21850         88.3858         102.048         49.8405     295.332E-03
           21851         89.4969         103.326         50.1146     182.904E-03
           21852         88.9005         102.616         48.9543     320.653E-03
           21853         90.9229         104.927         49.3586     92.2940E-03
           21854         90.4938         104.469         50.2910     96.5814E-03
           21855         92.9281         107.243         50.4830    -54.4046E-03
           21856         94.1040         108.569         50.4028    -85.4258E-03
           21857         93.5601         107.958         50.4652    -75.7010E-03
           21858         94.7196         109.299         51.1647    -60.5927E-03
           21859         94.9275         109.483         50.1231    -77.1728E-03
           21860         94.5601         109.078         50.2908    -85.4303E-03
           21861         95.2256         109.866         51.0508    -31.8608E-03
           21862         95.3550         109.966         50.1702    -28.3754E-03
           21863         95.2083         109.786         49.9062    -59.0670E-03
           21864         95.3327         109.990         51.1287     8.80163E-03
           21865         95.4522         110.022         49.3070     11.2736E-03
           21866         95.4051         110.026         50.2357    -2.64148E-03
           21867         95.0708         109.688         50.9861     48.2626E-03
           21868         95.2374         109.746         48.7926     78.8173E-03
           21869         94.4030         108.942         51.2028     66.2007E-03
           21870         94.4949         108.947         49.2539     107.957E-03
           21871         93.3665         107.775         51.4968     53.1463E-03
           21872         91.9883         106.203         51.5029     11.5026E-03
           21873         92.1240         106.300         49.6852     10.5166E-03
           21874         90.2391         104.193         51.1139    -82.0240E-03
           21875         90.3849         104.302         48.9623    -165.090E-03
           21876         88.0693         101.693         50.8222    -223.960E-03
           21877         87.4459         100.967         49.7530    -381.897E-03
           21878         86.2091         99.5404         49.5648    -496.574E-03
           21879         86.7996         100.207         48.6679    -576.671E-03
           21880         84.2003         97.2083         48.1653    -896.348E-03
           21881         84.9091         98.0363         49.2842    -619.938E-03
           21882         80.5640         92.9906         47.8841        -1.03071
           21883         77.2785         89.1679         46.3856        -1.35800
           21884         78.9620         91.1271         47.2000        -1.18509
           21885         74.5306         85.9779         45.5342        -1.18163
           21886         73.6508         84.9407         44.3295        -1.80645
           21887         75.5092         87.1077         45.4304        -1.56008
           21888         70.6488         81.4793         43.1359        -1.45471
           21889         69.5782         80.2013         41.9887        -2.11185
           21890         71.6565         82.6088         43.0843        -2.10838
           21891         66.5219         76.7074         40.4323        -1.61518
           21892         66.6981         76.7665         39.7442        -2.99774
           21893         67.5954         77.8981         40.7569        -2.21991
           21894         62.2317         71.7334         37.2863        -1.95840
           21895         62.6588         71.9504         37.0419        -3.75665
           21896         57.6242         66.4129         33.8387        -2.01190
           21897         57.9141         66.4526         33.9205        -3.72402
           21898         52.7989         60.8385         30.0453        -1.96547
           21899         47.8444         55.0565         26.0945        -2.13065
           21900         48.7318         55.7244         27.4092        -3.90189
           21901         42.7438         49.0221         22.2801        -2.56148
           21902         44.0130         49.8944         24.5923        -4.82802
           21903         37.2030         42.5139         18.0858        -2.47883
           21904         35.9964         40.9327         18.1657        -3.35821
           21905         33.1679         37.6607         16.1569        -3.12086
           21906         34.9100         39.4036         18.3990        -4.18429
           21907         25.9963         29.3540         10.1937        -1.77652
           21908         24.7622         27.9583         10.9283        -2.42261
           21909         26.4864         29.7974         13.2740        -3.31534
           21910         20.2968         22.7576         7.16791        -1.39017
           21911         19.0352         21.4667         8.26569        -1.88273
           21912         21.9239         24.7227         9.48901        -2.16001
           21913         14.3161         16.0697         5.08637    -927.489E-03
           21914         13.0874         14.8732         6.54512        -1.23493
           21915         15.0783         16.9952         8.73519        -1.88610
           21916         16.0943         18.1934         7.27429        -1.57641
           21917         5.77462         2.10402         6.53080    -54.1110E-03
           21918         4.75479         4.13912         5.19221     25.4248E-03
           21919         4.66394    -71.3262E-03         4.62768     23.8442E-03
           21920         15.6466         6.20030         17.6637        -1.13781
           21921         16.2582         2.01650         17.1724    -5.54413E-03
           21922         21.2737         4.99133         23.3255    -19.9565E-03
           21923         27.2285         11.6078         31.0391        -1.08325
           21924         26.1281         8.79016         29.3896    -24.7049E-03
           21925         28.5360         10.9034         32.3800    -26.5026E-03
           21926         38.6989         22.5354         44.3922        -2.54883
           21927         37.1362         20.2544         42.7796        -1.32130
           21928         38.1411         20.1356         43.9892    -33.3654E-03
           21929         43.4269         26.4589         49.9048        -2.29171
           21930         42.9060         24.8884         49.5433    -25.8784E-03
           21931         48.0843         30.5408         55.2351        -2.26345
           21932         47.5936         29.5467         54.9031    -25.1852E-03
           21933         53.4252         35.2217         61.4333        -1.06731
           21934         52.5745         34.4396         60.3460        -2.20935
           21935         52.1518         34.0062         60.0436    -27.1575E-03
           21936         64.4834         44.2768         73.9229        -1.43172
           21937         63.6060         44.0782         72.9008    -741.333E-03
           21938         64.6000         45.3512         73.9651    -12.6291E-03
           21939         67.9736         46.7580         77.9267        -1.32031
           21940         67.6753         45.5322         77.6017        -2.45722
           21941         71.2820         48.7577         81.7682        -1.23681
           21942         74.3185         49.1426         85.4312        -1.63965
           21943         74.3571         50.7004         85.3386    -909.292E-03
           21944         76.9340         50.5927         88.5046        -1.13235
           21945         77.0488         52.2528         88.4772    -614.657E-03
           21946         79.7597         52.3944         91.7848    -576.582E-03
           21947         79.1356         51.3385         91.1193    -818.600E-03
           21948         79.3438         53.1773         91.1951    -437.443E-03
           21949         80.7614         52.5458         92.9881    -480.944E-03
           21950         81.7480         52.5395         94.1814    -384.756E-03
           21951         82.2711         53.8689         94.6987    -221.082E-03
           21952         82.6682         53.0180         95.2525    -252.057E-03
           21953         84.1205         53.4782         96.9623    -94.2242E-03
           21954         83.4446         53.3291         96.1622    -160.327E-03
           21955         84.7102         53.4722         97.6682    -44.5966E-03
           21956         85.2292         53.3043         98.2971    -3.76766E-03
           21957         84.9189         52.3716         97.9781    -33.8418E-03
           21958         85.6860         52.9720         98.8570     35.3520E-03
           21959         86.0669         53.3579         99.2889     49.1524E-03
           21960         86.4711         54.4049         99.7098     44.5147E-03
           21961         86.5871         56.5223         99.6842     812.575E-06
           21962         86.6117         54.3637         99.8800     39.1499E-03
           21963         86.7312         55.3815         99.9539     19.4822E-03
           21964         86.7362         56.3460         99.8808    -510.026E-06
           21965         86.1887         54.1278         99.3904     46.4440E-03
           21966         86.1229         52.1727         99.4050     101.822E-03
           21967         85.4024         53.6978         98.4796     81.6168E-03
           21968         84.0382         51.5774         96.9716     278.672E-03
           21969         84.2898         53.6688         97.1513     130.236E-03
           21970         82.6365         51.6087         95.3076     409.052E-03
           21971         82.8817         53.5433         95.4673     201.294E-03
           21972         80.5704         51.7915         92.8207     538.270E-03
           21973         80.9415         51.0415         93.3175     633.324E-03
           21974         81.1579         52.9619         93.4329     328.026E-03
           21975         79.5059         51.2318         91.5799     689.362E-03
           21976         78.2368         50.4342         90.1076     916.458E-03
           21977         77.8730         51.4463         89.5821     631.571E-03
           21978         77.0341         50.2330         88.6686     977.733E-03
           21979         74.5506         49.2959         85.7326         1.13826
           21980         75.8237         49.8696         87.2305         1.03923
           21981         73.1995         48.5025         84.1572         1.30006
           21982         71.7311         47.4794         82.4544         1.55012
           21983         70.0626         46.2152         80.5167         1.92223
           21984         68.3713         45.3131         78.5409         1.96746
           21985         66.0283         44.3565         75.8251         1.42880
           21986         66.3255         45.8991         76.0440     11.3471E-03
           21987         62.4578         41.6427         71.7352         1.65071
           21988         62.5701         42.7666         71.8142     16.1922E-03
           21989         58.4795         38.4089         67.1790         1.98837
           21990         58.5521         39.2067         67.3053     21.1695E-03
           21991         54.2318         34.8658         62.3071         2.28565
           21992         54.2972         35.2555         62.5273     26.9687E-03
           21993         49.7954         31.1010         57.2745         2.10048
           21994         49.8484         31.0040         57.5011     20.5376E-03
           21995         45.2803         27.1340         52.1120         2.03328
           21996         45.2497         26.5064         52.2480     19.4220E-03
           21997         40.5496         21.8642         46.7893     21.2446E-03
           21998         35.7922         17.2004         41.1454     23.3525E-03
           21999         32.5620         17.4012         37.0884         3.01750
           22000         34.1411         19.4229         38.6167         3.96509
           22001         28.5716         13.3846         32.5801         1.98280
           22002         28.6148         10.4987         32.3812     22.4472E-03
           22003         23.4810         9.89645         26.6051         1.72104
           22004         23.7953         6.50996         26.3727     18.7348E-03
           22005         18.1936         7.00434         20.4924         1.35940
           22006         18.8654         3.19372         20.2583     12.1716E-03
           22007         11.4974         5.24003         13.0745     875.819E-03
           22008         12.9060         7.68625         14.5765         1.53285
           22009         14.0180         6.99870         15.8910         1.43916
           22010         7.32145         3.74033         8.41992     265.306E-03
           22011         7.91653    -157.713E-03         7.83625    -35.9983E-03
           22012         5.81483         6.52499         1.89390     50.1208E-03
           22013         4.65136         5.18865         3.79320    -26.0886E-03
           22014         4.68792         4.63307    -107.401E-03    -27.0579E-03
           22015         11.7679         13.3949         6.10242         1.08987
           22016         15.5862         17.5137         5.69628         1.08234
           22017         16.3147         17.1735         1.88063     6.72127E-03
           22018         21.3484         23.3248         4.75468     21.2666E-03
           22019         27.2966         31.0322         11.1073         1.06710
           22020         26.2076         29.3892         8.44616     24.3686E-03
           22021         28.6119         32.3796         10.5057     26.0869E-03
           22022         38.7096         44.4130         21.7001         2.50253
           22023         37.1710         42.7902         19.5568         1.29770
           22024         38.1747         43.9890         19.5386     32.5487E-03
           22025         43.4140         49.9251         25.5679         2.23806
           22026         42.9095         49.5432         24.2022     24.9550E-03
           22027         48.0496         55.2607         29.5834         2.20875
           22028         47.5657         54.9028         28.7768     24.1549E-03
           22029         52.4774         60.3275         33.3811         2.15784
           22030         52.0935         60.0433         33.1566     26.1022E-03
           22031         56.5925         65.0561         36.8809         1.78340
           22032         56.4458         64.9450         37.2415     17.7682E-03
           22033         64.2509         73.8028         42.9975         1.39892
           22034         63.4262         72.8388         42.9169     720.004E-03
           22035         64.4689         73.9651         44.2707     10.9255E-03
           22036         67.7454         77.8215         45.4045         1.30852
           22037         68.0738         78.0471         47.1186     9.81881E-03
           22038         71.0604         81.6731         47.3314         1.22769
           22039         71.3773         81.8220         49.4894     11.9794E-03
           22040         74.1492         85.2589         49.2547     895.183E-03
           22041         74.3635         85.2680         51.4060     8.84427E-03
           22042         77.0273         88.3777         52.8635     4.78072E-03
           22043         79.3685         91.1410         53.8983     2.29174E-03
           22044         80.1205         92.4257         49.4954     739.034E-03
           22045         82.1969         94.7251         52.5175     205.014E-03
           22046         82.2745         94.6063         54.8084     1.33110E-03
           22047         83.7476         96.5458         53.0498     86.1231E-03
           22048         83.8103         96.4509         55.0874    -297.411E-06
           22049         84.9498         97.9746         53.1350     26.7294E-03
           22050         85.0267         97.9163         55.1898    -1.34245E-03
           22051         85.8337         99.0265         53.0809    -3.16291E-03
           22052         85.9213         98.9951         55.1937    -1.56292E-03
           22053         86.4045         99.7009         53.0971    -10.3141E-03
           22054         86.4924         99.6835         55.1639    -941.302E-06
           22055         86.5639         99.8839         53.2157     7.49270E-03
           22056         86.6663         99.9552         54.1911     2.95636E-03
           22057         86.6559         99.8806         55.1513     558.431E-06
           22058         86.1486         99.4005         53.0532     9.20921E-03
           22059         86.2474         99.3883         55.1793     1.14552E-03
           22060         85.3656         98.4897         52.7258    -14.3621E-03
           22061         85.5146         98.5050         55.1958     1.95927E-03
           22062         84.2419         97.1513         52.8069    -67.3806E-03
           22063         84.4584         97.2317         55.1518     3.06955E-03
           22064         83.0825         95.5757         54.9752     2.02389E-03
           22065         81.3859         93.5424         54.5827     487.044E-06
           22066         77.8293         89.5737         51.0190    -568.682E-03
           22067         78.2389         89.8048         53.4256    -1.20807E-03
           22068         75.3509         86.6435         50.1003    -703.740E-03
           22069         75.7351         86.8645         52.1915    -2.78174E-03
           22070         72.5471         83.3782         48.5035    -950.324E-03
           22071         72.9094         83.5840         50.5137    -6.79053E-03
           22072         69.3630         79.6978         46.3558        -1.30201
           22073         69.7645         79.9744         48.3629    -11.4710E-03
           22074         65.9495         75.7555         44.0960        -1.47128
           22075         66.3087         76.0451         45.7495    -11.9573E-03
           22076         62.3656         71.6413         41.4188        -1.71081
           22077         62.5594         71.8151         42.6619    -17.4757E-03
           22078         58.4336         67.1397         38.3222        -1.92255
           22079         58.5464         67.3053         39.1454    -19.5337E-03
           22080         54.2405         62.3265         34.8358        -2.24366
           22081         54.2946         62.5272         35.2215    -26.6918E-03
           22082         49.8013         57.2836         31.0827        -2.09411
           22083         49.8477         57.5012         30.9877    -20.6919E-03
           22084         45.2851         52.1177         27.1278        -2.03331
           22085         45.2497         52.2481         26.5014    -19.5828E-03
           22086         40.5496         46.7893         21.8653    -21.4172E-03
           22087         35.7919         41.1454         17.2038    -23.5700E-03
           22088         28.5607         32.5672         13.3804        -1.98497
           22089         28.6142         32.3812         10.5017    -22.6524E-03
           22090         23.4704         26.5923         9.88127        -1.71642
           22091         23.7949         26.3728         6.51163    -18.8296E-03
           22092         18.1776         20.4695         6.95665        -1.34479
           22093         18.8658         20.2589         3.19385    -12.2373E-03
           22094         11.7871         12.7038         2.15475    -305.223E-03
           22095         12.8073         14.3767         4.49989    -770.756E-03
           22096         13.6658         14.0713     850.782E-03    -347.897E-06
           22097         1.77518     456.505E-03         1.88207     294.314E-03
           22098         1.77405         1.88099     454.178E-03     292.769E-03
           22099         97.8085         109.695         31.6875         1.32543
           22100         97.9817         109.908         31.7037     42.0275E-03
           22101         97.4095         109.213         31.3374     726.795E-03
           22102         97.6010         109.379         32.1274         3.83159
           22103         96.4997         107.967         31.6254         4.81737
           22104         96.6084         107.981         31.4312         5.14266
           22105         87.8292         95.1603         28.7777         13.7700
           22106         84.6073         92.4632         31.3146         13.2136
           22107         84.9867         92.0278         30.1613         14.3712
           22108         85.4152         91.4168         28.9829         15.7928
           22109         80.2732         82.8920         30.7184         19.7939
           22110         76.3241         80.6156         34.1109         17.4434
           22111         67.4306         66.7799         41.2447         19.4981
           22112         73.0711         68.2719         37.2896         24.7228
           22113         64.4568         49.8356         54.2339         21.8522
           22114         69.2460         48.6607         52.7686         27.1439
           22115         75.5784         33.2749         79.6413         17.4375
           22116         79.7862         29.7425         82.1555         19.7923
           22117         91.9767         27.7595         101.236         9.14065
           22118         91.2826         29.0409         101.065         8.36805
           22119         93.8142         28.3880         103.867         7.19745
           22120         90.4812         30.2512         100.678         7.77537
           22121         96.7279         30.1034         107.981         3.68620
           22122         94.1629         32.2438         104.130        -10.6677
           22123         92.0494         33.0642         101.895        -11.0516
           22124         81.5821         34.7467         83.0671        -21.8668
           22125         80.6237         35.7412         84.0401        -19.6953
           22126         77.0673         38.5298         80.4482        -18.9963
           22127         75.6316         41.8624         68.5648        -26.6885
           22128         71.1874         44.9432         67.3594        -22.6407
           22129         95.5101         102.974         28.8185        -14.7823
           22130         91.9267         100.085         31.6542        -14.1377
           22131         102.328         112.997         30.7000        -8.74073
           22132         103.786         115.549         32.7640        -6.64425
           22133         105.424         117.603         33.2363        -5.40722
           22134         105.540         117.619         32.8969        -5.53043
           22135         106.736         119.332         33.9928        -4.21833
           22136         107.714         120.523         34.1014        -2.80687
           22137         108.363         121.673         35.8094        -2.07431
           22138         107.435         119.997         32.9619         1.98219
           22139         106.745         119.342         33.9925         4.20765
           22140         105.307         117.472         33.2024         5.40859
           22141         101.972         113.198         32.2262         8.03997
           22142         102.133         113.142         31.5925         8.29492
           22143         104.077         115.516         31.7628         7.03231
           22144         102.332         113.002         30.6955         8.73504
           22145         95.1554         103.548         30.1843         13.4997
           22146         98.0309         106.729         29.1324         12.6427
           22147         95.5105         102.977         28.8186         14.7770
           22148         92.0760         100.264         31.6119         14.0863
           22149         86.5138         91.0403         31.7283         18.9577
           22150         89.9226         94.3399         29.5257         19.1464
           22151         86.9919         89.5449         30.6651         21.2514
           22152         74.3360         45.2973         63.5442         27.7759
           22153         70.0227         47.5750         63.4898         23.3050
           22154         79.3862         36.5467         78.4385         23.6684
           22155         75.5716         39.6258         76.7427         20.7559
           22156         90.5576         31.8590         98.6176         14.1671
           22157         88.1388         32.9153         95.7872         14.8628
           22158         90.2540         32.7027         98.9429         13.1950
           22159         95.6320         32.6121         106.295         9.12470
           22160         95.4320         29.1989         106.155        -5.33484
           22161         93.1327         30.0389         103.802        -6.18035
           22162         91.9796         27.7567         101.247        -9.11219
           22163         82.3950         28.4781         86.6365        -17.6946
           22164         81.5374         29.8744         87.3634        -15.6358
           22165         77.7896         32.5012         83.7331        -15.3307
           22166         74.7818         34.0166         72.4778        -23.4350
           22167         70.1722         37.5169         70.8962        -19.5802
           22168         77.7163         78.1909         32.3515        -21.6716
           22169         73.2678         75.8896         35.9961        -18.6633
           22170         76.5777         79.2236         33.4043        -19.3074
           22171         80.2179         82.8283         30.7561        -19.7984
           22172         90.0622         98.5267         28.9269        -11.7899
           22173         89.9720         99.0442         29.9003        -10.8419
           22174         92.0771         101.490         29.3492        -9.92090
           22175         97.9051         31.7668         109.831    -885.410E-03
           22176         97.6882         32.3532         109.483         4.16029
           22177         98.1100         32.2206         110.031         2.93785
           22178         98.1482         31.9960         110.106         1.72679
           22179         96.9725         31.4489         108.791     370.456E-03
           22180         97.5224         31.6113         109.391     981.051E-03
           22181         96.4802         31.4279         108.266     750.744E-03
           22182         98.1526         32.0722         110.103        -2.15467
           22183         98.0153         32.2786         109.903        -3.35915
           22184         96.6910         32.1019         108.353        -4.34051
           22185         97.3104         32.0968         109.060        -3.89228
           22186         96.2488         31.9137         107.922        -3.76072
           22187         88.9560         97.7184         33.8868        -13.2581
           22188         91.8958         100.800         32.5806        -12.9978
           22189         89.1277         97.9732         33.9040         13.1302
           22190         81.8976         90.2651         33.3710         12.3565
           22191         95.4951         31.1141         107.076        -2.42320
           22192         94.9001         32.7016         106.097        -7.06074
           22193         71.1240         37.1936         77.2429        -13.9252
           22194         70.2063         38.2244         77.3310        -12.1608
           22195         68.5424         38.9385         74.2820        -13.6194
           22196         74.1848         34.9757         80.3398        -14.5550
           22197         82.5836         90.4633         32.4527        -13.1535
           22198         82.8486         91.4058         33.0569        -12.0789
           22199         72.6913         41.9443         75.6101         18.0669
           22200         70.6152         73.0350         38.0113        -18.1079
           22201         95.9072         107.453         31.3069        -3.45953
           22202         91.2296         30.3907         101.687        -7.05685
           22203         92.8001         30.5950         103.679        -5.73071
           22204         80.5579         37.4718         88.1834         14.3006
           22205         83.0203         36.4910         91.4682         13.3181
           22206         82.9132         36.1999         90.7022         14.3838
           22207         61.2665         57.7504         49.2647        -16.6985
           22208         63.4136         57.9558         47.7541        -19.5753
           22209         61.4363         54.9176         51.2771        -17.7496
           22210         69.7771         44.3478         57.5199        -26.7361
           22211         64.4926         46.6735         58.1172        -20.9428
           22212         60.9961         52.8554         53.3534        -17.3230
           22213         62.1742         48.9819         56.7739        -18.4754
           22214         60.1018         51.0051         56.1070        -15.5397
           22215         84.1519         31.9026         93.4688        -10.1528
           22216         88.4694         32.0009         95.2781         16.0608
           22217         85.5031         34.3044         92.7822         15.3654
           22218         93.8436         104.043         29.9639         8.19180
           22219         89.9482         33.4034         99.1105         12.4180
           22220         67.7974         49.9558         61.5142         21.5244
           22221         69.0397         46.9350         65.6227         21.1128
           22222         85.0190         27.6574         90.8416        -15.5299
           22223         80.9115         31.2614         87.9715        -13.9107
           22224         77.8390         33.1878         84.9868        -13.6045
           22225         74.2548         35.6419         81.5856        -12.8464
           22226         108.694         121.769         34.5624    -524.404E-03
           22227         109.039         122.647         36.6803    -390.512E-03
           22228         92.4644         31.9702         101.568         12.3649
           22229         66.0375         66.1654         47.8736         16.9193
           22230         67.8755         68.3158         45.9290         17.9651
           22231         70.0340         37.4069         72.5127         17.8874
           22232         69.6722         37.8176         73.7922         16.0146
           22233         72.5830         35.4665         76.6256         16.8975
           22234         72.2118         36.1433         77.6204         15.1518
           22235         59.0254         54.0824         53.7071        -13.8954
           22236         80.0380         84.5793         35.9552        -18.2639
           22237         82.9984         88.8384         34.6215        -17.0641
           22238         86.0443         91.8834         32.8243        -17.3169
           22239         82.9582         89.9560         35.4258        -15.5107
           22240         80.0450         87.9939         33.9900        -12.9081
           22241         67.3889         39.9606         68.2960        -18.3414
           22242         64.7901         42.4378         66.0739        -16.6839
           22243         71.3543         63.2343         40.4051        -25.9183
           22244         77.7921         38.5070         83.4910         16.4626
           22245         73.2994         78.9541         36.7319         15.1652
           22246         94.6539         104.345         32.4296        -11.5994
           22247         94.5991         104.742         33.2054        -10.8547
           22248         67.7260         39.6934         68.4253         18.6660
           22249         65.6978         42.3525         64.3672         19.1958
           22250         108.373         121.677         35.7841         2.08141
           22251         91.8280         33.3883         101.961        -10.4220
           22252         89.9271         33.9564         99.7787        -11.0480
           22253         93.8619         31.4290         105.425        -2.66354
           22254         83.9052         33.3815         87.4662        -19.9598
           22255         79.9758         36.7376         84.9113        -17.8510
           22256         77.0397         38.7652         81.9870        -17.2119
           22257         73.5850         41.3541         78.6272        -16.0614
           22258         73.6097         41.1407         77.1027        -17.8238
           22259         85.7107         34.7339         93.7855        -14.1620
           22260         85.7881         35.1482         94.4458        -13.2135
           22261         61.0202         58.4176         49.0065         16.0421
           22262         59.6081         57.1499         50.8439         14.2319
           22263         60.1302         55.8410         51.3417         15.5823
           22264         61.0372         53.9914         52.3246         17.2982
           22265         62.5039         52.0406         53.1122         19.5072
           22266         64.7684         57.1573         54.8872         18.7313
           22267         63.6106         56.0044         56.9344         16.9004
           22268         64.6716         54.1856         58.1839         18.3820
           22269         70.7640         43.5306         74.0357        -16.8737
           22270         69.6607         44.3346         74.2709        -14.8735
           22271         68.3307         45.6402         70.9555        -16.2255
           22272         97.2639         109.028         31.6192         2.63264
           22273         97.0179         108.746         31.3410         2.06529
           22274         73.5741         49.2250         58.5455        -28.5445
           22275         64.1383         56.6891         55.7946        -17.7949
           22276         62.7052         57.5421         55.9499        -15.3832
           22277         63.1783         59.3355         53.9623        -15.9243
           22278         64.6381         58.4940         53.8136        -18.3340
           22279         68.8767         47.4142         64.8390        -21.3393
           22280         89.9326         94.3390         29.5234        -19.1624
           22281         66.4563         66.4663         47.5267        -17.3089
           22282         68.9945         67.3264         45.5639        -20.1576
           22283         66.4201         63.4340         49.1093        -19.0721
           22284         68.8651         69.8317         44.7657        -18.1479
           22285         78.7913         73.9373         37.5129        -26.5061
           22286         82.9861         31.5987         91.6162         11.3967
           22287         82.6850         32.5505         91.9078         10.3581
           22288         107.997         120.688         33.1753    -590.467E-03
           22289         108.277         121.144         33.8662        -1.14017
           22290         93.3178         32.9816         104.532        -6.85812
           22291         79.9224         33.2203         88.4291         11.5749
           22292         94.8582         104.972         33.0514         10.8933
           22293         91.8397         101.342         33.4742        -12.0578
           22294         65.9605         52.2361         59.8117         19.7405
           22295         63.8972         62.7711         44.9366         17.7395
           22296         61.9785         59.9573         47.5059         16.7130
           22297         75.1280         77.6996         39.2082         19.2887
           22298         76.0725         79.9224         38.5642         18.2060
           22299         70.5097         71.5075         43.2426         18.9784
           22300         96.2220         107.797         31.3534         3.42411
           22301         66.6495         62.0319         49.8889         19.9999
           22302         68.0415         60.4368         50.2040         22.2918
           22303         66.1205         58.6348         52.7789         20.3547
           22304         107.766         120.515         33.7161        -2.32260
           22305         65.8970         60.9750         51.0384        -19.4217
           22306         63.6286         61.3073         52.1709        -15.9862
           22307         97.3988         109.201         31.3262    -605.048E-03
           22308         22.4549         11.4379         25.3218        -2.69761
           22309         86.8206         56.3856         99.9794    -210.411E-06
           22310         86.6973         54.4086         99.9793     40.6693E-03
           22311         86.5273         53.3585         99.8340     67.3112E-03
           22312         86.7378         99.9792         55.1439     195.863E-06
           22313         86.6471         99.9815         53.2317     2.77119E-03
           22314         86.4821         99.8293         52.0905    -10.5244E-03
           22315         62.6813         43.7155         71.8144    -14.0581E-03
           22316         62.6429         42.8522         71.8242        -1.52061
           22317         57.8994         38.8148         66.3244        -2.65751
           22318         62.5598         71.8141         42.6731     12.0078E-03
           22319         62.4159         71.7041         41.6121         1.46726
           22320         57.6700         66.2062         37.5747         2.47532
           22321         24.3956         27.1532         14.1244         3.73597
           22322         24.5368         14.9371         27.2735        -3.76314
           22323         17.1088         8.56498         19.3725        -1.82398
           22324         35.7434         17.7568         41.1446    -33.9777E-03
           22325         36.2186         20.4761         41.5102        -2.54205
           22326         16.9622         19.1749         7.87289         1.73398
           22327         35.7908         41.1445         17.2070     33.1196E-03
           22328         6.90424         5.83902         7.55910     436.426E-03
           22329         7.90649         7.83021    -149.930E-03    -36.5594E-03
           22330         7.13041         7.95063         5.68898    -406.831E-03
           22331         7.88214    -109.301E-03         7.82659     42.0040E-03
           22332         15.8997         17.9049         8.89064         2.02952
           22333         16.7256         18.2651         11.5101         2.82146
           22334         16.2586         9.81943         18.2426        -2.18005
           22335         17.4456         12.9491         18.7141        -3.09757
           22336         12.0356         6.89871         13.6842        -1.21217
           22337         14.5699         7.45538         16.5313        -1.49039
           22338         14.3381         16.2437         6.71201         1.37831
           22339         10.0958         11.3985         3.77558    -509.516E-03
           22340         10.8728         10.9484     152.975E-03     8.57537E-03
           22341         12.8618         14.5326         7.62768        -1.51610
           22342         13.9781         15.8475         6.94213        -1.42226
           22343         11.4784         13.0513         5.20860    -869.173E-03
           22344         15.6856         17.5947         9.29362        -2.13000
           22345         44.2598         50.7483         26.5687        -2.94147
           22346         46.4830         53.3144         28.4262        -2.92796
           22347         47.6578         54.4250         29.5699        -3.83601
           22348         48.6748         55.8287         30.2618        -2.94923
           22349         58.5518         67.0555         37.9224        -3.49619
           22350         67.1773         77.1538         43.6580        -2.73500
           22351         66.4976         76.3004         42.7796        -3.37596
           22352         70.0395         80.5179         45.9861        -1.85962
           22353         70.7619         81.3790         45.7661        -2.20401
           22354         71.7072         82.4573         47.2182        -1.48777
           22355         83.7962         96.6732         51.8675    -134.518E-03
           22356         84.4422         97.4461         51.6653    -90.1413E-03
           22357         84.6639         97.7473         50.3033    -103.041E-03
           22358         85.0452         98.1674         51.3318    -50.0326E-03
           22359         86.1181         99.4276         51.1044     6.60551E-03
           22360         86.1450         99.4706         49.3344     3.66668E-03
           22361         86.1208         99.4319         51.0437    -5.97065E-03
           22362         85.6173         98.8160         52.0305     9.48847E-03
           22363         85.3708         98.5566         51.0469     31.1886E-03
           22364         85.1734         98.2897         52.1202     31.2869E-03
           22365         84.8874         97.9867         51.1887     65.2165E-03
           22366         85.0977         98.2548         50.1845     63.4735E-03
           22367         74.8352         86.1198         48.8943         1.12611
           22368         73.3705         84.4174         47.9171         1.40480
           22369         72.4366         83.3605         46.3977         2.08852
           22370         71.6936         82.4630         46.7449         1.77634
           22371         67.3412         77.3611         43.9858         2.45875
           22372         66.8395         76.6891         42.8315         3.48642
           22373         55.0329         62.9814         35.3132         3.60627
           22374         56.1467         64.1239         36.1088         4.16981
           22375         51.7561         59.2620         32.8173         3.39357
           22376         50.9022         58.0195         32.1715         4.33352
           22377         49.4020         56.6061         30.8997         3.19520
           22378         48.5264         55.3565         30.3103         4.06716
           22379         49.6525         56.3828         31.3552         4.86819
           22380         10.8652     165.135E-03         10.9468     11.1376E-03
           22381         6.83966         7.49312         5.78064    -421.317E-03
           22382         15.7576         9.40399         17.6604         2.16451
           22383         17.7289         13.0679         18.9027         3.32907
           22384         21.4268         11.7541         24.0215         2.95901
           22385         22.3821         10.7261         25.3064         2.37583
           22386         19.7239         9.39125         22.2788         2.13835
           22387         16.3163         1.87822         17.1741    -6.71972E-03
           22388         17.1417         4.32957         18.8592    -598.539E-03
           22389         15.5738         5.59764         17.4858        -1.05442
           22390         22.8149         15.0172         24.7247         4.28137
           22391         24.9877         12.2362         28.3000         2.58569
           22392         26.6463         14.5403         29.9610         3.49209
           22393         27.5597         13.8896         31.2718         2.77158
           22394         15.8278         8.73426         17.8399        -1.98218
           22395         18.8678         3.19228         20.2603    -12.6390E-03
           22396         30.0802         15.6231         34.1966         2.92056
           22397         26.2103         8.43930         29.3903    -19.8775E-03
           22398         38.8312         22.7611         44.1183         3.98109
           22399         43.3233         26.1571         49.3938         3.87155
           22400         44.2527         26.5710         50.7401         2.94050
           22401         37.9295         21.5638         43.3199        -3.22344
           22402         37.5601         22.1301         42.4680        -4.37070
           22403         35.8056         20.2329         40.7204        -3.57829
           22404         33.6883         19.1952         38.0426        -4.05944
           22405         33.8048         18.0660         38.6077        -2.78809
           22406         46.4742         28.4317         53.3041         2.92621
           22407         47.6462         29.5775         54.4106         3.83614
           22408         48.6674         30.2758         55.8182         2.95280
           22409         43.6765         26.4176         49.8196        -3.82408
           22410         39.5172         23.3175         44.8998        -4.03578
           22411         54.2437         34.7060         61.8557         4.41618
           22412         50.6275         32.1348         57.4573        -5.01777
           22413         48.5789         30.5143         55.2328        -4.60125
           22414         47.6926         29.5959         54.4878        -3.75755
           22415         58.6824         38.0486         67.1694         3.64711
           22416         56.4517         37.2830         64.9478    -21.9859E-03
           22417         57.5130         37.9783         66.1394    -971.689E-03
           22418         56.4899         36.7875         64.9082        -2.04397
           22419         52.1953         33.1824         59.4735        -4.45916
           22420         56.8094         36.6821         64.9906        -3.73893
           22421         57.4400         36.9478         65.3656        -5.05537
           22422         58.5502         39.2110         67.3024    -18.9267E-03
           22423         67.2382         43.9150         77.2032         2.73789
           22424         66.5346         43.0127         76.3221         3.39183
           22425         64.4831         44.3860         73.9664    -16.1891E-03
           22426         64.3994         43.0949         73.9574        -1.59212
           22427         63.3666         41.9609         72.7430        -2.26758
           22428         68.0947         47.2996         78.0460    -12.4479E-03
           22429         64.2488         41.9856         73.6976        -3.05615
           22430         63.3808         40.8967         72.5312        -4.08613
           22431         71.4040         49.7498         81.8157    -7.13688E-03
           22432         67.2761         43.5770         77.2152        -3.14855
           22433         68.1699         43.7018         78.2380        -3.42771
           22434         74.3998         51.7356         85.2639    -3.93801E-03
           22435         71.6758         46.5831         82.4235        -2.10852
           22436         70.9634         45.5380         81.5844        -2.66309
           22437         77.0722         53.2723         88.3748    -2.01457E-03
           22438         74.2331         47.9555         85.4347        -1.71310
           22439         73.0001         47.3857         83.9800        -1.86349
           22440         79.4227         54.4023         91.1407     859.916E-06
           22441         78.8880         48.9531         90.9715        -1.21512
           22442         82.3390         55.4926         94.6054    -1.27906E-03
           22443         82.2330         53.3679         94.6986    -245.770E-03
           22444         82.2257         51.5143         94.8234    -459.520E-03
           22445         83.6304         52.1423         96.4608    -276.570E-03
           22446         62.7556         42.2142         71.8469         3.01116
           22447         61.9332         41.4450         70.7861         3.70098
           22448         62.7161         41.7475         71.6009         4.20044
           22449         54.3675         36.1226         62.5270     26.3480E-03
           22450         51.8464         33.9643         59.2598        -3.43847
           22451         50.9898         33.3873         57.9962        -4.39771
           22452         49.4571         31.9738         56.5737        -3.26496
           22453         54.3681         36.1300         62.5268    -21.9261E-03
           22454         54.6897         36.2525         62.7686        -2.02763
           22455         55.9374         37.2481         64.0698        -2.77573
           22456         84.7805         52.1870         97.8223    -181.794E-03
           22457         86.5704         56.3067         99.6838     1.22170E-03
           22458         86.4128         54.0104         99.6642    -46.0081E-03
           22459         85.6787         52.0527         98.8870    -127.815E-03
           22460         86.8201         56.3838         99.9790     40.1214E-06
           22461         86.6860         54.2040         99.9779    -45.2050E-03
           22462         86.2982         51.7235         99.6238    -108.204E-03
           22463         86.3237         50.5399         99.6744    -136.598E-03
           22464         86.7445         56.4729         99.8795    -734.295E-06
           22465         86.6133         52.1905         99.9799    -91.9996E-03
           22466         86.6190         51.4833         100.004    -109.781E-03
           22467         86.5939         50.4780         99.9881    -135.367E-03
           22468         86.3485         56.5610         99.3910    -625.105E-06
           22469         85.6270         56.6307         98.5058    -3.12395E-03
           22470         85.8078         50.8373         99.0708    -73.2818E-03
           22471         84.5840         56.6122         97.2317    -1.51791E-03
           22472         83.2203         56.4319         95.5747    -727.355E-06
           22473         84.3622         51.9684         97.3383     100.409E-03
           22474         81.5429         56.0069         93.5524     3.10156E-03
           22475         77.8680         52.5238         89.4552     566.830E-03
           22476         78.4008         54.8088         89.8038    -1.80207E-03
           22477         76.1531         50.5900         87.5526         1.12274
           22478         75.3527         50.5533         86.5762         1.10528
           22479         74.8472         49.6488         86.0380         1.44298
           22480         75.6601         49.6871         87.0245         1.45810
           22481         76.8701         51.3344         88.3578     909.821E-03
           22482         73.4944         48.8237         84.4511         1.72284
           22483         72.8222         48.9385         83.6268         1.55082
           22484         66.4484         46.8726         76.0444     16.7184E-03
           22485         66.4357         45.6243         76.1608         1.46459
           22486         69.8387         47.0035         80.1370         2.07368
           22487         62.7358         42.8669         71.9280         1.62398
           22488         62.6824         43.7136         71.8161     16.5499E-03
           22489         66.4748         44.6356         76.1826         2.78238
           22490         65.9119         43.8573         75.4560         3.49333
           22491         49.8914         31.8085         57.5014     21.7318E-03
           22492         48.5941         31.4648         55.3134        -4.17168
           22493         49.7615         32.6363         56.3541        -4.98267
           22494         47.1662         30.0324         53.9775        -3.17317
           22495         44.9180         28.1475         51.3967        -3.18415
           22496         45.2620         27.2402         52.2482     21.0165E-03
           22497         45.1466         29.4966         50.6092        -5.76407
           22498         44.2289         28.0129         50.2684        -4.19201
           22499         42.6697         26.3251         48.7754        -3.30014
           22500         40.3914         24.5877         46.0718        -3.51681
           22501         40.5309         22.5207         46.7901     25.9973E-03
           22502         45.9884         29.5954         52.1338         4.61998
           22503         35.7427         17.7604         41.1442     36.3298E-03
           22504         38.0109         22.9608         43.1938        -3.81614
           22505         28.5373         10.9021         32.3812     25.4102E-03
           22506         28.6124         14.2371         32.6743         2.12515
           22507         29.3538         17.2727         32.9642         3.91769
           22508         24.2480         13.9825         27.1866         3.34076
           22509         18.3070         13.7725         19.4725         3.38973
           22510         18.5823         12.4566         20.3968         3.06497
           22511         19.1237         11.2987         21.4108         2.67994
           22512         7.88221    -108.856E-03         7.82689    -41.4026E-03
           22513         7.37456         4.62810         8.47593     341.797E-03
           22514         7.17941         6.79665         7.42230     484.745E-03
           22515         90.1349         104.066         53.4707    -2.26537E-03
           22516         90.0348         103.959         51.2077     87.3847E-03
           22517         89.9659         103.836         49.1982     191.875E-03
           22518         85.6095         98.7830         52.6200    -2.16049E-03
           22519         85.5970         98.8295         50.3897    -384.884E-03
           22520         85.5320         98.7473         48.4591    -731.681E-03
           22521         31.6097         35.6203         10.9132    -25.9723E-03
           22522         31.5749         35.9055         13.8846        -2.12308
           22523         32.0885         36.1805         16.5593        -3.89680
           22524         11.1884         12.6679         4.43891    -640.844E-03
           22525         12.9856         14.0686         2.59430    -394.377E-03
           22526         11.9389         12.0387     202.176E-03     12.3051E-03
           22527         68.2207         48.2743         78.0469    -11.3327E-03
           22528         64.3970         43.4406         73.7764        -2.69647
           22529         63.5603         43.2314         72.8479        -2.11755
           22530         71.5350         50.7179         81.8215    -13.6895E-03
           22531         67.3093         44.5719         77.1042        -3.44032
           22532         74.5273         52.7018         85.2679    -10.4692E-03
           22533         77.1917         54.2197         88.3775    -6.27811E-03
           22534         73.7032         48.1307         84.7414        -2.09414
           22535         74.4548         47.9936         85.6557        -2.17230
           22536         79.5282         55.3061         91.1406    -3.39844E-03
           22537         81.5376         56.0166         93.5445    -2.54071E-03
           22538         81.9088         54.9337         94.1430    -132.047E-03
           22539         81.3630         53.6323         93.6170    -297.912E-03
           22540         82.4202         56.2570         94.6074    -2.29620E-03
           22541         83.0340         52.1922         95.7482    -263.466E-03
           22542         85.0858         51.4013         98.2129    -15.5538E-03
           22543         84.5953         51.6209         97.6283    -73.2434E-03
           22544         84.3707         52.5068         97.3214    -92.2112E-03
           22545         85.4192         51.9828         98.5846     16.3593E-03
           22546         86.3420         53.3994         99.6127     60.7352E-03
           22547         86.4086         52.3527         99.7347     85.6823E-03
           22548         86.3239         56.2705         99.3885    -1.03726E-03
           22549         86.5365         52.4883         99.8803     83.6682E-03
           22550         86.6316         53.4617         99.9525     61.0808E-03
           22551         85.5882         56.1739         98.5051    -1.80231E-03
           22552         86.1194         50.4231         99.4383     154.003E-03
           22553         84.5293         56.0118         97.2317    -2.75624E-03
           22554         83.1497         55.7157         95.5756    -1.61026E-03
           22555         84.1819         50.5388         97.1765     331.203E-03
           22556         81.4481         55.2062         93.5424    -22.1245E-06
           22557         79.4248         54.4108         91.1420     1.34297E-03
           22558         78.6605         52.9084         90.3896     300.143E-03
           22559         79.0418         51.9375         90.9580     538.400E-03
           22560         78.2905         53.8862         89.8049     1.61689E-03
           22561         76.2031         49.0854         87.7455         1.32862
           22562         73.7345         48.0790         84.8298         1.59352
           22563         70.7827         46.0055         81.3728         2.29066
           22564         8.70126         8.61897    -161.873E-03    -36.1998E-03
           22565         11.5491         12.8929         8.17204         1.38218
           22566         15.0397         15.4804     924.020E-03    -1.66110E-03
           22567         18.6377         21.0055         7.72042         1.70287
           22568         28.9511         32.3292         8.79720     25.6952E-03
           22569         26.3750         29.5538         13.8516         3.63825
           22570         32.1320         36.2326         16.6013         3.89762
           22571         36.6903         41.9367         17.4822         2.23684
           22572         38.1261         43.4724         19.4207         3.20670
           22573         36.9493         41.7819         19.6578         4.25967
           22574         42.1046         48.3886         20.1065     24.9543E-03
           22575         47.2599         54.4985         24.8150     23.8682E-03
           22576         52.3079         60.3928         29.3946     27.2131E-03
           22577         52.1836         60.0728         29.5849         2.33573
           22578         57.2046         66.0490         33.7447     23.9629E-03
           22579         58.3499         67.3341         34.5836         1.07339
           22580         57.1297         65.8211         33.4379         2.17609
           22581         57.2162         65.5876         33.4384         3.95704
           22582         59.5814         68.7794         35.7969     22.3458E-03
           22583         63.0664         72.5513         37.5301         3.05696
           22584         70.5660         81.3614         44.5282     11.9040E-03
           22585         70.4774         81.2848         43.1551         1.33405
           22586         69.4914         80.1085         42.0106         2.01744
           22587         71.4022         82.3328         43.2255         1.82725
           22588         74.6634         86.0620         43.8367         2.51466
           22589         75.2794         86.7271         43.4161         2.93220
           22590         76.3058         87.9674         48.3290     6.38071E-03
           22591         79.6179         91.8731         46.1905         1.67910
           22592         79.7364         91.9399         50.2339     2.71708E-03
           22593         82.3861         95.0932         47.0363         1.31444
           22594         81.4585         93.9972         46.1343         1.64672
           22595         81.0660         93.5615         46.7566         1.45746
           22596         82.8396         95.5502         51.6510    -38.2885E-06
           22597         85.6112         98.7853         52.6133    -2.16689E-03
           22598         88.0442         101.627         53.1977    -1.64149E-03
           22599         91.8824         106.095         53.5139    -2.81781E-03
           22600         93.2784         107.707         53.4181    -2.77323E-03
           22601         93.2503         107.640         51.4101    -52.9499E-03
           22602         94.3123         108.894         53.2671    -2.26252E-03
           22603         94.5288         109.119         52.2266    -33.4401E-03
           22604         94.3204         108.851         51.2770    -64.8682E-03
           22605         94.3516         108.796         49.4166    -106.037E-03
           22606         94.6907         109.326         53.1940    -1.91481E-03
           22607         95.1239         109.632         48.9716    -86.8021E-03
           22608         95.3012         109.747         47.8784    -96.4925E-03
           22609         95.1765         109.548         47.1563    -123.292E-03
           22610         95.1659         109.867         53.0893    -904.308E-06
           22611         95.4443         110.012         49.2908    -21.1599E-03
           22612         95.2609         109.975         53.0663     554.712E-06
           22613         94.9753         109.651         53.1321     1.82009E-03
           22614         94.3119         108.893         53.2657     2.64086E-03
           22615         93.2781         107.707         53.4183     2.22195E-03
           22616         91.8391         105.936         48.7736    -18.1348E-03
           22617         92.2751         106.383         48.0264     11.0825E-03
           22618         92.5527         106.748         48.9380     40.0058E-03
           22619         91.8819         106.095         53.5143     1.40178E-03
           22620         90.1351         104.066         53.4691     53.8407E-06
           22621         88.0429         101.626         53.1997    -22.2065E-06
           22622         82.8398         95.5504         51.6515    -4.74337E-03
           22623         79.7368         91.9404         50.2349    -7.53284E-03
           22624         79.7675         92.0557         48.3448    -772.728E-03
           22625         76.3062         87.9678         48.3300    -11.0537E-03
           22626         75.4272         86.9979         46.9448    -555.115E-03
           22627         76.3628         88.1030         46.6069        -1.02440
           22628         76.4386         88.1728         45.2091        -1.89369
           22629         74.4711         85.8509         47.1874    -12.9170E-03
           22630         72.6970         83.7756         43.0592        -2.56426
           22631         72.0531         82.9451         42.1636        -3.22747
           22632         73.2276         84.2767         42.3708        -3.43034
           22633         70.5674         81.3634         44.5238    -16.3202E-03
           22634         68.5964         78.9906         40.8998        -2.81972
           22635         67.6575         77.8015         40.0378        -3.48534
           22636         68.4729         78.6635         40.1582        -3.95373
           22637         66.3691         76.5527         41.3762    -17.6460E-03
           22638         61.9051         71.4428         37.7687    -24.8387E-03
           22639         57.2041         66.0482         33.7551    -22.1674E-03
           22640         52.3068         60.3920         29.4142    -20.5131E-03
           22641         48.1965         54.8277         27.3859        -4.77316
           22642         49.8177         56.5080         28.7328        -5.37616
           22643         50.3236         57.4060         28.7573        -4.50455
           22644         47.2579         54.4973         24.8315    -23.5677E-03
           22645         42.1022         48.3879         20.1251    -34.8639E-03
           22646         36.8803         42.0880         15.4224    -32.5730E-03
           22647         26.2775         29.0118         6.80909    -19.5693E-03
           22648         20.8070         22.2882         3.37488    -11.0888E-03
           22649         15.0287         15.4750     936.220E-03     3.15966E-03
           22650         33.4021         14.9156         38.2610    -43.1001E-03
           22651         34.3592         21.1483         38.0164        -5.53880
           22652         76.0534         51.5689         87.3296     773.022E-03
           22653         61.0099         40.9617         69.8095         3.18842
           22654         61.8203         41.8675         70.8364         2.36715
           22655         9.47663         8.98935         9.57576         1.06184
           22656         17.3745         19.6134         8.68396         2.00804
           22657         18.0645         19.9543         11.5434         2.90067
           22658         36.8828         42.0897         15.4160     27.5711E-03
           22659         39.6132         44.9600         21.2018         4.14424
           22660         61.8930         71.0226         36.5048         3.94145
           22661         62.4216         71.4374         36.7530         4.75784
           22662         9.35112         10.1858         7.73453    -940.336E-03
           22663         10.0382         11.4621         6.04732    -842.602E-03
           22664         39.8186         25.0096         44.8734        -4.78479
           22665         53.9109         35.5858         61.7274        -2.96555
           22666         55.1999         36.5870         63.0349        -3.70932
           22667         64.3322         42.8345         73.5614        -3.80885
           22668         86.1877         52.3758         99.4742     73.1444E-03
           22669         86.2908         51.4847         99.6211     99.0304E-03
           22670         86.5007         50.7484         99.8777     129.532E-03
           22671         66.5687         44.0751         76.4447         2.18271
           22672         65.0858         43.3152         74.7379         1.95672
           22673         62.5015         40.8494         71.6642         3.13306
           22674         63.4323         41.9416         72.8143         2.35115
           22675         29.1996         16.1286         32.8885         3.70932
           22676         16.9657         8.15651         19.1741         1.83088
           22677         9.22659         5.32931         10.5584     711.144E-03
           22678         39.7840         44.9363         23.9271         4.69686
           22679         53.7846         61.6940         34.4207         2.90989
           22680         55.7619         63.9990         36.0426         2.65495
           22681         56.8723         65.1507         36.7396         3.34959
           22682         63.2510         72.6373         41.8600         2.06966
           22683         82.2189         94.8666         50.5633     368.614E-03
           22684         85.9882         99.2510         52.0563    -5.11655E-03
           22685         86.2802         99.5934         52.0654    -11.0396E-03
           22686         86.5984         99.9585         52.3251     6.38448E-03
           22687         77.3854         89.1924         48.8608        -1.13278
           22688         68.3304         78.5191         45.0763        -1.93864
           22689         66.4937         76.3776         43.8095        -2.21091
           22690         64.9853         74.6378         43.0061        -2.05299
           22691         62.2576         71.3678         40.4488        -3.33061
           22692         63.2381         72.5901         41.5614        -2.53849
           22693         16.9211         19.1255         8.05564        -1.79932
           22694         9.19658         10.5249         5.31226    -705.620E-03
           22695         70.7191         76.4619         38.5089         14.3329
           22696         73.5627         80.2343         36.9702         13.8252
           22697         67.9860         72.7548         40.3106         14.5679
           22698         68.2759         74.2051         40.3695         13.1798
           22699         97.4448         31.9970         109.241         3.34150
           22700         95.7188         31.4640         107.484     607.131E-03
           22701         96.1481         31.3605         107.913    -84.1484E-03
           22702         97.5328         31.6826         109.397        -1.53474
           22703         95.8379         32.1101         107.430        -4.55721
           22704         86.4259         95.7243         35.6644        -12.2242
           22705         89.1614         98.5357         34.4713        -12.2318
           22706         86.4078         95.2368         35.1444         13.0151
           22707         89.2370         98.7082         34.5506         12.0637
           22708         86.5109         95.9679         35.7934         11.9464
           22709         83.7962         92.6592         36.4925         12.7245
           22710         83.6564         91.7898         35.8764         13.8926
           22711         76.4564         83.9761         35.6889         13.1265
           22712         79.3425         87.6181         34.6372         12.2939
           22713         76.7228         84.9558         36.0937         12.0071
           22714         75.3931         83.0586         36.4404        -12.7040
           22715         76.2169         84.4980         36.4028        -11.8309
           22716         77.9232         85.9885         35.2552        -12.4716
           22717         78.4871         87.1797         35.4970        -11.4673
           22718         80.6223         89.1962         34.2213        -11.9065
           22719         95.1575         32.1687         106.729         4.55992
           22720         95.4043         31.4057         107.148     195.491E-03
           22721         91.0429         31.9613         102.394         4.29948
           22722         91.2125         31.7480         102.455         4.74608
           22723         89.5741         32.4256         100.889         4.65404
           22724         92.6231         31.4161         103.939         4.24456
           22725         92.1526         31.6621         103.554         3.86675
           22726         90.7995         31.8014         101.983        -5.02812
           22727         91.6593         31.4307         102.783        -5.15382
           22728         89.1006         34.5321         99.6901         9.14414
           22729         87.8530         35.0711         98.4280         9.16649
           22730         88.1711         34.9503         98.9961         8.41297
           22731         89.4243         34.4293         100.263         8.37945
           22732         91.1905         33.7763         101.910         8.78020
           22733         90.7361         33.8920         101.640         8.13272
           22734         90.0561         34.1593         100.685        -9.03879
           22735         90.8643         33.8772         101.378        -9.40882
           22736         84.6560         32.2692         94.4349        -9.21480
           22737         81.7601         33.1502         91.1119        -10.0791
           22738         68.6489         69.2040         39.8304        -19.0914
           22739         68.0310         70.4506         40.2190        -17.1349
           22740         65.9247         68.4346         41.9848        -16.0546
           22741         65.7142         69.4796         42.1361        -14.6412
           22742         77.0780         80.1743         37.7350        -19.2748
           22743         77.0572         81.8388         38.0954        -17.3843
           22744         74.5392         79.5348         39.8522        -16.4494
           22745         74.8609         81.1339         40.0050        -14.9086
           22746         106.871         119.347         33.0315        -3.09646
           22747         71.8892         73.8971         41.8512         18.6943
           22748         64.7474         64.9838         43.5736         17.3421
           22749         67.6720         69.2804         40.5435         17.7466
           22750         62.9514         43.6374         68.6012        -10.7410
           22751         69.6233         38.0257         75.0215         14.4451
           22752         67.1779         40.0099         72.6312         13.4506
           22753         70.4161         43.7847         73.3314         17.0745
           22754         68.2707         45.6878         71.2498         15.8348
           22755         72.8258         41.8181         77.1774         16.5922
           22756         72.1142         36.5787         78.6013         13.6555
           22757         96.7597         108.480         31.1765        -1.22565
           22758         96.9704         108.724         31.1755     87.7356E-03
           22759         96.7672         108.486         31.1981         1.40966
           22760         96.1485         107.763         31.2487         2.74840
           22761         95.8839         107.504         31.1064         2.09302
           22762         67.4922         73.6882         41.0086        -12.4551
           22763         79.0233         34.7607         88.5184        -9.62340
           22764         96.1020         107.722         31.2072        -2.54381
           22765         95.8870         107.518         31.0781        -1.80114
           22766         95.0649         106.504         31.3643         4.11750
           22767         62.7141         44.4230         64.3321        -15.0428
           22768         59.8185         48.6824         59.6967         13.5494
           22769         61.4555         46.7549         60.9263         15.5707
           22770         107.345         119.855         32.6510         1.28333
           22771         107.622         120.187         32.7294     12.6578E-03
           22772         106.579         118.958         32.5421         2.60045
           22773         77.9950         38.6648         84.6747         15.1918
           22774         75.4028         40.0974         80.9938         15.9731
           22775         75.5906         40.2562         82.1767         14.7024
           22776         78.1533         38.9083         85.6540         14.0252
           22777         78.1771         39.1295         86.3152        -13.0089
           22778         80.9297         88.4156         36.8721         14.5238
           22779         78.5891         86.3968         38.4306         13.6041
           22780         77.9168         84.9317         38.3580         14.6528
           22781         82.9404         33.0584         92.6877         9.29778
           22782         79.5268         34.1514         88.7415         10.2271
           22783         73.9318         36.9622         82.7981        -10.0759
           22784         75.7180         36.4653         85.1677        -9.23093
           22785         73.7600         37.4779         83.0773        -9.08619
           22786         105.458         117.665         32.2159         3.12104
           22787         77.0681         34.7008         85.4697         11.4911
           22788         74.6108         35.4807         82.1026         12.6507
           22789         76.6891         35.6247         85.7909         10.1372
           22790         73.2359         41.9333         80.3843        -13.0924
           22791         73.0419         42.2118         80.8397        -11.9807
           22792         58.6220         54.6527         53.5379         13.0295
           22793         81.1127         90.2228         34.5080        -10.9806
           22794         83.3462         92.4326         33.3439        -11.1513
           22795         92.6374         103.029         34.3090         10.3992
           22796         92.2808         102.287         33.9276         11.1425
           22797         89.5115         99.4760         35.0541         11.1816
           22798         82.4364         91.8536         34.1565         10.4787
           22799         82.1758         91.1181         33.7795         11.3611
           22800         79.6099         88.4705         35.0461         11.2992
           22801         89.2715         99.1532         35.0516        -11.3271
           22802         91.9573         101.959         34.0552        -11.1508
           22803         91.6913         102.362         31.6607         7.47989
           22804         91.8575         102.741         31.8122         6.79376
           22805         100.165         111.607         33.0646         7.61498
           22806         102.010         113.663         32.9011         6.92626
           22807         92.1949         31.0393         103.199        -5.46735
           22808         91.3275         33.6393         101.652        -9.92446
           22809         89.7669         34.1712         99.8979        -10.3997
           22810         88.0067         34.8312         97.9689        -10.7460
           22811         90.1030         31.7630         101.091        -5.81071
           22812         89.2916         34.4113         99.6169        -9.88726
           22813         65.0928         54.0978         58.0117        -19.0040
           22814         63.7216         55.3879         57.5370        -17.0193
           22815         65.1251         60.1872         52.0463         18.6412
           22816         93.7485         31.5844         105.409        -1.76895
           22817         92.8304         31.7018         104.413        -2.61451
           22818         89.1404         32.3894         100.312        -5.27540
           22819         89.6862         32.0923         100.791        -5.46404
           22820         92.3066         33.1951         103.589        -6.49300
           22821         88.4209         34.8277         99.0499        -9.01977
           22822         88.9306         34.6066         99.4436        -9.37041
           22823         74.1913         77.7080         39.9732        -18.0203
           22824         66.1806         66.9855         42.0742        -17.7101
           22825         63.8606         66.6203         43.8850        -14.5790
           22826         79.5037         38.5828         88.2927        -12.1544
           22827         83.1605         33.5372         93.3274         8.38392
           22828         61.6958         62.0539         46.7431         14.9594
           22829         67.6651         71.1144         40.5046         15.9284
           22830         65.7283         70.8192         42.1863         13.0737
           22831         74.0723         79.9778         40.4192         15.1567
           22832         95.3589         106.211         30.6851        -6.58379
           22833         92.5869         103.753         31.7213        -5.55571
           22834         105.932         118.222         32.6808        -3.68093
           22835         75.3872         82.6555         40.0007        -13.6323
           22836         75.8692         83.9996         40.1662        -12.3939
           22837         65.7184         71.8916         42.2937        -11.5804
           22838         65.7889         72.7581         42.4650        -10.3415
           22839         67.5296         74.5543         41.1964        -11.1973
           22840         73.8299         81.3581         37.3194         12.5859
           22841         74.7069         81.5572         40.2595         14.0495
           22842         72.5741         79.9354         41.8643         12.5320
           22843         71.9001         78.3459         42.0232         13.6374
           22844         64.0471         53.6301         59.4603        -17.1189
           22845         22.2406         16.2108         23.3170        -4.69609
           22846         19.8850         14.2939         21.1692        -3.89668
           22847         20.0877         21.4884         14.2075         3.88192
           22848         22.1486         23.1123         16.3294         4.73081
           22849         18.1385         19.4522         13.0261         3.38247
           22850         21.8527         16.6756         22.7445        -4.52519
           22851         23.7038         17.2584         25.0005        -4.84635
           22852         21.4296         17.4088         21.6171        -4.66153
           22853         19.2175         15.0068         20.0366        -3.80040
           22854         22.4137         24.2968         14.7362         4.20022
           22855         21.7524         23.0940         15.4820         4.38489
           22856         19.8199         21.4930         13.4526         3.60754
           22857         93.5805         104.777         31.5619         5.47421
           22858         102.816         114.687         32.6733         5.70892
           22859         103.427         115.338         32.8251         5.85186
           22860         105.984         118.264         32.3886        -3.03391
           22861         95.0213         106.555         31.2077        -2.97564
           22862         58.6938         52.5207         55.5328        -13.1563
           22863         62.0860         56.6470         57.3813         14.1852
           22864         74.2726         82.4874         37.4470        -11.5307
           22865         63.1084         51.9654         62.9767         14.0096
           22866         64.7029         49.4418         66.2097         14.5117
           22867         71.9435         37.2107         79.3414         12.2272
           22868         102.035         113.613         32.8345        -7.20012
           22869         92.0251         102.458         34.5866        -10.3025
           22870         98.7451         110.128         33.3491        -7.80720
           22871         91.9778         102.970         35.1181         8.94194
           22872         83.7593         93.2856         33.6397        -10.3263
           22873         91.3887         31.4919         102.498         5.23353
           22874         89.8628         31.7400         100.777         6.06949
           22875         89.2394         34.4440         99.5540         9.92157
           22876         69.5798         39.1561         77.6053         10.3969
           22877         63.3146         44.7938         62.4530         17.3146
           22878         86.6242         100.018         49.0123     707.604E-06
           22879         86.6324         100.016         48.3526    -297.715E-06
           22880         86.6045         99.9958         49.0090    -8.71693E-03
           22881         60.2847         38.6926         68.6025        -5.33017
           22882         61.3206         70.0343         39.4283         4.55177
           22883         60.5507         68.9688         38.7933         5.17363
           22884         86.5881         49.9593         99.9829     153.281E-03
           22885         86.6009         49.2230         99.9936     170.670E-03
           22886         86.5952         48.8761         99.9826     180.081E-03
           22887         62.0484         41.2561         70.7181        -4.63495
           22888         61.4296         40.7687         69.8166        -5.27509
           22889         60.4877         40.2478         68.8090        -4.95349
           22890         65.9673         75.2809         38.4422         5.79170
           22891         64.8289         73.9843         37.9119         5.67712
           22892         66.5031         47.2277         69.5371         14.6159
           22893         65.1343         41.6693         70.6331         12.3873
           22894         58.4822         49.2130         60.8345        -9.85325
           22895         62.9510         52.3995         62.4561        -14.0122
           22896         63.3183         52.9585         61.0622        -15.3816
           22897         60.8892         60.3477         48.0108         14.8093
           22898         59.9934         58.8146         49.5510         14.1311
           22899         95.4041         31.4782         107.162    -465.318E-03
           22900         94.6452         31.5353         106.386     275.234E-03
           22901         95.2890         32.0024         106.932         3.80748
           22902         94.4135         32.2816         105.993         4.42938
           22903         60.6245         61.9029         47.5745         13.2291
           22904         59.8407         60.2185         48.8282         13.0488
           22905         58.8567         58.7277         50.4176         12.0298
           22906         58.4926         57.0648         51.6987         12.1438
           22907         77.2152         86.0367         36.2423         11.0233
           22908         80.0855         89.4383         35.2162         10.3918
           22909         74.3259         82.5473         37.4159         11.5312
           22910         83.9013         93.1717         36.7661        -12.0039
           22911         84.2060         93.9878         37.1145        -11.0719
           22912         86.7336         96.5399         36.0118        -11.2915
           22913         74.2455         83.0079         37.8429        -10.5080
           22914         76.1940         85.0248         36.7967        -10.8158
           22915         86.6230         96.6607         36.2782         10.8139
           22916         90.2204         100.605         35.1919         10.3341
           22917         83.8798         93.3257         36.9324         11.6743
           22918         64.4288         64.0778         49.9787         15.8088
           22919         65.6001         63.2483         49.6706         18.0503
           22920         75.8780         36.5180         85.4655         8.95496
           22921         75.9597         40.2153         83.3699         13.5992
           22922         72.1663         77.5081         41.6611        -15.2085
           22923         85.8497         33.2266         96.6796         6.62187
           22924         83.6548         33.7447         94.1648         7.52731
           22925         90.1798         100.835         32.1418        -7.58599
           22926         100.239         111.731         33.0720        -7.42795
           22927         63.8809         69.1709         43.6948         11.6809
           22928         62.3063         67.8046         45.1192         10.1352
           22929         66.2161         72.2871         41.9024         12.0048
           22930         69.3125         75.4242         43.8608         12.9074
           22931         61.2290         46.1376         62.7888         13.8419
           22932         19.0286         14.3729         19.9483        -3.84206
           22933         18.0115         14.9572         18.1592        -3.76606
           22934         16.8153         13.5911         17.5069        -3.13491
           22935         104.583         116.721         31.9527         2.73094
           22936         62.7056         55.9095         57.6888        -15.3131
           22937         61.6898         56.4014         57.9655        -13.3397
           22938         62.2741         61.7013         52.8136        -13.4213
           22939         61.7319         63.6616         52.0313        -11.0025
           22940         62.7293         62.7636         51.8244         13.6944
           22941         63.4149         62.3209         51.6084         15.1702
           22942         61.9209         61.7994         52.9969         12.6693
           22943         80.5141         90.2872         35.3885         9.54868
           22944         88.9905         99.6086         35.9002        -9.73967
           22945         86.6603         97.5156         36.9541        -8.92026
           22946         89.3501         99.6441         35.4426        -10.4876
           22947         91.6680         102.419         35.0355        -9.55873
           22948         98.8458         110.340         33.3664        -7.39060
           22949         100.350         111.948         33.0911        -7.00545
           22950         90.9485         101.671         35.2747         9.60435
           22951         90.0877         100.915         32.3158        -7.04452
           22952         79.7886         89.4018         35.6037        -9.81415
           22953         80.7252         90.6795         35.4260        -9.15060
           22954         81.8157         91.3478         34.5435        -10.1917
           22955         79.0887         88.2742         35.5679        -10.6042
           22956         86.6610         100.029         47.5990     828.060E-06
           22957         86.6213         99.9991         48.1618     5.74625E-03
           22958         86.5847         99.9711         48.8740     8.05293E-03
           22959         62.8555         71.8677         40.3656         4.37618
           22960         63.5705         42.2021         72.5519        -4.40641
           22961         68.9166         79.0042         39.9751         4.76225
           22962         69.6170         79.9614         40.5898         4.11457
           22963         66.8191         46.7462         71.2395         13.3503
           22964         65.8023         47.4656         71.3662         11.1245
           22965         67.2867         46.1961         72.8258         12.3031
           22966         65.8615         41.7592         73.7525         8.83772
           22967         67.6604         40.4160         75.6031         9.73349
           22968         87.3392         32.3918         98.0208        -6.97367
           22969         85.6180         33.1032         96.2846        -7.09995
           22970         86.4883         35.4762         96.3629        -10.8698
           22971         84.8109         36.2607         94.6669        -10.7845
           22972         62.2288         53.7620         60.9502        -13.4653
           22973         62.3864         52.4773         62.9440        -12.6409
           22974         61.6830         53.8385         61.4459        -12.0937
           22975         63.0267         54.1549         59.6233        -15.4227
           22976         61.9566         54.9604         59.5329        -13.4879
           22977         60.8034         56.2227         58.9735         11.1629
           22978         61.0058         56.9698         57.9363         11.8343
           22979         60.5143         57.7749         57.4297         10.7063
           22980         60.3293         57.0265         58.4820         10.0411
           22981         61.9413         52.9864         62.6075         11.9278
           22982         90.2282         32.3903         101.682        -3.92761
           22983         91.8817         31.9434         103.420        -3.14786
           22984         90.4337         32.4405         101.975        -3.42336
           22985         88.5189         32.9148         99.8929        -4.53042
           22986         89.5836         34.3478         100.671        -7.49814
           22987         91.3134         33.6155         102.524        -6.91129
           22988         89.8360         34.2180         101.068        -6.90928
           22989         87.8039         35.1334         98.7757        -7.93402
           22990         61.4833         57.8054         56.6045         12.9962
           22991         61.5446         59.7527         54.7804         12.7768
           22992         60.9154         58.7807         56.1662         11.5811
           22993         96.5261         31.5413         108.308        -1.63771
           22994         96.5157         31.7476         108.254         2.89986
           22995         69.6059         39.4422         78.1893         9.30395
           22996         67.7071         40.7016         76.1879         8.64092
           22997         69.5052         44.4640         76.0017         12.3425
           22998         58.5527         48.6311         62.1076        -8.68788
           22999         58.6919         48.2478         63.3466        -7.31267
           23000         60.3423         55.0654         61.0134         9.05705
           23001         60.6647         54.0286         62.3616         8.97127
           23002         61.1786         53.7340         62.2416         10.4236
           23003         60.8612         54.7739         60.8889         10.5130
           23004         59.6569         62.2068         48.2571         10.9913
           23005         58.8825         62.5737         48.8405         8.61039
           23006         58.5236         61.1040         49.5768         9.35943
           23007         74.3328         83.2466         41.4317        -10.4537
           23008         73.8368         82.0426         41.3590        -11.5977
           23009         66.7467         74.4094         41.9575        -9.66021
           23010         64.6683         71.8158         43.3331        -9.28647
           23011         65.6402         73.4746         42.8084        -8.61955
           23012         64.3966         68.7453         48.1746         11.7187
           23013         65.2991         70.5259         47.1824         11.4233
           23014         63.0750         67.5565         49.5090         10.1339
           23015         61.9614         64.9810         45.6262        -12.9069
           23016         64.1445         68.2679         43.4566        -13.3194
           23017         78.9218         39.3017         89.0156         9.28630
           23018         78.8392         39.2551         88.5542         10.1492
           23019         76.9623         40.2507         86.6132         9.78895
           23020         77.0459         40.2980         87.0752         8.92591
           23021         80.7344         35.6101         91.6650         6.10191
           23022         80.2797         35.6286         91.0570         6.53920
           23023         79.1112         36.2177         89.9232         6.25815
           23024         79.5709         36.1941         90.5348         5.82497
           23025         81.4977         34.7502         92.0171         7.41081
           23026         67.8336         74.4470         45.0605         11.3022
           23027         66.7570         72.6364         45.8790         11.6627
           23028         70.9865         79.1860         43.1727         10.3834
           23029         23.3897         18.0399         23.7291        -5.37400
           23030         23.3220         19.4593         22.5261        -5.66177
           23031         104.690         116.847         31.8330         2.08004
           23032         105.336         117.542         31.7444         1.02503
           23033         104.520         116.678         31.7315         1.43077
           23034         103.635         115.728         32.0129         3.00667
           23035         94.7262         106.313         31.1522         2.00471
           23036         94.4946         106.116         31.1833         1.32904
           23037         65.1678         68.0686         47.7912        -13.9353
           23038         66.8482         68.6785         46.4279        -16.1760
           23039         60.9163         56.7005         58.3079        -11.5776
           23040         60.2669         56.7372         58.8416        -9.81786
           23041         60.3702         59.6009         48.7761        -14.3791
           23042         82.2867         92.7598         35.1351        -7.98687
           23043         82.8236         93.4690         35.0380        -7.54093
           23044         84.1000         94.6912         34.4480        -7.78129
           23045         83.5706         93.9918         34.5411        -8.22754
           23046         86.5602         99.8790         46.6505    -14.8632E-03
           23047         86.4844         99.8372         47.9327    -15.1079E-03
           23048         86.5654         99.9366         48.2150    -5.89086E-03
           23049         86.6293         100.004         48.0108    -8.32822E-03
           23050         59.8936         68.0519         38.3554         5.63324
           23051         63.4721         72.4960         40.4885         4.79521
           23052         59.4338         38.1259         67.3354        -6.10879
           23053         63.2226         40.5660         72.2119        -4.70032
           23054         86.4984         49.1284         99.8747     174.361E-03
           23055         60.1052         39.9588         68.1566        -5.59938
           23056         58.9259         39.2062         66.8298        -5.44829
           23057         64.2880         42.4357         73.3108        -4.78480
           23058         66.9714         76.4440         38.8798         5.82992
           23059         68.3870         78.2445         39.5621         5.32117
           23060         67.9219         77.5275         39.2581         5.92350
           23061         70.3796         80.7878         40.6955         4.40423
           23062         62.8601         51.1003         65.1921        -11.8529
           23063         61.8834         52.5564         63.5333        -11.1052
           23064         60.4554         55.9546         59.6892         10.0171
           23065         56.4570         53.5622         57.1171        -6.20304
           23066         57.7938         49.7644         61.2323        -7.33531
           23067         69.3822         39.9141         78.4081         8.21588
           23068         84.7088         33.7851         95.5897        -6.48740
           23069         86.0184         33.1563         96.8483        -6.61717
           23070         86.2985         35.9499         97.6959        -6.39526
           23071         85.0921         36.5856         96.5545        -6.10697
           23072         60.2979         61.8146         54.2271         8.68423
           23073         59.7823         61.2924         55.0170         7.35794
           23074         59.6506         60.0197         56.0883         7.66660
           23075         75.9496         37.0659         86.1122         7.54925
           23076         76.0161         37.4594         86.5846         6.37070
           23077         74.6016         41.3944         83.2436         11.0788
           23078         76.5927         40.2134         85.2920         11.6116
           23079         76.2445         40.2721         84.3543         12.5547
           23080         58.6671         49.0825         60.7500         10.3914
           23081         59.8191         47.6818         61.5928         12.2197
           23082         59.9383         47.0382         63.2893         10.8242
           23083         83.5787         36.8812         93.5133        -10.4773
           23084         82.1863         37.6231         92.2699        -9.94705
           23085         57.1144         51.8121         58.3975         8.02052
           23086         63.3279         43.6750         70.9224        -7.53814
           23087         62.2521         44.5700         69.5808        -7.03703
           23088         91.2695         102.331         32.0764        -6.10939
           23089         89.7391         100.689         32.4923        -6.59922
           23090         99.5206         111.151         33.2101        -6.78772
           23091         100.711         112.448         32.9836        -6.29858
           23092         61.2476         52.4400         64.7187        -8.29971
           23093         61.4265         52.5819         64.0800        -9.51417
           23094         62.4296         51.2376         65.6882        -10.3750
           23095         87.2453         32.9389         98.2817         5.90955
           23096         87.8068         33.0130         99.0549         5.11213
           23097         87.5590         32.5671         98.4173         6.45933
           23098         84.1299         36.7939         94.7266         8.87477
           23099         82.3672         37.6391         92.8885         8.86226
           23100         63.5082         49.4912         69.0163         8.87617
           23101         64.5451         48.5244         70.0647         10.0371
           23102         92.6734         31.8524         104.320         2.16053
           23103         92.0338         31.9896         103.636         2.69438
           23104         91.2428         32.3407         102.898         2.52176
           23105         91.8796         32.2040         103.579         1.98947
           23106         91.8495         33.3309         103.217         6.11011
           23107         90.8639         33.7746         102.162         6.55416
           23108         90.1857         34.0374         101.599         6.07402
           23109         91.1731         33.5921         102.652         5.62895
           23110         85.4335         96.3128         34.0991         6.93176
           23111         84.3079         95.2578         34.6317         6.66743
           23112         83.1618         93.9537         35.0087         7.12230
           23113         93.7884         31.6830         105.510    -989.135E-03
           23114         93.1027         31.7977         104.793        -1.59980
           23115         82.6513         51.2137         95.3471     365.843E-03
           23116         26.6332         29.3340         16.2341         4.52799
           23117         28.9071         32.0431         17.2550         4.61988
           23118         28.6520         31.1632         18.2752         5.33306
           23119         41.6949         46.9119         25.6364         5.26508
           23120         43.3483         48.5308         27.1470         5.89760
           23121         40.7153         26.5100         45.2512         5.96912
           23122         28.8251         16.9133         32.0864        -4.39615
           23123         44.4606         27.7383         50.0302        -5.53968
           23124         83.4586         96.3344         47.2122        -1.18263
           23125         83.0554         50.5291         95.8548    -333.961E-03
           23126         91.0549         105.036         48.4575    -101.434E-03
           23127         26.7834         17.2494         29.3743        -4.60608
           23128         28.8543         19.4440         31.1781        -5.43619
           23129         46.1757         52.2822         26.2553        -5.23183
           23130         27.8471         17.3806         30.4904         4.95490
           23131         28.4759         16.6857         31.6895         4.35890
           23132         75.6228         47.4673         87.1203         1.92138
           23133         91.3594         105.383         48.5373     69.1375E-03
           23134         45.9496         52.1511         25.9304         4.88350
           23135         83.5683         96.4552         47.0238         1.22695
           23136         28.3140         31.4634         15.8839         4.44230
           23137         29.9647         32.8823         17.8893         5.31828
           23138         87.9022         34.9747         98.1247        -10.1159
           23139         86.3863         35.6171         96.5274        -10.2388
           23140         87.1754         32.7136         98.0313        -6.48546
           23141         85.8360         33.4412         96.8155        -6.16136
           23142         88.7125         32.1862         99.6274        -6.19020
           23143         61.1750         69.1307         39.0183         6.78897
           23144         58.7910         37.8326         66.0723        -7.28496
           23145         59.2533         38.0222         66.8709        -6.73620
           23146         84.0031         94.0303         37.4104         10.5356
           23147         83.5458         93.9862         37.9035         9.52588
           23148         80.9456         91.2572         38.9346         9.33566
           23149         77.4990         86.0099         39.4508         12.1818
           23150         77.2290         86.1891         39.8478         11.2895
           23151         69.4170         78.5895         40.8468        -7.83323
           23152         71.1849         80.5727         39.9099        -8.12753
           23153         71.5701         80.5318         39.4763        -9.26691
           23154         77.6616         87.6139         40.2104        -9.33183
           23155         78.3747         88.7399         40.1289        -8.53490
           23156         80.3577         90.6394         39.1595        -9.26964
           23157         74.8132         83.6277         37.5652         10.5479
           23158         73.2625         82.5813         38.7347         9.05744
           23159         59.5360         58.4711         57.6435         7.60192
           23160         59.1510         59.7532         56.7291         5.77209
           23161         59.9700         57.1690         58.6416         8.97691
           23162         59.9795         58.5429         57.1437         9.13277
           23163         59.5517         57.0967         59.1284         7.44391
           23164         56.3064         53.0184         58.0949        -4.63839
           23165         59.8402         56.6852         59.3478        -8.35903
           23166         60.6326         55.3143         60.3690        -10.1898
           23167         61.1726         55.2514         59.8787        -11.7232
           23168         61.1384         53.9106         61.9362        -10.5589
           23169         24.9038         21.2059         23.4421        -6.27391
           23170         23.9312         21.2122         21.8852        -6.00040
           23171         22.3050         19.4645         20.9753        -5.38378
           23172         26.9167         27.1319         20.4409         6.45857
           23173         25.9182         25.8636         20.1683         6.26345
           23174         24.7473         25.3219         18.5998         5.66454
           23175         24.7526         25.1924         18.8866         5.69002
           23176         23.3623         24.3249         17.2129         5.05017
           23177         81.0388         91.1722         35.4268         8.75209
           23178         78.7894         88.9008         36.4634         8.49456
           23179         58.4011         59.4564         50.4208        -10.5073
           23180         59.8454         60.4352         48.7791        -12.8793
           23181         64.5424         69.4167         47.9486        -11.2013
           23182         76.1296         47.4676         87.7027         2.14581
           23183         76.9070         48.2270         88.6153         1.80903
           23184         76.9437         88.7305         47.0895         1.64086
           23185         76.3458         88.0315         46.3295         1.92861
           23186         29.9304         20.6418         32.0246         5.92213
           23187         26.7277         28.7625         17.6482         5.26741
           23188         39.7847         44.4082         24.6036         5.71533
           23189         84.8204         97.9083         47.5111    -980.633E-03
           23190         75.1187         47.8765         86.4656        -2.16329
           23191         75.6882         47.6048         87.1636        -2.19058
           23192         91.5703         105.578         47.7822    -64.7071E-03
           23193         33.8338         37.8649         18.6104        -4.80677
           23194         24.5925         16.4889         26.6819        -4.50698
           23195         26.9631         18.8015         28.7860        -5.35717
           23196         26.6967         27.9904         18.8154        -5.82769
           23197         82.2805         49.9025         94.9599    -626.457E-03
           23198         81.8917         50.4941         94.4779    -607.388E-03
           23199         23.6491         16.5968         25.0211        -4.93425
           23200         25.2894         17.3917         26.8770        -5.23278
           23201         41.6860         26.4580         46.1465        -6.56107
           23202         40.5466         25.4688         45.0038        -6.22410
           23203         40.6208         25.0404         45.5193        -5.50278
           23204         77.1008         47.4480         88.8867        -1.81416
           23205         74.7725         46.1907         86.1229        -2.46773
           23206         41.1109         45.6045         25.9274        -6.33791
           23207         42.5610         46.8738         27.3149        -7.03660
           23208         81.7810         94.4159         48.3287    -607.476E-03
           23209         82.0248         94.7057         47.6068    -612.286E-03
           23210         41.8624         28.2648         45.7142        -7.20833
           23211         41.7632         27.5488         46.2173        -6.38800
           23212         43.2718         29.4884         47.0947        -7.60965
           23213         39.8348         25.7980         44.3056        -5.81061
           23214         47.9746         54.1858         27.7134        -5.74759
           23215         29.4358         20.0647         31.1824         6.25025
           23216         90.4427         104.343         48.4090     173.185E-03
           23217         43.5477         49.3159         24.3533         4.90814
           23218         50.4654         56.7688         29.6952         6.53234
           23219         27.8019         30.4226         16.8778         5.03374
           23220         82.5882         95.3011         46.2019         1.52466
           23221         43.8431         27.2791         49.3269         5.49295
           23222         44.4818         28.4767         49.2557         6.93353
           23223         82.8005         48.3089         95.5982     681.973E-03
           23224         86.4235         97.4163         33.7843        -6.55368
           23225         85.2039         95.9915         34.1331        -7.22876
           23226         84.9308         95.8788         34.3594        -6.69019
           23227         87.6203         98.8135         33.4489        -5.76149
           23228         87.8840         98.9101         33.2202        -6.39335
           23229         86.1723         97.3339         34.0017        -5.92159
           23230         96.3170         107.957         34.0525         6.80231
           23231         95.7307         107.251         34.2035         7.30414
           23232         85.5212         96.5462         34.1797         6.43872
           23233         86.7028         97.6313         33.6226         6.77364
           23234         83.9004         94.9465         34.8622         6.30142
           23235         85.1492         96.2729         34.4088         6.07136
           23236         96.8248         108.404         33.8963        -7.04906
           23237         95.4147         106.887         34.2840        -7.49086
           23238         95.7557         107.335         34.2102        -7.07106
           23239         98.4554         110.171         33.4539        -6.38691
           23240         98.4369         110.052         33.4632        -6.86245
           23241         96.8562         108.543         33.8874        -6.56973
           23242         99.9118         111.680         33.0587        -6.02739
           23243         97.9235         109.728         33.5633        -5.91786
           23244         99.3735         111.227         33.1677        -5.56084
           23245         102.941         114.973         32.2221        -3.84951
           23246         101.814         113.784         32.5164        -4.53812
           23247         101.208         113.204         32.5759        -4.25621
           23248         90.6561         101.795         32.2736        -5.77388
           23249         91.9632         103.203         31.9187        -5.21961
           23250         89.3733         100.454         32.7000        -6.11492
           23251         88.9848         100.157         32.8863        -5.74840
           23252         57.8679         50.0963         60.1337         8.85940
           23253         66.6450         41.8230         75.7827         6.29347
           23254         66.3520         41.8546         75.1632         7.00484
           23255         66.1850         41.7284         74.5892         7.91921
           23256         67.8556         40.8285         76.7622         7.72606
           23257         83.4581         37.0629         93.8333        -9.39217
           23258         82.3782         37.6433         92.9175        -8.81666
           23259         83.9676         34.2777         94.9834        -6.04285
           23260         72.7784         79.2176         41.4106        -13.9867
           23261         60.8626         61.9854         47.3408        -13.6057
           23262         78.8090         39.1403         88.0931         11.0528
           23263         62.8127         70.4974         44.9263         6.43842
           23264         17.7955         15.6830         17.2778        -3.79344
           23265         91.7488         103.310         32.0674         3.12825
           23266         91.3906         102.868         32.1424         3.81431
           23267         90.8278         102.175         32.3014         4.72338
           23268         63.8759         40.6502         72.8044        -5.37687
           23269         62.8833         40.1141         71.6105        -5.46762
           23270         63.9972         73.0190         40.6334         5.15771
           23271         86.5152         47.6103         99.8622     221.097E-03
           23272         69.6822         79.8718         40.2369         4.86125
           23273         64.2083         42.2034         72.9667        -5.68306
           23274         58.2434         37.4064         65.9556        -6.05757
           23275         86.3781         50.2782         99.7394     128.113E-03
           23276         57.9757         38.6543         65.5806        -5.80762
           23277         63.6640         72.6160         37.3170         5.69451
           23278         91.0372         32.3652         102.665        -2.76179
           23279         90.5222         33.8928         101.899        -6.21340
           23280         58.8788         48.2497         62.3192         9.34321
           23281         71.2760         43.0885         76.6045        -14.7894
           23282         69.4720         44.4939         75.6500        -12.7762
           23283         71.8711         37.3576         79.4810        -11.8581
           23284         70.0927         38.9277         78.3507        -10.1456
           23285         65.0278         48.0107         71.2085        -9.51680
           23286         64.2046         43.0610         72.1282        -7.55889
           23287         85.5925         36.1018         96.2648         8.77781
           23288         85.2059         36.3467         96.1227         8.02363
           23289         86.8468         35.5441         97.6286         8.51964
           23290         92.6866         32.9707         104.148         5.49870
           23291         93.2802         32.6784         104.817         4.89661
           23292         93.6487         32.4616         105.265         4.19236
           23293         93.2494         31.7710         104.944         1.52271
           23294         82.3096         92.5405         38.2911        -9.80459
           23295         61.5134         52.5960         63.9771         9.82226
           23296         60.5380         46.0406         66.1465         8.46909
           23297         60.1964         46.4428         64.7667         9.65908
           23298         63.0650         43.9912         70.8547         6.79624
           23299         64.3946         42.8612         72.2370         7.90710
           23300         87.4684         35.2597         98.2522        -8.53077
           23301         84.0380         36.7392         94.2160        -9.95634
           23302         85.1466         36.2452         95.4773        -9.67668
           23303         84.5752         36.5650         95.0994        -9.11744
           23304         86.8206         33.4283         98.0861        -5.11029
           23305         85.1471         34.1038         96.3983        -5.22429
           23306         85.0950         33.9325         96.2075        -5.72758
           23307         58.8425         47.9069         64.4045        -5.91172
           23308         60.9998         66.5582         46.2928         8.73909
           23309         57.2557         58.7067         51.8821        -7.87008
           23310         56.5274         58.3316         52.8916        -5.18029
           23311         57.0517         59.7743         51.5342        -5.96023
           23312         57.9679         60.3118         50.3812        -8.62330
           23313         61.6367         65.7641         51.1438         8.60054
           23314         60.7287         64.4216         52.4541         7.42906
           23315         60.8154         63.6322         52.7165         8.65829
           23316         86.7862         35.7613         98.3413        -5.73776
           23317         86.7292         34.3998         98.5064        -2.81037
           23318         85.5428         34.7681         97.2582        -3.21892
           23319         86.1752         34.3466         97.8274        -3.47891
           23320         65.2120         71.0934         47.1961        -10.4274
           23321         63.5107         68.9002         48.8302        -9.42317
           23322         64.2166         70.5744         48.0736        -8.65490
           23323         90.6536         102.253         32.5275         3.18590
           23324         102.610         114.688         32.1605         3.14542
           23325         64.4555         73.4671         40.6827         5.50327
           23326         63.0315         71.3403         39.9444         6.77299
           23327         62.2851         70.3050         39.6190         7.12716
           23328         61.9423         70.0132         39.4214         6.85507
           23329         86.8116         100.041         44.5398     11.0044E-03
           23330         64.8919         41.1464         74.0575        -5.18411
           23331         64.6697         40.8805         73.6480        -5.70644
           23332         63.6714         40.3870         72.4098        -5.89298
           23333         86.7097         45.6748         99.9975     286.156E-03
           23334         86.7074         45.6939         99.9961     283.756E-03
           23335         60.2551         40.4837         67.3913        -7.71168
           23336         60.9034         40.6606         68.4266        -7.21116
           23337         61.0403         40.8574         68.4473        -7.48652
           23338         68.5209         78.0885         39.4512         6.36630
           23339         79.2284         89.4397         39.6323         9.15906
           23340         80.3724         90.9882         39.3560         8.42434
           23341         78.6713         89.1774         40.0563         8.24976
           23342         77.1067         87.3503         40.6525         8.44084
           23343         76.9441         86.8673         40.5437         9.17598
           23344         72.2569         82.1405         39.5957        -7.27063
           23345         82.7977         93.3836         38.3048        -9.03225
           23346         69.4407         78.7642         40.9113         7.45709
           23347         68.6935         77.5363         41.1185         8.25354
           23348         71.2879         80.6106         39.8130         8.33009
           23349         57.8431         49.3936         62.1457        -6.15383
           23350         58.0351         49.0415         63.2051        -4.75339
           23351         19.9133         19.4477         16.9721         4.48491
           23352         19.4890         17.4791         18.3486        -4.41016
           23353         21.2771         19.4977         19.2639        -5.06813
           23354         22.9877         19.1236         22.6349        -5.26758
           23355         73.9983         85.2246         44.7449         2.81548
           23356         74.3904         85.6996         45.3941         2.52603
           23357         83.6504         96.5894         48.2222     293.396E-03
           23358         83.3865         96.2803         48.9143     307.636E-03
           23359         83.9508         96.9355         48.9320     224.910E-03
           23360         82.8655         95.6805         47.6699     445.532E-03
           23361         82.4338         95.1784         47.1143     552.988E-03
           23362         72.7690         47.8516         83.6227         2.18151
           23363         83.3980         47.2352         96.2924     275.127E-03
           23364         20.6620         14.7046         22.1936         3.85080
           23365         44.5899         48.6917         29.1783         7.88966
           23366         44.6703         49.2980         28.7672         7.20541
           23367         45.9986         50.6224         29.8524         7.59988
           23368         44.4791         48.0026         29.6080         8.53956
           23369         45.8046         30.7824         50.5162         7.15599
           23370         47.1734         31.9638         51.8600         7.56800
           23371         45.9873         31.3322         50.2679         7.77314
           23372         81.1094         93.5219         44.6305        -2.19334
           23373         80.4404         92.7750         45.0531        -2.11904
           23374         84.2775         50.7918         97.2833    -128.719E-03
           23375         82.8096         48.3701         95.6144    -421.016E-03
           23376         92.0190         106.039         47.1645    -17.4331E-03
           23377         91.7841         105.710         46.2638    -56.9777E-03
           23378         73.8328         45.8558         84.9327        -3.14245
           23379         73.1927         45.8503         84.1515        -3.25689
           23380         24.1212         26.1447         15.5746        -4.57932
           23381         26.3222         26.9069         19.5708        -6.12245
           23382         24.0729         24.1923         18.7743        -5.65550
           23383         28.7281         29.6663         20.6804        -6.60918
           23384         84.6157         50.3667         97.6883    -288.785E-03
           23385         82.8979         48.7396         95.7084    -636.453E-03
           23386         82.6061         49.1892         95.3609    -637.327E-03
           23387         75.1219         86.5746         45.2658        -2.45121
           23388         75.0023         86.4326         45.7886        -2.29379
           23389         74.1667         85.4311         45.2607        -2.60609
           23390         76.1181         87.7644         45.2439        -2.24850
           23391         83.8687         96.8012         45.9832    -293.363E-03
           23392         83.4037         96.2846         46.4964    -377.856E-03
           23393         83.3339         96.2186         47.3361    -373.148E-03
           23394         47.6828         29.9423         53.9893        -5.12595
           23395         43.2538         27.8600         47.6106        -7.17332
           23396         74.1144         45.7404         85.3325        -2.72398
           23397         73.3943         45.6863         84.4715        -2.78362
           23398         47.5217         52.4666         30.8400        -7.58356
           23399         46.3731         51.5137         29.7230        -6.93997
           23400         45.7653         50.3239         29.7377        -7.61908
           23401         49.4664         55.7866         28.8429        -6.10771
           23402         50.9146         57.2656         29.9814        -6.60732
           23403         29.2060         20.8227         30.2783         6.66106
           23404         22.5742         16.1651         23.7914         4.72034
           23405         92.5566         106.559         46.1607    -36.6041E-03
           23406         92.9310         107.042         46.9925    -73.6796E-03
           23407         73.5172         46.7667         84.6163         2.23386
           23408         51.3580         57.4469         30.5799         7.28224
           23409         81.6952         94.2470         45.5902         1.81535
           23410         80.8534         93.2439         44.9130         2.12322
           23411         47.8228         30.1296         54.0265         5.42083
           23412         48.0969         30.8255         53.6324         6.82910
           23413         83.9394         46.8371         96.9006     558.176E-03
           23414         81.4431         91.6864         35.3395        -8.52162
           23415         80.9193         91.4913         35.8178        -7.55834
           23416         79.7948         90.4652         36.3943        -7.09774
           23417         80.9621         91.8292         36.0197        -6.64607
           23418         82.0804         92.8477         35.4463        -7.09824
           23419         91.0496         102.753         35.8122         6.55991
           23420         90.2591         101.788         36.0159         7.18365
           23421         99.9869         111.676         33.1161         6.51762
           23422         81.2283         92.3230         36.0822         5.88230
           23423         82.4875         93.6190         35.5574         5.89339
           23424         81.2200         92.4503         36.2107         5.35740
           23425         88.4822         99.4838         32.9938         6.47647
           23426         93.8007         105.254         34.7852        -7.56002
           23427         92.8203         104.239         31.6609        -3.98631
           23428         93.1833         104.671         31.5493        -3.36904
           23429         94.0374         105.532         31.3646        -3.28017
           23430         70.0145         44.1790         77.3338         11.3468
           23431         68.9959         44.9211         76.9925         9.54411
           23432         70.6139         43.8014         78.6296         10.4759
           23433         67.8005         41.1031         77.0399         6.80395
           23434         85.2667         36.1249         95.3670        -10.2576
           23435         81.1544         38.2956         91.8277        -8.24101
           23436         80.1628         38.8489         91.0066        -7.53114
           23437         67.9554         76.2571         41.3904         9.05420
           23438         100.214         111.996         33.0228         5.99136
           23439         100.894         112.652         32.8996         6.13255
           23440         66.7011         42.6924         76.4484        -3.90720
           23441         73.6488         84.8202         42.8581         3.05995
           23442         91.9630         32.1251         103.630        -2.24382
           23443         91.4962         33.4736         102.935        -5.80575
           23444         89.7710         34.2406         100.996         6.93714
           23445         88.8055         34.6962         99.9707         7.23541
           23446         88.9045         34.6610         100.278         6.39665
           23447         93.6576         31.7264         105.386     919.292E-03
           23448         94.0286         32.3128         105.668        -3.91617
           23449         59.3592         56.2506         60.4076        -6.00758
           23450         59.5289         56.3568         60.0419        -6.98444
           23451         63.8504         70.3933         48.3686         7.89417
           23452         62.6317         68.7283         49.6086         7.01546
           23453         62.9764         68.3625         49.3436         8.77589
           23454         64.2607         70.0364         48.0928         9.65518
           23455         59.3689         64.0568         48.0346         7.97939
           23456         58.5859         62.4367         49.1036        -7.93031
           23457         57.7492         60.9286         50.4127        -7.13698
           23458         61.5984         66.5744         50.9640         7.25204
           23459         84.0391         94.9876         38.0344         8.28878
           23460         82.1772         92.9343         38.6754         8.46163
           23461         68.2570         45.4133         74.9297        -11.3284
           23462         70.7685         43.5808         77.5320        -12.6041
           23463         70.1813         39.3617         79.1812        -8.62397
           23464         71.4123         38.3329         80.0557        -9.83450
           23465         61.2370         52.3549         64.9293         8.01013
           23466         60.9033         53.1941         63.5575         8.58144
           23467         59.5095         47.1283         65.0590         7.15887
           23468         61.2081         65.5253         51.6111        -7.54962
           23469         60.2974         64.4009         52.7930        -5.80568
           23470         60.9640         65.9025         51.6378        -6.05690
           23471         61.6501         65.4482         51.2696        -9.02209
           23472         60.4563         53.6522         63.3163         7.40531
           23473         75.3327         41.1788         85.0369        -9.12446
           23474         74.0309         41.8524         83.3460        -9.49766
           23475         75.9465         36.9918         86.0348        -7.74758
           23476         76.0810         37.3852         86.6099        -6.51449
           23477         57.5529         60.0009         50.9476         7.60428
           23478         58.4461         59.4363         50.4281         10.6073
           23479         72.0023         81.7484         39.6678         7.54489
           23480         77.1083         86.5417         40.2154         10.3160
           23481         74.9387         84.8004         41.5578         8.59786
           23482         67.0056         75.8419         42.2204         7.24051
           23483         71.1495         43.5257         79.7274         9.68681
           23484         72.8565         42.4284         81.4383         10.5038
           23485         56.3659         55.6733         54.9677         6.22849
           23486         59.3988         60.9150         48.8785         11.6319
           23487         75.9552         41.0347         86.6698        -6.58692
           23488         74.7100         41.6569         85.1553        -6.88389
           23489         75.5948         41.1374         85.8639        -7.78666
           23490         76.5429         37.8303         87.6411        -4.55359
           23491         76.2419         37.6680         87.0922        -5.46157
           23492         62.7912         44.2239         70.6118        -6.42091
           23493         66.1490         47.0535         72.8119        -9.76631
           23494         65.5868         47.4454         72.6864        -8.48289
           23495         64.4922         48.4048         71.0917        -8.23361
           23496         12.7885         12.4515         12.0018        -2.15272
           23497         11.6602         10.8567         11.5998        -1.77695
           23498         12.8542         11.3626         13.0807        -2.13278
           23499         14.7699         14.2953         13.7260         2.68375
           23500         12.8090         12.7428         11.8347         2.03607
           23501         13.4952         13.4352         12.1945         2.36258
           23502         14.1198         13.3132         13.4682         2.58457
           23503         12.5626         11.6068         12.4270         2.07441
           23504         11.8775         11.7056         11.1518         1.84658
           23505         11.8475         11.5244         11.3741        -1.75698
           23506         59.1733         47.6582         63.7961         8.17793
           23507         90.9787         33.6379         102.537        -5.19288
           23508         91.4422         32.4152         103.175        -1.84445
           23509         89.8143         101.063         32.6325         5.35084
           23510         99.2261         111.017         33.2167         5.92454
           23511         100.139         112.002         32.9695         5.44645
           23512         97.2150         108.952         33.7843         6.31673
           23513         98.1106         109.929         33.5205         5.84956
           23514         86.0483         99.3502         48.4687    -1.19451E-03
           23515         86.2049         99.5130         47.7176     4.82325E-03
           23516         66.1869         42.0504         75.7302        -4.54192
           23517         67.5419         42.9442         77.4205        -4.02197
           23518         67.0295         42.2971         76.7025        -4.65196
           23519         67.2620         77.1311         42.7220         3.87288
           23520         86.0175         49.4721         99.3235     188.104E-03
           23521         86.1620         48.8924         99.4857     198.122E-03
           23522         74.0963         85.2934         42.6801         3.36774
           23523         73.0991         84.0541         41.9269         3.85831
           23524         67.7872         44.5719         77.6261        -3.76718
           23525         66.9224         43.8694         76.5256        -4.28345
           23526         76.8570         87.3268         40.8593        -7.73856
           23527         77.7509         88.5486         40.6098        -7.09766
           23528         72.3701         42.4433         78.9057        -13.6492
           23529         73.0455         37.1893         81.5004        -10.6650
           23530         59.0613         58.7534         57.7397        -5.62146
           23531         59.2633         57.6710         58.7543        -6.39143
           23532         67.4097         46.0472         74.6077        -9.88081
           23533         71.6450         43.0574         79.0294        -12.0585
           23534         72.2119         42.7833         80.3856        -10.9768
           23535         71.5218         38.7622         80.8276        -8.42234
           23536         72.3168         38.0947         81.3738        -9.25070
           23537         72.9595         38.1391         82.5361        -8.24886
           23538         69.3318         40.1042         78.5985        -7.59282
           23539         59.6931         54.6325         62.4978         5.38478
           23540         60.0395         54.1171         62.9493         6.32729
           23541         59.5107         55.4827         61.3094         5.94304
           23542         60.7226         52.8872         64.4653         6.92325
           23543         10.5050         10.9684         9.33720         1.32652
           23544         84.5611         35.0187         96.2035        -3.56259
           23545         83.4234         35.3170         94.9592        -4.02459
           23546         84.3256         34.7706         95.7835        -4.38852
           23547         85.4725         34.4754         97.0378        -3.91922
           23548         102.250         114.424         32.1817         1.70531
           23549         102.209         114.359         32.2032         2.18737
           23550         86.7249         99.9240         44.2517    -33.0629E-03
           23551         86.4802         99.6824         44.7052    -37.2480E-03
           23552         86.5826         99.8272         45.1766    -24.3048E-03
           23553         61.1880         39.2119         68.7811        -7.58504
           23554         64.1280         40.5202         72.8341        -6.24392
           23555         63.4222         40.1584         71.8265        -6.70982
           23556         63.9629         72.6234         40.3140         6.31466
           23557         86.7221         99.9711         44.9799     18.9182E-03
           23558         59.2802         66.2660         38.3149         8.03955
           23559         59.5944         66.9662         38.2882         7.41708
           23560         60.6218         68.2496         38.8050         7.29364
           23561         59.6554         40.3256         66.4839        -8.03133
           23562         60.7635         40.8882         67.9030        -7.87359
           23563         57.7686         38.9268         64.4679        -7.64491
           23564         58.3508         39.5422         64.8891        -8.09293
           23565         56.7692         38.5737         62.9786        -8.12059
           23566         63.3552         41.8067         71.7660        -6.21874
           23567         63.9773         42.1049         72.3815        -6.55261
           23568         62.7541         70.7600         37.1940         7.73648
           23569         63.0920         71.4194         37.1624         7.13984
           23570         63.7945         72.0285         37.6859         7.65633
           23571         86.5136         46.1229         99.8007     259.941E-03
           23572         81.2811         92.3007         39.1840         7.49468
           23573         79.4835         90.3515         39.8664         7.45872
           23574         62.2709         66.8356         50.3034        -8.98707
           23575         62.8007         68.4229         49.5113        -8.13578
           23576         93.1114         104.651         31.5793        -2.90894
           23577         93.9566         105.551         31.3266        -2.00062
           23578         94.0564         105.607         31.3095        -2.57917
           23579         105.956         118.226         32.1625        -2.39866
           23580         27.3238         22.7208         25.8162        -7.08152
           23581         26.7008         22.8853         24.6876        -6.94504
           23582         26.6244         24.8237         22.6301         6.88676
           23583         26.4997         25.4750         21.6812         6.72098
           23584         25.9080         23.4238         22.8903         6.70229
           23585         19.2736         18.1988         17.2545         4.34239
           23586         27.3757         22.9877         26.1033        -6.82324
           23587         28.7156         24.7196         26.6044        -7.37976
           23588         27.1448         23.9185         24.8071        -6.89693
           23589         25.7786         22.1821         24.3061        -6.34732
           23590         28.2413         28.1894         21.7234         6.91362
           23591         27.5233         27.0771         21.7967         6.81806
           23592         26.1038         26.2420         20.1914         6.18958
           23593         25.6019         24.7093         21.2326         6.29089
           23594         25.6199         25.2840         20.5302         6.18313
           23595         27.4876         26.5097         22.4795         6.91383
           23596         71.9133         82.7455         45.3008         2.64489
           23597         81.9931         94.6685         47.1629     645.588E-03
           23598         81.4859         94.0797         47.3232     734.135E-03
           23599         75.6285         46.4763         87.1188         2.50978
           23600         76.3567         47.0524         87.9885         2.19885
           23601         74.9546         86.3756         45.2901         2.46461
           23602         75.8159         87.4039         45.8102         2.16214
           23603         82.5447         49.8954         95.2744     454.402E-03
           23604         84.1678         97.1862         48.1262     217.258E-03
           23605         72.0385         47.0038         82.7617         2.63292
           23606         20.4287         15.7666         21.2771         4.14317
           23607         22.5825         17.8300         23.0190         4.91979
           23608         40.5306         44.5342         25.9597         6.87076
           23609         40.7939         44.2958         26.6837         7.57145
           23610         47.6106         53.0857         30.4878         6.77332
           23611         46.4275         52.0257         29.4153         6.16246
           23612         42.0545         28.3904         45.9411         7.21734
           23613         83.1140         95.8180         44.5049        -1.87359
           23614         81.7225         94.2052         44.2688        -2.20362
           23615         78.9130         90.9857         44.5653        -2.42208
           23616         91.5309         105.362         45.4665    -87.9282E-03
           23617         91.2380         104.967         44.6912    -137.112E-03
           23618         83.9668         50.1125         96.9372    -179.974E-03
           23619         84.1757         49.1978         97.1948    -145.760E-03
           23620         81.7815         49.5613         94.3853    -624.390E-03
           23621         81.4605         48.7775         94.0293    -724.936E-03
           23622         72.1929         47.0116         82.9505        -2.61814
           23623         76.1933         47.3865         87.7822        -2.15353
           23624         21.5278         23.2089         14.5917        -4.10424
           23625         23.6586         25.1182         16.4855        -4.86904
           23626         30.6555         32.5297         20.3823        -6.56173
           23627         46.6929         29.5566         52.3793        -6.08826
           23628         84.7432         97.8526         49.0560    -118.767E-03
           23629         84.7624         49.3910         97.8717    -319.615E-03
           23630         76.8043         88.5815         45.7518        -1.97901
           23631         77.4605         89.3577         46.2503        -1.73780
           23632         82.8753         95.6845         46.8447    -474.410E-03
           23633         82.2381         94.9512         46.9921    -597.770E-03
           23634         82.3858         95.1116         46.2576    -595.128E-03
           23635         82.9483         95.7514         46.0064    -477.826E-03
           23636         81.9845         49.1431         94.6325    -740.378E-03
           23637         73.9386         85.1573         46.2747        -2.19311
           23638         73.3645         84.4725         45.4095        -2.61893
           23639         21.8551         22.2372         17.0378        -4.89007
           23640         43.9384         48.0745         28.6272        -7.66258
           23641         45.2279         49.1444         29.8392        -8.29536
           23642         43.2409         30.0668         46.4313        -8.28524
           23643         40.6265         27.3158         44.3933        -6.98167
           23644         42.1736         29.0817         45.4617        -7.92046
           23645         40.9281         28.1483         44.1331        -7.68814
           23646         46.4116         30.7139         51.7829        -6.31603
           23647         47.6983         31.9783         52.8588        -7.04256
           23648         47.5369         52.4624         28.8782        -7.92737
           23649         48.6265         53.7888         29.4598        -7.91685
           23650         20.1485         15.4522         20.8652         4.25240
           23651         22.5512         17.5970         22.8469         5.13018
           23652         83.0080         95.6908         44.4062         1.91034
           23653         82.2385         94.7891         44.1277         2.14198
           23654         81.3849         93.7771         43.6844         2.42421
           23655         77.3152         47.1183         89.1503         1.85703
           23656         77.3109         46.3451         89.1528         2.05542
           23657         93.5977         107.784         46.9993    -122.593E-03
           23658         73.9686         46.6024         85.1584         2.32431
           23659         73.3962         45.7136         84.4737         2.77285
           23660         52.3202         58.8663         30.8954         6.74121
           23661         84.7377         49.9888         97.8371     293.954E-03
           23662         91.3122         105.108         45.3321     120.769E-03
           23663         92.1693         106.064         45.4110    -88.3788E-06
           23664         82.3373         47.6464         95.0608     816.630E-03
           23665         45.2015         29.7350         49.2052         8.18484
           23666         82.3948         92.2892         34.6210        -9.45386
           23667         75.5059         85.6184         38.0464        -7.75824
           23668         86.6750         97.7767         37.0986        -8.23293
           23669         84.9173         95.7782         37.6257        -8.66997
           23670         101.339         113.213         32.7526        -5.40737
           23671         100.566         112.612         32.7351        -3.94484
           23672         100.060         112.022         32.9250        -4.74311
           23673         56.7758         51.2472         60.4281         3.76068
           23674         62.6217         50.3148         68.0290         7.84885
           23675         67.0184         42.2609         77.0511         2.87855
           23676         68.5426         41.3482         78.7235         3.91962
           23677         86.1765         33.9503         97.6112         4.46296
           23678         86.8461         33.5198         98.1808         4.83745
           23679         86.5417         35.7118         97.4958         7.96766
           23680         87.8542         35.1037         98.8424         7.87407
           23681         59.0806         56.1730         60.7401        -4.38559
           23682         59.0613         56.8830         59.8337        -5.03378
           23683         66.0826         73.4614         46.4679         8.65384
           23684         65.0165         71.9708         47.3642         8.42279
           23685         65.6462         72.1155         46.8056         9.88976
           23686         66.7426         73.6213         45.9279         10.1056
           23687         57.8274         61.9310         49.9843        -5.93601
           23688         61.6186         67.3214         50.6827         5.99942
           23689         60.5713         65.6251         52.0835         4.74399
           23690         60.5156         64.8817         52.3691         5.99372
           23691         59.9712         62.8737         53.8236         6.59677
           23692         61.2734         45.6192         69.0740        -4.21107
           23693         60.5549         46.3457         68.1808        -3.17496
           23694         61.9923         44.8985         69.7081         5.70802
           23695         95.2512         31.5668         107.008        -1.07903
           23696         95.9637         31.5181         107.733        -1.27223
           23697         95.2420         31.8708         106.933         3.09299
           23698         95.9450         31.8059         107.652         3.09948
           23699         60.0937         56.0742         59.8543         8.95691
           23700         77.2456         35.9340         86.9696        -8.88993
           23701         84.4688         95.7865         38.0497         7.22930
           23702         83.9193         95.4244         38.3459         6.46422
           23703         82.9598         94.1201         38.5579         7.44102
           23704         74.9511         41.2791         84.0960         10.2140
           23705         76.7876         40.2541         85.9992         10.6757
           23706         88.5991         99.9285         33.1392         5.08030
           23707         83.0387         93.9200         38.3971        -8.29399
           23708         73.4587         83.5195         39.0589        -7.24031
           23709         74.3496         41.7708         84.2919        -8.14204
           23710         75.0847         38.0474         85.7491        -5.76590
           23711         67.7824         77.0617         41.8765         6.56696
           23712         74.7098         84.9036         41.7980         7.63022
           23713         72.6974         82.7189         42.7861         7.09628
           23714         88.8148         100.423         36.5690         6.79269
           23715         82.6668         93.6558         35.3637         6.42406
           23716         81.1562         92.0773         35.9700         6.48805
           23717         79.7373         90.6284         36.5830         6.36857
           23718         78.0668         88.9482         37.3477         6.04955
           23719         58.4794         39.0410         65.8426        -6.60695
           23720         85.9489         99.2144         47.4660     9.22069E-03
           23721         85.7070         98.9482         47.8578     32.1808E-03
           23722         63.3554         71.9993         37.1563         6.44579
           23723         61.9629         70.0431         36.6093         7.24237
           23724         59.1889         67.1947         34.8630         6.20142
           23725         58.4752         66.5046         34.3934         5.79947
           23726         66.5109         46.6154         75.0526        -6.22946
           23727         65.4452         47.4256         73.5298        -6.17655
           23728         66.0738         46.9952         73.9588        -7.37095
           23729         67.1542         46.1843         75.4808        -7.42452
           23730         65.5142         42.6173         74.5769        -5.55055
           23731         65.2592         42.9008         74.4779        -4.70779
           23732         63.2009         49.5336         69.6416        -6.84180
           23733         62.9849         49.6400         69.6665        -5.99428
           23734         62.2548         44.9472         70.6070        -3.81449
           23735         62.0572         44.8907         69.8616        -5.52008
           23736         55.8228         56.0777         55.4805        -1.23961
           23737         55.8547         55.6855         55.7923        -2.07479
           23738         55.8141         55.4225         56.1536    -914.685E-03
           23739         56.1114         56.3285         54.7768         4.49362
           23740         103.439         115.613         31.8314    -51.5220E-03
           23741         102.932         115.118         31.9554     375.965E-03
           23742         61.8293         66.9171         50.6411        -7.50985
           23743         83.1154         93.2953         34.5357        -8.82187
           23744         77.5131         88.6404         40.8282        -5.86662
           23745         76.6345         87.5210         41.1343        -6.35100
           23746         84.5599         35.1423         96.2540         3.32405
           23747         85.4293         34.8931         97.1799         3.03355
           23748         77.6909         88.3857         40.5843         7.38990
           23749         76.1329         86.5612         41.1918         7.57691
           23750         72.7789         82.8952         39.4423         6.80802
           23751         70.2488         79.9830         40.6171         6.74648
           23752         68.5916         78.2808         41.5817         5.85771
           23753         65.2345         72.3763         47.1544        -8.29722
           23754         65.9932         72.7846         46.5356        -9.64378
           23755         66.1886         74.0110         46.4446        -7.82329
           23756         62.6573         69.3892         49.4378         5.69893
           23757         56.9944         59.4461         51.7999         6.07157
           23758         58.0058         61.6477         49.8685         7.10984
           23759         82.4673         95.1903         45.6129    -585.390E-03
           23760         75.3423         44.6623         86.7902        -2.91201
           23761         74.6117         44.5488         85.9110        -3.10059
           23762         45.1580         29.4839         49.4397        -7.81752
           23763         44.4324         28.4415         49.1903        -6.94455
           23764         31.1549         32.4560         21.8758        -7.04010
           23765         77.2109         89.0646         45.2648        -1.96783
           23766         82.0625         94.5536         43.6374         2.28931
           23767         47.9128         52.6567         29.3716         8.30333
           23768         46.7356         51.6149         28.2873         7.74586
           23769         90.3734         104.057         45.2276     275.945E-03
           23770         31.2679         22.6023         32.0442         7.39944
           23771         33.1155         24.9513         32.9197         8.40137
           23772         33.2042         24.2100         33.7289         8.06921
           23773         31.4572         21.8447         32.9484         6.98847
           23774         45.4956         33.0038         47.5218         9.84342
           23775         44.8123         32.1090         47.1996         9.39652
           23776         43.9573         31.7616         45.9855         9.47533
           23777         44.6585         32.6614         46.3137         9.92178
           23778         45.5312         48.5275         30.9238         9.35501
           23779         44.2526         47.2207         29.9332         9.05483
           23780         33.0129         25.8799         32.5966         8.18819
           23781         48.0151         52.6528         29.5681        -8.47955
           23782         48.3082         52.3745         30.4823        -9.27218
           23783         42.9362         30.5258         45.3848        -8.89415
           23784         41.8514         29.5452         44.4191        -8.52325
           23785         82.4039         46.9244         95.1436     503.481E-03
           23786         82.9029         47.0397         95.7203     383.770E-03
           23787         74.5657         85.9018         44.6415         2.75892
           23788         82.3884         95.1160         46.3303     593.048E-03
           23789         82.8810         95.6678         45.7634     493.371E-03
           23790         81.9439         94.6047         46.3781     685.493E-03
           23791         75.7976         46.1402         87.3307         2.52717
           23792         33.1383         35.2930         21.6576        -7.02041
           23793         74.4240         45.8402         85.6596        -2.98319
           23794         74.0775         45.3719         85.2365        -3.21229
           23795         81.8653         46.1550         94.5133    -614.644E-03
           23796         81.3004         46.4315         93.8628    -782.052E-03
           23797         84.4586         97.3650         44.6788        -1.55588
           23798         95.0496         31.7807         106.781        -2.29671
           23799         95.6966         31.5985         107.450        -1.75163
           23800         95.1113         31.6883         106.862        -1.70422
           23801         95.2082         31.6754         106.956         1.78318
           23802         95.7555         31.7116         107.484         2.52329
           23803         95.2008         31.7726         106.929         2.39536
           23804         64.8268         73.2207         43.5602        -6.66472
           23805         72.7777         82.3255         42.5756        -8.39613
           23806         71.1681         80.5460         43.4155        -7.94323
           23807         75.5491         85.6204         41.3342        -8.31380
           23808         75.6103         86.2444         41.5379        -6.72907
           23809         95.0363         106.619         31.1566        -2.27383
           23810         94.7822         106.389         31.1194        -1.57613
           23811         93.6848         105.313         31.3742        -1.38557
           23812         105.701         117.932         31.9066        -1.77837
           23813         16.9364         15.9573         15.6237        -3.53165
           23814         16.1525         16.0636         14.0579        -3.21763
           23815         14.4967         14.4081         12.9555        -2.66948
           23816         15.4749         13.5485         15.4311         2.99217
           23817         14.0941         12.4170         14.1975         2.52864
           23818         86.9795         35.7973         98.6941        -5.04807
           23819         88.5568         35.0055         100.330        -4.57992
           23820         87.5366         34.2557         99.3816        -2.37167
           23821         89.1169         33.6994         100.995        -1.78720
           23822         90.2053         101.985         33.0371         2.15372
           23823         89.7279         101.373         32.9996         3.21127
           23824         88.7765         100.483         33.5145         3.09876
           23825         101.136         113.288         32.5574         2.74769
           23826         101.954         114.076         32.2801         2.69089
           23827         101.682         113.769         32.3863         3.24904
           23828         100.720         112.837         32.6744         3.24720
           23829         104.644         116.803         31.7557        -1.66724
           23830         23.0631         21.3855         20.3022        -5.67331
           23831         25.6341         22.9111         22.9697        -6.60412
           23832         24.7980         23.0845         21.3948        -6.27681
           23833         28.6009         23.3896         27.2120        -7.45932
           23834         28.9567         29.2292         21.6904         7.01573
           23835         29.7749         23.4361         29.5521        -7.22387
           23836         27.9788         22.5666         27.4640        -6.80831
           23837         23.2978         23.4615         18.4226        -5.32833
           23838         23.4147         22.8468         19.4835        -5.53183
           23839         25.4813         24.6823         21.0396        -6.23751
           23840         25.3572         25.2986         19.9789        -6.03462
           23841         21.2850         20.9199         17.9191        -4.80211
           23842         21.1296         21.5365         16.7188        -4.58930
           23843         29.1172         30.3909         20.3313         6.55048
           23844         29.1353         31.0218         19.3220         6.12583
           23845         30.7860         32.5128         20.7183         6.70963
           23846         28.9264         29.5761         21.1534         6.83509
           23847         22.7357         19.9770         21.4776         5.34177
           23848         22.9710         21.0223         20.8189         5.47618
           23849         24.9555         22.7232         22.3823         6.16609
           23850         24.7053         21.6728         23.0409         6.03107
           23851         21.0270         19.4243         19.2025         4.79891
           23852         20.6255         18.1447         19.7818         4.61136
           23853         71.6836         82.4370         44.3415         3.26017
           23854         71.3773         82.0308         43.5505         3.71925
           23855         77.0714         47.5688         88.8371         1.91992
           23856         77.8289         48.2366         89.7257         1.62697
           23857         77.6677         48.8943         89.5040         1.51541
           23858         84.3464         97.3819         47.3626     200.288E-03
           23859         83.8557         96.8214         47.5304     276.266E-03
           23860         81.9902         49.7707         94.6250     558.939E-03
           23861         22.5432         18.8319         22.1828         5.13886
           23862         24.6586         20.7422         23.8380         5.88809
           23863         30.4893         20.0620         33.2428         5.44507
           23864         31.8565         22.7097         33.5008         6.77248
           23865         32.3376         22.1300         34.7194         6.29517
           23866         46.1258         51.2250         29.5628         6.92792
           23867         47.2107         52.2953         30.4681         7.28207
           23868         44.7868         49.9558         28.3985         6.38931
           23869         47.9903         32.2237         53.1760         7.08379
           23870         49.0663         33.2152         54.1330         7.56986
           23871         49.3824         33.1639         54.8454         7.06273
           23872         39.1313         42.9054         25.0154         6.78013
           23873         38.3680         42.7747         23.6620         5.61759
           23874         93.3479         107.410         45.8837     119.719E-03
           23875         93.1253         107.093         45.1473     106.223E-03
           23876         81.2762         49.4886         93.7905    -730.684E-03
           23877         71.9751         46.1647         82.6743        -3.20599
           23878         72.4805         45.7355         83.2761        -3.43792
           23879         71.6557         45.5149         82.2699        -3.60998
           23880         77.1380         47.6263         88.9155        -1.89333
           23881         83.3751         49.9966         96.2473    -284.378E-03
           23882         23.3618         24.2206         17.3703        -5.10321
           23883         25.4527         26.0514         19.0863        -5.83395
           23884         24.3464         23.5340         20.1227        -5.98722
           23885         22.1088         21.5783         18.3911        -5.22140
           23886         74.1886         85.4607         45.7975        -2.37257
           23887         74.8256         86.2144         46.4288        -2.09275
           23888         72.8887         45.2190         83.8601        -3.03115
           23889         72.6657         45.5176         83.6006        -2.86847
           23890         84.6872         97.7760         47.5713    -146.898E-03
           23891         84.2812         97.2786         46.2229    -220.442E-03
           23892         84.6826         97.7422         46.4381    -156.393E-03
           23893         47.5294         30.6010         52.7905        -7.09999
           23894         49.3723         32.0593         54.6553        -7.63398
           23895         31.5725         33.6166         21.2054        -6.58107
           23896         32.0840         34.8245         20.6154        -6.04327
           23897         81.5811         49.3784         94.1510    -786.445E-03
           23898         81.5063         94.1030         46.8921    -757.866E-03
           23899         39.1314         24.3280         43.5207        -5.89157
           23900         39.1412         23.6152         44.0792        -4.90995
           23901         38.9916         43.0375         24.6164        -6.36605
           23902         52.1250         58.4519         30.9737        -7.10621
           23903         53.3445         59.6397         31.9321        -7.60492
           23904         53.7867         60.5144         31.8824        -6.92507
           23905         45.9886         30.8260         50.8262        -7.02794
           23906         46.9060         31.6469         51.6991        -7.34771
           23907         39.2647         26.3838         42.7993        -6.90505
           23908         74.2100         46.1306         85.4506         2.52801
           23909         74.8422         46.7822         86.1995         2.23822
           23910         78.0583         47.4480         90.0276         1.67855
           23911         25.7308         21.1177         24.7932         6.45466
           23912         23.2127         19.2444         22.5437         5.60069
           23913         39.6174         24.4295         44.2666         5.61598
           23914         84.6518         48.4973         97.7437     371.134E-03
           23915         84.2639         47.3418         97.2832     482.423E-03
           23916         53.8174         60.5614         31.8986         6.90227
           23917         80.1951         92.4602         44.5039         2.35319
           23918         79.5901         91.7214         43.9174         2.65786
           23919         79.1982         91.2814         44.0797         2.62730
           23920         89.4472         100.786         36.2161        -7.77856
           23921         61.5722         51.6420         66.0929         7.50846
           23922         61.9640         50.9843         67.3162         6.84919
           23923         63.9938         48.6433         71.4846         5.66348
           23924         61.0294         45.8219         68.6060         4.53920
           23925         63.8563         43.8816         72.8312         3.81204
           23926         82.7866         35.0545         93.9894         5.33967
           23927         81.5719         35.4884         92.7013         5.50243
           23928         88.6042         32.8218         99.9379         4.69037
           23929         91.2431         32.1688         102.794         3.19628
           23930         90.1392         32.5900         101.704         3.35815
           23931         90.6964         32.4529         102.303         2.99188
           23932         80.7362         38.4552         91.2098         8.71372
           23933         80.6697         38.5602         91.4089         7.95557
           23934         89.1091         34.5440         100.131         7.74438
           23935         59.2022         55.0933         62.1626        -3.17186
           23936         58.9184         56.2734         60.7318        -3.36213
           23937         63.5868         70.5688         48.5888         6.61561
           23938         58.4927         63.1276         49.0757         6.47857
           23939         60.2449         62.6756         53.7448         7.77168
           23940         58.7189         48.1221         64.1834         5.81099
           23941         93.4949         32.2506         105.269        -2.21277
           23942         94.2075         32.0146         105.951        -2.34023
           23943         94.4449         31.8338         106.205        -1.62522
           23944         93.7334         32.0696         105.521        -1.50122
           23945         93.7691         32.0352         105.554         1.43032
           23946         94.4282         31.8271         106.192         1.49969
           23947         94.5757         31.8931         106.312         2.28814
           23948         93.9145         32.1001         105.674         2.21598
           23949         59.8357         56.1463         60.0499         8.03089
           23950         72.6787         42.6082         81.6282        -9.68858
           23951         74.4280         37.5332         84.2448        -8.07429
           23952         89.6067         34.3741         101.331        -4.57879
           23953         88.5984         35.0851         100.485        -3.96097
           23954         90.1156         33.1792         101.956        -1.60328
           23955         89.1883         33.9176         101.143        -1.26377
           23956         85.9662         45.6965         99.1625     259.322E-03
           23957         85.8787         46.7369         99.1100     196.817E-03
           23958         55.5400         38.0954         61.1223        -8.67894
           23959         54.8887         37.3479         60.7570        -8.07544
           23960         86.2767         99.4162         44.1413    -39.8558E-03
           23961         61.7138         69.4818         36.7093         7.83015
           23962         60.5683         68.0477         36.1572         7.98135
           23963         60.6316         53.2351         63.8451        -7.41215
           23964         61.4133         51.8677         65.7843        -7.43494
           23965         60.8044         52.6620         64.9104        -6.55330
           23966         66.6640         46.5828         74.2348        -8.59048
           23967         66.7694         41.9126         76.1550        -5.59042
           23968         67.9323         41.3224         77.6044        -5.52613
           23969         67.3390         41.8172         77.1288        -4.55766
           23970         66.1832         42.4074         75.6772        -4.62110
           23971         58.8485         40.0398         65.2786        -8.41438
           23972         64.7620         73.2218         38.1137         7.54509
           23973         86.9560         99.9934         42.1020    -57.7681E-03
           23974         86.8418         99.9838         43.3649    -33.0289E-03
           23975         55.9213         56.5140         54.8960        -2.71922
           23976         61.7352         67.3420         50.6119        -6.40377
           23977         56.4050         52.3175         59.0954         3.82380
           23978         85.8004         49.3618         99.0734     96.3858E-03
           23979         85.8453         48.1297         99.1116     138.610E-03
           23980         85.5380         49.2751         98.7706     70.5492E-03
           23981         85.5215         50.7837         98.7382     42.2847E-03
           23982         53.8610         35.9586         60.5434         -6.3125
           23983         54.4174         36.5715         60.7718        -7.14339
           23984         52.6386         35.1478         59.0088        -6.51783
           23985         51.9689         34.3988         58.7615        -5.35101
           23986         58.8908         66.6102         34.8336         6.78474
           23987         57.4846         65.4889         33.7129         5.38336
           23988         57.8243         65.4485         34.1402         6.55797
           23989         53.7283         60.5347         34.4931         6.33868
           23990         54.1436         60.5925         34.9384         7.22023
           23991         52.3981         58.9016         33.6084         6.48662
           23992         51.7984         58.7155         33.0181         5.29302
           23993         54.4655         35.0566         61.2603        -6.64029
           23994         54.5418         35.2931         60.9019        -7.51860
           23995         53.0376         34.1171         59.5184        -6.76193
           23996         52.8146         33.8064         59.8074        -5.52152
           23997         77.2689         37.3446         88.2696         5.18755
           23998         78.2283         37.0585         89.3657         4.89442
           23999         78.9607         36.5864         90.0073         5.41455
           24000         78.0059         36.8701         88.9161         5.70925
           24001         77.1392         37.0848         87.8762         6.10497
           24002         76.1963         37.7142         87.0667         5.37146
           24003         58.7150         57.2818         59.5888        -3.09707
           24004         58.8381         55.9249         61.1777        -2.07966
           24005         58.6308         56.9283         60.0398        -1.81909
           24006         58.8527         57.9608         58.8001        -4.27514
           24007         58.3631         62.6827         49.2812        -6.77164
           24008         59.3407         63.7809         48.1351        -8.29514
           24009         59.0192         56.0085         60.9894         3.76528
           24010         59.3039         55.2349         61.8710         4.30033
           24011         59.2772         55.9475         60.9151         5.19827
           24012         60.0193         53.1758         64.6623         3.26087
           24013         59.5475         54.3406         63.0914         3.69264
           24014         61.6881         51.0862         67.4977         5.41259
           24015         61.4129         51.5601         66.5958         6.10437
           24016         62.5828         39.8420         70.5972        -7.25684
           24017         86.7513         99.9443         44.1294     31.2314E-03
           24018         68.9701         78.5716         39.6455         6.49680
           24019         70.0167         79.9274         39.9542         6.08390
           24020         62.5896         41.4272         70.6891        -6.65226
           24021         62.7187         41.6317         70.6547        -7.06679
           24022         61.8232         41.2546         69.4370        -7.37714
           24023         61.6897         41.0422         69.4779        -6.96426
           24024         56.8094         51.1199         61.1289    -860.338E-03
           24025         57.1313         50.4518         62.0333    -229.882E-03
           24026         56.8968         50.9825         61.3507     801.461E-03
           24027         10.7634         6.75525         12.2156         1.08241
           24028         10.7303         12.1803         6.73335        -1.07311
           24029         17.3596         14.0158         17.8556         3.48102
           24030         19.8845         16.3891         19.8431         4.40659
           24031         60.9850         52.1657         65.7170        -5.98213
           24032         60.6130         52.6539         65.1641        -5.36295
           24033         60.4217         53.1473         64.3516        -5.91980
           24034         94.1766         32.1098         105.890        -2.92084
           24035         95.2225         31.5910         106.979         1.20344
           24036         94.6159         106.154         34.5583        -7.25054
           24037         72.9647         83.2000         39.4202        -6.51692
           24038         90.5330         33.8648         102.110         5.19512
           24039         89.6222         34.3252         101.168         5.52306
           24040         89.1495         34.5953         100.813         5.00823
           24041         90.0619         34.1334         101.752         4.68353
           24042         91.0742         32.6028         102.829         1.85412
           24043         90.4135         32.7595         102.128         2.37332
           24044         89.5238         33.2877         101.315         2.17530
           24045         90.1843         33.1341         102.016         1.65890
           24046         73.4633         83.8958         42.5064         6.26279
           24047         45.9428         48.9626         31.2128        -9.44148
           24048         82.4896         95.1913         44.8603    -583.781E-03
           24049         70.9122         43.2326         81.3626        -4.36391
           24050         71.6740         43.5953         82.3200        -4.03281
           24051         71.9250         43.3075         82.5982        -4.17628
           24052         71.1607         42.9450         81.6370        -4.50475
           24053         83.3828         46.4938         96.2542    -673.919E-03
           24054         82.6029         45.5772         95.3352    -869.736E-03
           24055         46.3251         29.9395         51.1372        -7.43081
           24056         45.3780         31.0874         48.0373        -9.63518
           24057         73.9805         85.1785         43.5964        -3.19235
           24058         75.0196         86.4336         43.5784        -2.87170
           24059         29.4733         27.8111         24.2145        -7.79542
           24060         31.5203         30.0921         25.2585        -8.36827
           24061         45.9197         30.9781         49.1619         9.22003
           24062         48.6910         52.8359         30.6912         9.28846
           24063         73.4301         43.6042         84.4506         3.70405
           24064         26.6217         22.7135         24.7192         6.90972
           24065         31.5132         25.2118         30.1122         8.36428
           24066         46.5335         49.4932         31.7536         9.64521
           24067         45.2505         47.7804         31.1338         9.71108
           24068         26.6432         22.5144         25.3746         6.59251
           24069         45.7659         33.2448         47.7706        -9.92294
           24070         72.6071         83.4920         43.0613         3.73610
           24071         71.7782         82.4548         42.6297         4.12503
           24072         83.5545         96.4671         46.9790     344.157E-03
           24073         83.3433         96.2325         47.6708     360.486E-03
           24074         27.4251         27.7938         20.6336        -6.51624
           24075         90.8938         104.521         44.0053    -178.500E-03
           24076         91.3258         104.945         43.5086    -96.3303E-03
           24077         83.0602         46.4113         95.8913    -313.308E-03
           24078         82.3789         45.9918         95.1014    -461.806E-03
           24079         59.5123         61.4636         55.1010         6.17860
           24080         58.9004         59.8652         56.8700         4.31094
           24081         56.1014         57.5909         53.9154        -3.09943
           24082         103.647         115.524         32.8603         6.14779
           24083         92.1402         103.615         31.8900        -3.69640
           24084         69.7075         80.0418         43.5210         3.73619
           24085         68.6989         78.7908         42.8721         4.14150
           24086         68.5839         78.7088         43.2556         3.75176
           24087         85.0273         49.9711         98.1757     11.6570E-03
           24088         20.4625         16.9999         20.4862         4.40825
           24089         49.9051         33.2532         55.7910         6.51503
           24090         50.4746         33.4370         56.7904         5.87094
           24091         93.5818         107.726         46.5226     124.506E-03
           24092         93.8277         108.057         47.2237     131.339E-03
           24093         70.0321         45.2856         80.3028        -3.72926
           24094         69.0721         44.6835         79.1111        -4.11201
           24095         69.0011         45.0470         79.0753        -3.70237
           24096         21.2217         22.2950         15.6676        -4.36389
           24097         85.3939         98.5812         47.4449    -58.1461E-03
           24098         85.6649         98.8781         47.0305    -34.1093E-03
           24099         85.7399         98.9904         48.0813    -24.1661E-03
           24100         71.0450         44.6277         81.6453        -3.33894
           24101         70.3609         44.6079         80.8410        -3.24933
           24102         54.3417         61.4566         31.9634        -6.29318
           24103         55.0464         62.5454         32.2388        -5.63404
           24104         85.3454         48.2187         98.5392     293.018E-03
           24105         85.6174         47.7827         98.8428     281.010E-03
           24106         85.7139         48.9383         98.9708     232.999E-03
           24107         77.2953         89.0304         43.4105         3.08434
           24108         78.0278         89.8822         43.4833         3.00619
           24109         60.1469         53.7552         63.4783        -6.07780
           24110         93.2395         32.1699         105.054    -803.113E-03
           24111         93.0788         32.3196         104.899        -1.37016
           24112         92.9804         32.6810         104.636         4.01184
           24113         93.3017         32.3303         105.087         2.17431
           24114         73.0614         42.4718         82.6796        -8.36166
           24115         73.4565         42.3140         83.6212        -7.09973
           24116         71.7138         43.2304         80.9590        -8.55424
           24117         72.9880         39.1073         83.5942        -5.13222
           24118         61.4210         51.6743         66.3071        -6.63444
           24119         63.2013         49.3419         70.3916        -5.10088
           24120         62.4413         70.5869         45.3144         4.53175
           24121         71.2759         81.2648         43.5384         6.29378
           24122         69.6796         79.5545         44.4439         5.37820
           24123         99.0733         110.956         33.2214         5.37869
           24124         60.7071         41.6548         67.2500        -8.73589
           24125         60.0408         41.7003         66.1101        -9.16972
           24126         87.0919         100.018         40.9431    -93.2832E-03
           24127         59.5926         39.4316         65.7826        -9.36289
           24128         61.3830         69.1308         39.2161         7.34725
           24129         58.9432         64.9597         39.1838         9.39023
           24130         56.3044         52.4571         59.2702        -2.20744
           24131         56.0473         53.4392         58.1628        -1.89877
           24132         56.3003         52.6329         58.8936        -3.20349
           24133         55.9542         56.4758         54.8611         3.15904
           24134         21.3212         18.1229         20.6219         4.98738
           24135         24.6097         21.4175         22.7831         6.21331
           24136         27.8891         24.7090         24.8300         7.39960
           24137         69.7234         44.4282         78.3764         8.69389
           24138         73.7823         42.1259         83.9860         7.15494
           24139         71.8813         43.2109         81.9260         6.53109
           24140         27.6706         19.8557         28.7040        -6.25649
           24141         29.0857         20.5447         30.2984        -6.54138
           24142         29.9933         21.9952         30.5777        -7.15019
           24143         30.8238         30.7630         23.2932         7.69714
           24144         28.8931         30.0097         20.5649         6.54368
           24145         30.7189         31.5441         22.1640         7.22312
           24146         32.7793         32.6194         24.6825         8.29380
           24147         33.3377         32.3187         25.9888         8.78284
           24148         32.3015         34.0342         21.7215         7.13001
           24149         34.2392         36.1413         22.8013         7.53418
           24150         31.7496         25.1528         31.1928        -7.89445
           24151         29.3443         22.0497         30.0584        -6.68754
           24152         31.2842         23.7645         31.6978        -7.35941
           24153         33.5374         26.4966         32.8664        -8.43279
           24154         34.2325         27.8756         32.6667        -8.91264
           24155         60.6942         52.0356         66.3339         3.03452
           24156         60.9954         51.7501         66.6356         4.10113
           24157         86.1158         99.3936         47.1234     4.46660E-03
           24158         86.2601         99.5226         46.2612     12.0490E-03
           24159         71.2024         81.4167         40.3787         5.72056
           24160         86.1193         48.0145         99.4217     226.692E-03
           24161         67.3527         43.9456         77.0016        -4.46519
           24162         66.6754         43.4560         76.0947        -4.95152
           24163         85.6568         35.0829         97.5072        -2.54692
           24164         85.7670         36.4636         97.5173        -4.91935
           24165         84.4614         37.1350         96.1873        -4.98829
           24166         67.1094         73.4726         45.5917        -11.2041
           24167         86.6620         45.2830         99.9212     286.687E-03
           24168         80.8603         49.0492         93.3131    -851.201E-03
           24169         81.0488         48.3449         93.5542    -846.835E-03
           24170         86.1128         99.3963         47.7407    -788.719E-03
           24171         86.6585         99.9896         46.9583    -823.614E-03
           24172         35.6167         39.4684         20.6130        -5.75797
           24173         41.1215         46.4392         22.8319         4.94575
           24174         38.7060         43.5707         21.3871         4.97311
           24175         89.4339         103.194         48.2200     305.160E-03
           24176         88.8599         102.496         47.1960     456.954E-03
           24177         78.6154         47.6443         90.6866         1.53184
           24178         77.9748         46.6568         89.9409         1.84316
           24179         35.1277         21.5774         38.9362         5.55234
           24180         81.3949         93.9692         46.3074     819.453E-03
           24181         35.8062         40.0191         21.5765         5.11459
           24182         32.6768         36.0439         20.1318        -5.44519
           24183         78.9871         91.1509         47.2652        -1.25754
           24184         79.3198         91.5291         47.9897        -1.08135
           24185         78.9012         91.0292         48.1339        -1.12785
           24186         78.5647         90.6489         47.4149        -1.30753
           24187         58.4545         65.7785         34.8058         7.48662
           24188         59.3126         66.4122         35.6270         8.24999
           24189         58.1253         64.9978         35.0011         8.24115
           24190         54.7410         35.7401         60.6573        -8.32287
           24191         53.5638         35.0588         59.1606        -8.44755
           24192         53.3503         34.6210         59.4056        -7.64405
           24193         61.7106         45.4560         70.0137        -2.74295
           24194         60.8892         46.0904         68.8511        -2.31421
           24195         60.1075         46.8312         67.6985        -1.53499
           24196         102.068         114.305         32.2931     478.662E-03
           24197         91.9801         103.741         32.1780     551.192E-03
           24198         92.3641         104.081         31.9586         1.03295
           24199         60.9293         46.1570         69.0052         1.32500
           24200         61.6172         45.5361         69.9430         2.31290
           24201         60.8940         46.0854         68.7762         2.80630
           24202         60.2121         46.7083         67.8439         1.81732
           24203         84.6030         36.9586         96.2280        -5.42683
           24204         83.3390         37.6881         95.0348        -5.00222
           24205         83.4911         37.5103         95.0886        -5.43798
           24206         84.7900         35.2647         96.5750        -2.86955
           24207         89.9976         101.714         32.9853         2.64076
           24208         89.2030         100.972         33.4681         2.64629
           24209         100.453         112.756         33.0067         1.74988
           24210         100.812         113.129         32.9063         1.25466
           24211         99.8263         111.990         33.0196         3.21719
           24212         76.7278         87.6163         37.9809         5.64903
           24213         74.4711         85.1608         38.9337         5.57896
           24214         56.7142         59.5100         52.0577         4.58277
           24215         56.3770         58.3818         52.9833         4.31899
           24216         68.0871         44.3814         77.9324        -4.14057
           24217         67.5684         77.4345         42.4851         4.25084
           24218         85.9217         48.4049         99.2031     232.129E-03
           24219         75.4108         86.8212         42.9758         3.32458
           24220         74.2350         85.3863         42.2500         3.76513
           24221         85.9503         99.2173         47.5116    -9.51594E-03
           24222         68.9597         43.8157         79.1499        -3.60194
           24223         69.7161         43.7841         80.0207        -3.81243
           24224         85.5484         48.0309         98.7702     103.042E-03
           24225         53.1427         35.8852         59.0951        -7.41203
           24226         51.9692         35.1654         57.5769        -7.61150
           24227         52.7593         58.8331         34.1596         7.41720
           24228         100.988         112.912         32.7115         4.93300
           24229         93.4325         105.097         31.4869    -823.086E-03
           24230         103.035         115.191         31.9516        -1.51789
           24231         103.607         115.751         31.8306        -1.57432
           24232         103.196         115.318         31.9617        -2.26771
           24233         102.600         114.734         32.0866        -2.21183
           24234         92.6597         104.343         31.7784        -1.19811
           24235         92.4530         32.0766         104.184         1.44916
           24236         91.8534         31.8840         103.340         3.47473
           24237         91.9503         33.2111         103.484         5.15859
           24238         92.5497         32.9172         104.154         4.55938
           24239         90.4187         34.0080         101.500         7.49406
           24240         77.6959         48.2526         89.5651        -1.65124
           24241         88.2799         101.791         46.2991    -610.934E-03
           24242         88.6618         102.170         45.5349    -591.101E-03
           24243         39.9218         43.8350         24.1050        -7.01991
           24244         41.3900         44.9263         25.7550        -7.92721
           24245         79.5187         91.7700         47.7427         1.07648
           24246         79.6593         91.9455         47.0256         1.15633
           24247         78.9952         91.1688         46.4912         1.36741
           24248         78.8540         90.9949         47.2083         1.28906
           24249         77.9165         89.8846         47.2117         1.46111
           24250         81.3248         48.4961         93.8759     769.607E-03
           24251         87.1184         100.458         45.9176     856.015E-03
           24252         86.5615         99.7684         44.9677         1.06775
           24253         81.4444         48.2393         94.0145     935.389E-03
           24254         77.8675         47.6324         89.7981        -1.64278
           24255         77.6139         46.6192         89.5109        -1.93994
           24256         80.9255         93.4174         48.1262    -779.183E-03
           24257         80.0040         92.3390         47.8737    -978.221E-03
           24258         81.2178         93.7667         47.4682    -783.750E-03
           24259         36.7745         40.3738         23.2848        -6.33075
           24260         38.4437         41.8313         24.9014        -7.06256
           24261         79.1987         91.1485         42.5138        -3.26815
           24262         83.0717         49.1217         95.9106    -366.117E-03
           24263         51.7960         57.7091         31.1074        -7.74585
           24264         80.2417         92.4824         44.0278         2.52213
           24265         93.3220         107.124         43.4480    -174.594E-03
           24266         84.1139         45.8959         97.0721     557.125E-03
           24267         49.1541         31.8354         54.5099         7.45312
           24268         72.4481         45.5414         83.2324         3.54061
           24269         48.2225         32.8359         52.9169         7.84403
           24270         45.4527         28.8894         50.7243        -6.42362
           24271         48.2996         32.5074         51.9629        -9.40131
           24272         83.9342         46.2090         96.8776    -583.686E-03
           24273         49.2324         54.5420         31.9355        -7.54862
           24274         61.6080         68.5676         37.7213         9.26634
           24275         60.5844         67.2760         37.2311         9.36321
           24276         86.3804         99.3307         41.8190    -133.716E-03
           24277         86.4412         99.4620         42.4817    -91.1234E-03
           24278         86.3372         43.3708         99.4204     455.131E-03
           24279         86.4189         42.5755         99.4406     533.009E-03
           24280         81.4609         38.2424         92.4793        -7.24806
           24281         82.1009         37.8719         92.9731        -7.81753
           24282         83.6016         37.1575         94.6162        -7.57265
           24283         58.7326         60.2065         56.6482         2.95880
           24284         58.5800         58.9467         57.8906         2.45239
           24285         80.1002         91.3075         36.6908         5.25706
           24286         81.2805         92.6290         36.3074         4.87443
           24287         80.1641         91.4907         36.7929         4.76880
           24288         91.2793         103.108         35.7883         6.05326
           24289         91.9973         103.972         35.6064         5.40403
           24290         90.7870         102.729         36.0154         5.52914
           24291         63.9662         48.6001         71.6677        -5.04986
           24292         66.7019         42.3019         76.5357        -3.63292
           24293         65.6277         42.8587         75.1666        -3.72595
           24294         64.9911         43.3328         74.5070        -2.79433
           24295         56.3802         58.9255         52.7216         3.34612
           24296         95.4902         107.147         34.3123        -6.75863
           24297         84.6191         95.7034         34.5975        -6.20109
           24298         104.020         116.154         31.8419        -2.08315
           24299         104.221         116.381         31.7397        -1.15600
           24300         85.8914         99.1242         46.7111    -12.6825E-03
           24301         86.0612         99.3006         46.3236     367.016E-06
           24302         67.7128         42.4886         77.5049        -4.68355
           24303         67.1988         41.9922         76.7759        -5.22144
           24304         85.8740         47.4328         99.1269     263.637E-03
           24305         86.0796         47.0417         99.3483     259.523E-03
           24306         73.4893         84.4771         41.8897         4.01096
           24307         74.2200         85.3097         41.9629         4.07515
           24308         73.4803         84.4046         41.6055         4.31625
           24309         67.8351         77.6942         42.3603         4.54475
           24310         66.9210         76.5081         41.7617         5.03307
           24311         68.1891         44.2294         77.9962        -4.46580
           24312         67.4603         43.7792         77.0679        -4.78840
           24313         68.3357         43.0591         78.3310        -4.19529
           24314         68.9476         43.1309         79.0384        -4.29811
           24315         68.3289         42.5618         78.2151        -4.78534
           24316         67.9322         77.8676         42.0808         4.37236
           24317         63.2412         71.8549         44.7638         4.04233
           24318         64.0761         73.1125         44.2823         3.51084
           24319         72.0415         82.4329         43.2433         5.46161
           24320         60.8233         51.9917         66.3415        -3.84478
           24321         60.8838         51.7152         66.7848        -2.94142
           24322         60.1215         52.8257         65.2126        -2.32828
           24323         61.2953         51.6074         66.6718        -5.45986
           24324         62.6945         49.7222         69.8571        -4.15293
           24325         61.4803         50.8449         68.1369        -2.33842
           24326         60.8269         51.6434         66.8989        -2.02420
           24327         61.5443         50.9090         68.0246        -3.25071
           24328         51.4399         57.5184         33.1132        -6.97212
           24329         52.4531         58.9807         33.6795        -6.44816
           24330         51.7182         58.4744         32.9661        -5.66938
           24331         72.3034         44.9668         83.1530        -3.18709
           24332         71.8253         44.9248         82.5836        -3.19564
           24333         85.0784         98.2244         47.6031    -99.6641E-03
           24334         51.1863         33.7494         57.8959         5.26095
           24335         51.9733         34.2196         59.0704         4.55694
           24336         85.2791         50.3433         98.4635    -18.6804E-03
           24337         85.0820         49.2210         98.2441    -3.22221E-03
           24338         85.3286         49.5952         98.5282    -34.1975E-03
           24339         85.5636         50.7619         98.7877    -45.3850E-03
           24340         70.6511         81.1928         43.9279         3.47750
           24341         51.3432         33.0557         57.4078         6.96274
           24342         52.3544         33.6363         58.8491         6.47631
           24343         51.6554         32.9493         58.3889         5.69307
           24344         52.8051         33.7316         59.9820         5.03337
           24345         85.0343         48.4797         98.1844     326.962E-03
           24346         55.9077         63.7590         32.6552        -5.03845
           24347         56.8381         65.0447         33.2299        -4.35715
           24348         94.0641         108.369         47.8503     128.926E-03
           24349         94.2891         108.672         48.5695     122.781E-03
           24350         70.9709         45.7349         81.4576        -3.43031
           24351         70.9831         40.1521         81.4916        -4.38117
           24352         71.7292         39.6148         82.1403        -5.24991
           24353         54.3979         60.3972         35.4374         8.07921
           24354         55.8081         61.7306         36.5750         8.64000
           24355         86.2829         44.0676         99.4148     388.146E-03
           24356         86.1746         44.9161         99.3518     326.581E-03
           24357         55.9791         36.7646         61.7915        -8.86142
           24358         54.8787         36.1616         60.3662        -8.99767
           24359         84.7807         97.8478         46.2676     143.255E-03
           24360         84.7764         97.8707         47.2117     138.569E-03
           24361         53.0336         58.6382         34.6519         8.27244
           24362         85.5763         46.6461         98.7640     163.707E-03
           24363         84.7406         46.2158         97.8008     51.1891E-03
           24364         85.1082         45.8967         98.2043     134.006E-03
           24365         84.5701         45.3521         97.5724     86.0430E-03
           24366         51.8060         34.4940         56.3904        -9.29646
           24367         52.7127         35.0136         57.5387        -9.24853
           24368         50.7222         34.3594         56.0752        -7.62567
           24369         52.2048         35.7471         57.3496        -8.33854
           24370         50.9704         34.9478         55.8501        -8.35151
           24371         53.6438         36.6699         59.0804        -8.34575
           24372         54.7489         61.4992         32.5697         7.24595
           24373         83.2299         94.9060         38.6742         5.62076
           24374         82.1296         93.5039         38.9928         6.52770
           24375         78.5858         89.6425         37.2472         5.52329
           24376         73.5189         83.9448         39.2561         6.12665
           24377         55.8848         54.2160         57.4159     73.3263E-03
           24378         55.8339         55.0606         56.5642    -485.753E-03
           24379         59.6168         64.3061         53.2596        -1.55205
           24380         56.1233         58.0200         53.6396         2.48102
           24381         56.1104         57.4732         53.9389         3.45647
           24382         21.6116         20.4322         19.1097        -4.99527
           24383         21.4630         20.5811         18.6681         4.92580
           24384         57.5223         49.8267         62.8841         1.29283
           24385         57.0540         50.5633         61.6667         2.14503
           24386         70.2320         80.7465         44.7719        -2.78001
           24387         71.1673         81.8503         44.9427        -2.83139
           24388         70.8595         81.4594         44.2579        -3.26049
           24389         71.5432         82.2757         44.4254        -3.19598
           24390         71.1886         45.1751         81.8397         2.96639
           24391         70.8700         44.4559         81.4307         3.43281
           24392         71.5642         44.6456         82.2591         3.37405
           24393         70.6302         46.2012         81.0710         3.00772
           24394         71.3274         46.1959         81.9011         3.12176
           24395         77.4572         88.8300         40.9093        -4.80425
           24396         78.3287         89.6423         40.5231        -5.48012
           24397         76.6398         87.8297         41.2138        -5.19019
           24398         71.3900         81.9125         40.4127        -4.61847
           24399         72.6842         83.1776         39.7256        -5.49651
           24400         88.3462         34.9427         99.8536         5.84457
           24401         82.8948         37.7325         94.3704         5.85541
           24402         84.2110         37.1293         95.8064         5.51564
           24403         83.9291         35.2845         95.5646         3.57965
           24404         57.6456         62.9522         50.0129        -1.54555
           24405         57.8189         63.1642         49.7668        -2.58561
           24406         59.1425         65.3522         48.1818        -4.25169
           24407         59.6622         65.9153         47.6169        -5.35631
           24408         81.9354         94.4911         43.2824    -650.694E-03
           24409         81.8930         94.4737         43.9168    -704.356E-03
           24410         82.4652         95.1360         44.1935    -569.802E-03
           24411         82.4691         95.1055         43.4937    -539.237E-03
           24412         82.9835         95.7006         43.7582    -431.392E-03
           24413         75.6456         44.0226         87.1446        -2.96731
           24414         73.2731         43.9229         84.2744        -3.61151
           24415         82.3879         44.7226         95.0595    -941.639E-03
           24416         82.0349         45.6964         94.6853        -1.00384
           24417         81.4290         45.7109         93.9866        -1.14394
           24418         81.5976         46.5786         94.1952        -1.05594
           24419         41.9615         28.6969         44.3249        -9.02862
           24420         41.6449         28.0023         44.4970        -8.48925
           24421         42.5767         44.6075         29.5036        -9.46161
           24422         46.6781         48.8061         32.6378        -10.4005
           24423         47.0679         49.8824         32.3238        -9.91111
           24424         34.9532         35.7178         25.1531        -8.40043
           24425         33.1022         34.0766         23.6306        -7.77571
           24426         48.3176         51.6840         31.3659         10.0108
           24427         49.2460         53.1148         31.4671         9.74986
           24428         49.3478         52.3693         32.5933         10.6024
           24429         45.0837         47.9871         29.4038         9.59513
           24430         46.4997         49.3579         30.5641         10.0072
           24431         46.1968         48.3862         31.1318         10.4893
           24432         91.2949         104.823         42.7203     52.9335E-03
           24433         89.8550         103.415         44.4585     386.142E-03
           24434         89.8198         103.257         43.2210     371.672E-03
           24435         89.3284         102.770         43.7924     481.223E-03
           24436         44.1591         30.7279         46.1859         9.86384
           24437         42.7799         29.5420         44.9191         9.42816
           24438         45.3861         31.7489         47.3376         10.2302
           24439         45.5941         31.2723         48.2409         9.70022
           24440         81.7739         44.4671         94.3472         1.09501
           24441         33.2816         26.5551         31.6876         8.94160
           24442         33.0561         25.6413         32.1830         8.65451
           24443         33.4414         23.6031         34.6432         7.71911
           24444         35.3287         25.2378         36.2644         8.39241
           24445         82.2251         94.6820         42.8166         2.37956
           24446         83.5326         96.2112         43.2432         1.96814
           24447         82.8656         95.4091         42.7159         2.20956
           24448         77.3613         45.6801         89.2137         2.18382
           24449         76.7666         44.7500         88.4983         2.50929
           24450         77.4625         45.1325         89.3304         2.25690
           24451         45.6241         32.5136         48.3035         9.34023
           24452         46.4907         33.3835         48.9831         9.70929
           24453         46.8832         33.1876         49.9480         9.29996
           24454         44.5434         46.3862         31.2197         10.0983
           24455         44.2443         46.5856         30.5174         9.62122
           24456         40.6947         43.3576         27.4345         8.42662
           24457         41.3151         43.2997         28.6032         9.17307
           24458         39.5283         41.2143         27.5085         8.96099
           24459         32.4451         27.9707         29.4988         8.66493
           24460         30.5335         26.1401         28.1968         7.97918
           24461         34.8654         27.7398         33.8779         8.90978
           24462         35.1375         27.1074         34.9919         8.63976
           24463         33.3293         25.2473         33.7104         7.91875
           24464         47.3217         50.8239         30.4152        -9.60921
           24465         45.0673         48.4264         28.8397        -9.14363
           24466         41.6370         30.4364         43.1074        -9.32827
           24467         40.9400         29.1023         43.1911        -8.57579
           24468         81.8156         45.9512         94.4531     611.655E-03
           24469         83.4429         46.4042         96.3290     223.164E-03
           24470         81.3845         93.9436         45.4790     848.346E-03
           24471         81.4389         93.9844         44.6749     841.547E-03
           24472         73.7337         45.0278         84.8173         3.38232
           24473         76.5899         46.1466         88.2907         2.27906
           24474         76.6333         45.7030         88.3518         2.29439
           24475         77.2622         46.4825         89.0938         2.03519
           24476         75.1566         86.5995         43.6096         2.81707
           24477         76.0399         87.6634         44.1426         2.47145
           24478         32.8023         33.0451         24.1917        -8.12796
           24479         31.0608         30.9550         23.5271        -7.77434
           24480         34.9076         36.7231         23.3935        -7.78419
           24481         35.8782         36.6821         25.4279        -8.71467
           24482         36.5511         37.9944         25.0591        -8.49621
           24483         82.1531         45.3102         94.8267    -462.268E-03
           24484         90.9894         104.509         42.9008    -117.244E-03
           24485         91.7734         105.386         43.0641     2.57264E-03
           24486         92.1738         105.761         42.5381     87.5132E-03
           24487         92.4578         106.140         43.1131     99.2598E-03
           24488         74.9301         44.9395         86.3000        -2.91855
           24489         75.5364         44.8735         87.0433        -2.67871
           24490         74.3391         44.9684         85.5687        -3.16377
           24491         73.7502         44.9903         84.8399        -3.37262
           24492         82.4705         94.9475         42.5893        -2.32704
           24493         84.6865         97.5115         43.0888        -1.66553
           24494         85.4906         98.4644         43.6436        -1.41311
           24495         84.9846         97.9262         44.1274        -1.51056
           24496         55.9033         57.0164         54.6062        -1.40472
           24497         56.0715         58.0847         53.6195        -1.78953
           24498         56.0882         58.3601         53.4875    -449.494E-03
           24499         55.9080         57.2947         54.4038    -315.927E-03
           24500         55.9477         57.4959         54.2010     991.964E-03
           24501         56.1297         58.5614         53.2861     856.649E-03
           24502         91.3850         102.813         32.1273        -4.15265
           24503         92.0605         103.429         31.8988        -4.44730
           24504         92.7668         32.5536         104.600        -1.80837
           24505         92.2799         32.8506         104.119        -2.30615
           24506         93.1008         32.3616         104.918         1.62760
           24507         92.6928         32.4541         104.539         1.01030
           24508         57.4880         49.8720         62.8132        -1.26221
           24509         57.1091         50.4660         61.8314        -1.99074
           24510         57.4430         49.9251         62.4336        -2.95668
           24511         29.3573         27.0769         24.7978        -7.85722
           24512         29.3070         28.0988         23.8583         7.53943
           24513         28.9416         26.9399         24.5787         7.52535
           24514         27.1298         25.3592         23.2055         6.90198
           24515         28.6477         24.3545         26.8562         7.31123
           24516         29.1022         25.9217         26.0077        -7.58880
           24517         28.2363         25.7879         24.6539        -7.30820
           24518         26.2542         23.7857         23.4541        -6.61570
           24519         29.3040         29.4148         22.1561        -7.17208
           24520         67.8742         41.2248         77.3772         6.05673
           24521         75.8484         41.0598         86.4360         6.95064
           24522         75.4704         41.2126         85.7629         7.67117
           24523         68.1151         45.4955         77.3119         6.05636
           24524         69.4492         44.6535         79.0418         6.08665
           24525         28.2003         19.2672         29.8938        -5.95433
           24526         26.8044         18.2445         28.5058        -5.57089
           24527         30.6240         32.8696         19.7323         6.23564
           24528         32.1210         34.3808         20.7470         6.64775
           24529         65.9729         74.9035         46.6748        -4.45189
           24530         59.5480         47.3229         66.6828         2.27561
           24531         60.2314         46.5703         67.6210         3.44233
           24532         84.1241         37.1081         95.6199        -5.91506
           24533         82.5434         37.9483         94.0642        -5.62286
           24534         99.2946         111.665         33.5811         2.04376
           24535         73.0428         83.7195         40.9905         5.09183
           24536         72.2697         82.7630         40.7200         5.32840
           24537         72.9769         83.6967         41.0965         4.87236
           24538         86.4709         45.3741         99.7122     281.075E-03
           24539         86.2919         45.8530         99.5372     275.318E-03
           24540         86.2401         44.9697         99.4289     297.684E-03
           24541         66.5329         43.1777         75.6762        -5.85794
           24542         66.1008         43.0561         74.9862        -6.35539
           24543         86.2518         99.4178         44.5649     30.9046E-03
           24544         86.2734         99.5013         45.5409     19.5808E-03
           24545         67.9812         77.8141         42.1596         4.81619
           24546         68.8378         78.9086         42.6774         4.40919
           24547         66.0525         75.1277         41.0889         6.25516
           24548         66.6319         75.8495         41.2769         6.15665
           24549         65.9952         74.9482         41.1148         6.56218
           24550         56.1092         37.2042         61.5398        -9.42476
           24551         60.8843         67.9131         39.5672         8.49069
           24552         59.8201         66.2299         39.4775         9.09514
           24553         59.7264         65.8809         39.8459         9.38686
           24554         55.8336         61.3208         36.9796         9.26070
           24555         60.2034         66.5134         37.5106         9.80363
           24556         59.0366         65.0563         36.8656         9.87019
           24557         59.4084         65.8161         36.5804         9.43501
           24558         59.2594         66.0983         35.8884         8.69615
           24559         66.9206         75.6645         39.3732         7.79233
           24560         65.9652         74.4136         39.0717         8.06008
           24561         65.6325         73.8415         39.3046         8.41664
           24562         64.6389         72.5225         38.9759         8.68285
           24563         56.6465         39.9267         61.4917        -9.80833
           24564         86.9605         42.5584         100.039     437.366E-03
           24565         87.1091         41.5359         100.098     502.926E-03
           24566         87.0587         41.4681         100.035     549.079E-03
           24567         86.0665         43.5166         99.1314     436.406E-03
           24568         86.0264         44.2127         99.1392     362.492E-03
           24569         79.3460         39.3232         90.3397        -6.84724
           24570         78.8761         90.0744         37.2431         5.02147
           24571         79.8097         90.8743         36.6946         5.76032
           24572         84.6747         96.1628         34.9840         4.57575
           24573         85.7233         97.2951         34.6343         4.17796
           24574         83.9673         95.5487         35.4278         4.11959
           24575         82.9682         94.4867         35.7798         4.33954
           24576         89.4264         101.151         36.4008         6.38860
           24577         87.9827         99.7600         36.9414         6.04165
           24578         94.7837         106.787         34.6557         5.17413
           24579         58.4010         58.9224         57.8597     322.567E-03
           24580         58.3918         57.8743         58.8956     69.9006E-03
           24581         58.4746         58.9922         57.8384         1.40619
           24582         58.4700         57.8762         58.9917         1.04543
           24583         60.0214         67.2479         47.2754         2.85732
           24584         61.5254         69.5563         46.0061         3.20157
           24585         60.7237         68.5004         46.6999         2.09326
           24586         59.3635         66.2872         47.9436         1.77863
           24587         58.7769         65.1470         48.5427         2.35357
           24588         66.6730         75.9271         46.2021         4.23142
           24589         68.3015         78.0207         45.2012         4.52191
           24590         59.4641         54.1185         63.4482        -2.25191
           24591         59.6202         53.5906         64.1048        -1.69364
           24592         59.2460         54.2977         63.1530    -933.132E-03
           24593         59.0911         54.8293         62.4919        -1.48970
           24594         75.7844         86.6150         38.3913        -5.55253
           24595         73.6939         84.4125         39.3453        -5.11536
           24596         74.8126         85.7265         38.9279        -4.81888
           24597         86.5590         97.8547         37.2490        -7.62475
           24598         88.1156         99.4232         36.6789        -7.76272
           24599         62.8270         49.4652         70.3642         3.15594
           24600         61.3459         51.0443         67.7999         2.69371
           24601         62.1000         50.1232         69.3143         2.14933
           24602         87.9498         99.7182         34.0313         2.99196
           24603         98.3768         110.554         33.5456         3.61022
           24604         66.6879         76.4929         42.7724         3.57859
           24605         65.6362         75.3283         43.4106         2.53778
           24606         64.8309         74.2220         43.8211         2.96344
           24607         64.0837         73.3421         44.3233         2.14945
           24608         72.5161         83.2420         43.0289         4.46001
           24609         70.6760         81.2174         43.9487         3.49993
           24610         70.1841         80.4108         44.1704         4.49690
           24611         62.5599         49.4372         70.3122    -804.108E-03
           24612         63.4239         48.6707         71.6878        -1.11218
           24613         63.3542         48.6048         71.6495    -244.997E-03
           24614         50.6261         56.3632         32.7104        -7.30047
           24615         50.0746         55.2559         32.6568        -8.00560
           24616         51.2010         56.6578         33.3510        -7.93195
           24617         51.9956         57.8159         33.7340        -7.59911
           24618         70.8415         44.1432         81.3749        -3.65932
           24619         85.0368         98.1466         46.4909    -103.898E-03
           24620         85.3572         98.5043         46.3341    -64.8408E-03
           24621         50.4381         34.1524         55.7370         7.62799
           24622         50.9385         34.2408         56.6808         7.08004
           24623         51.5494         34.4111         57.7148         6.53837
           24624         52.4997         35.3107         58.5158         7.10655
           24625         85.2685         48.6713         98.4575    -47.5774E-03
           24626         85.4877         48.5315         98.7080    -80.1547E-03
           24627         85.5455         49.4659         98.7793    -65.9829E-03
           24628         70.5315         81.0028         43.4170         3.87730
           24629         69.5943         79.8544         43.0148         4.13466
           24630         50.5271         32.6289         56.2750         7.24947
           24631         49.9575         32.5264         55.1858         7.90167
           24632         51.0512         33.2262         56.5137         7.87797
           24633         51.8509         33.6359         57.6499         7.58823
           24634         85.2403         47.0213         98.3925     348.527E-03
           24635         78.6232         90.5636         43.4253         2.99069
           24636         76.3629         87.9529         43.3178         3.11303
           24637         55.4277         62.5343         32.8015        -6.75690
           24638         56.1350         63.5978         33.0428        -6.22046
           24639         56.3757         63.4518         33.5094        -7.19830
           24640         57.0757         64.5210         33.7477        -6.66353
           24641         93.6302         107.650         45.1546     151.031E-03
           24642         93.4527         107.390         44.5378     153.306E-03
           24643         93.8795         107.867         44.6184     183.308E-03
           24644         94.0998         108.279         46.3053     154.666E-03
           24645         93.8613         107.968         45.7919     155.533E-03
           24646         94.1116         108.157         44.9458     184.045E-03
           24647         94.3459         108.468         45.4591     182.489E-03
           24648         70.8292         45.2553         81.2480        -3.84711
           24649         69.8987         44.8108         80.0961        -4.14755
           24650         67.8683         45.6951         75.9235        -8.62184
           24651         68.6053         40.7519         78.1143        -6.51758
           24652         103.764         115.924         31.7517    -643.339E-03
           24653         103.125         115.298         31.9185    -930.578E-03
           24654         91.9697         103.684         32.1249        -1.51426
           24655         91.7432         103.504         32.2850        -1.01081
           24656         70.0942         80.8035         41.2517        -2.27803
           24657         71.5684         82.4815         40.5971        -2.53053
           24658         79.0179         90.4970         40.2846        -5.06362
           24659         80.0020         91.4319         39.8616        -5.66278
           24660         76.1431         87.4034         38.6055         3.75422
           24661         57.2849         62.0290         50.6102         1.98956
           24662         23.7360         22.3588         20.6717        -5.72586
           24663         23.4004         22.1777         20.2827         5.60250
           24664         20.2292         17.9839         19.0509         4.67158
           24665         63.8799         70.2790         43.8342        -10.0114
           24666         56.3447         52.3642         59.2842         2.73677
           24667         56.7283         51.3092         60.6127         2.68083
           24668         85.5572         50.0378         98.7893    -208.494E-03
           24669         94.3933         108.722         47.6756    -137.525E-03
           24670         69.8899         46.1220         80.1951         2.87854
           24671         76.5167         88.1972         44.0768        -2.62965
           24672         74.7088         85.4610         41.9830        -5.86377
           24673         75.7401         86.7414         41.5825        -5.48700
           24674         79.3519         39.3071         90.3042         6.98636
           24675         86.4704         36.0392         98.1560         5.20197
           24676         85.1836         36.7046         96.8593         5.24358
           24677         85.7220         36.5044         97.4821         4.88053
           24678         87.9307         33.9204         99.7151         2.61353
           24679         86.2493         34.6974         98.0571         2.71711
           24680         60.9354         67.7640         46.3974        -6.12438
           24681         61.6558         69.0790         45.8431        -5.61964
           24682         59.3417         66.0768         47.9643        -2.83123
           24683         58.7036         64.8263         48.6389        -3.21416
           24684         80.9596         93.4630         46.1335    -932.612E-03
           24685         39.5591         42.0290         26.7532        -8.30991
           24686         41.1132         43.3645         28.1779        -8.90212
           24687         81.6976         47.6618         94.3156     942.159E-03
           24688         81.2481         46.9884         93.7914         1.09957
           24689         39.7230         26.8054         42.2586         8.29382
           24690         41.3144         28.2461         43.6420         8.89065
           24691         85.9988         99.0799         44.2010         1.24772
           24692         85.4255         98.3778         43.4810         1.44806
           24693         84.7818         97.6682         43.7289         1.59028
           24694         84.1528         96.8534         42.4025         1.82216
           24695         83.5294         96.1594         42.5890         2.00442
           24696         84.1880         96.9463         43.0978         1.80564
           24697         84.8118         97.6402         42.9109         1.62283
           24698         40.2049         28.9407         42.0517         8.70881
           24699         41.5439         30.4682         42.8777         9.40745
           24700         42.1860         30.3955         44.1489         9.10253
           24701         42.7461         45.9400         27.2782        -8.67570
           24702         44.0345         46.8479         28.7060        -9.40030
           24703         80.6492         47.3475         93.1004     981.403E-03
           24704         76.9637         88.7679         44.7044         2.12179
           24705         89.1040         102.618         44.9212    -521.985E-03
           24706         89.5396         103.055         44.3555    -448.329E-03
           24707         77.4896         47.1754         89.3507        -1.89048
           24708         55.8222         56.3497         55.2781    -150.421E-03
           24709         29.7657         25.9757         27.0562        -7.78937
           24710         32.5732         24.1874         32.7433        -8.07954
           24711         30.9102         23.4319         30.7668        -7.76133
           24712         32.6307         33.2178         23.7558         7.87650
           24713         30.6170         32.1975         21.1383         6.69571
           24714         34.4153         34.8953         25.0929         8.42020
           24715         34.5696         34.2984         26.0200         8.83335
           24716         28.6354         30.4788         19.3397         5.95704
           24717         36.8353         38.8089         24.5127         8.18831
           24718         35.3424         37.5855         23.1009         7.55034
           24719         29.3512         31.8190         18.3722         5.65951
           24720         32.9138         24.2847         33.8979        -7.47673
           24721         33.2393         25.4724         33.3591        -8.01896
           24722         30.9936         22.5749         32.2414        -6.81450
           24723         34.9980         26.9158         34.9343        -8.56887
           24724         28.9568         20.6493         30.5261        -6.07188
           24725         87.0416         35.7526         99.2090    -918.953E-03
           24726         87.7912         35.1830         99.9083    -977.127E-03
           24727         86.4881         36.9045         98.6534        -2.97301
           24728         87.2189         36.3062         99.3158        -3.22272
           24729         68.2296         77.0522         45.1301        -7.27743
           24730         68.8967         77.4888         44.6265        -8.34232
           24731         67.1770         75.5162         45.7618        -7.56458
           24732         91.6476         103.455         32.4407     140.135E-03
           24733         91.1147         102.967         32.7853     444.458E-03
           24734         101.627         113.913         32.5493     216.338E-03
           24735         101.220         113.534         32.7463     622.488E-03
           24736         77.7899         37.3805         88.9998        -4.46676
           24737         77.1268         37.8428         88.4278        -3.80101
           24738         79.7925         36.4158         90.9991        -4.95652
           24739         79.2778         36.8014         90.5806        -4.44533
           24740         78.4939         39.8209         89.6287        -6.09288
           24741         77.2148         40.4259         88.1452        -6.36799
           24742         58.6002         60.1679         56.7309         1.71189
           24743         58.8449         61.4992         55.5173         2.05465
           24744         57.7518         63.1879         49.8317         1.64579
           24745         77.7770         40.1127         88.6784         6.67093
           24746         76.1802         40.9508         87.0191         6.26168
           24747         77.5946         37.4494         88.7907         4.46597
           24748         78.4738         37.1941         89.7824         4.21234
           24749         76.5765         37.8347         87.6897         4.49920
           24750         86.3308         99.1926         41.0218    -188.901E-03
           24751         86.0290         98.9098         41.4831    -156.241E-03
           24752         55.9313         60.9850         37.5552         9.81574
           24753         54.7941         59.3852         37.0439         10.0565
           24754         55.7837         39.0806         60.6203        -9.63996
           24755         56.0362         40.1355         60.2252        -10.3165
           24756         55.1656         39.2952         59.3502        -10.1467
           24757         54.9970         36.6945         60.0195        -9.63033
           24758         56.1725         37.7608         61.1555        -9.97924
           24759         55.0803         37.2498         59.6368        -10.1850
           24760         62.2335         45.2432         70.9722    -68.5923E-03
           24761         63.8256         44.1843         73.1512    -911.444E-03
           24762         63.3924         44.5064         72.5816     112.601E-03
           24763         58.4411         59.6365         57.1632    -273.853E-03
           24764         58.5870         60.7103         56.1791    -647.046E-03
           24765         58.6335         60.2960         56.6172        -1.87608
           24766         56.3078         52.3800         59.3887         1.88610
           24767         56.1549         52.8471         58.9077         1.08593
           24768         56.3385         52.2898         59.6426     648.696E-03
           24769         56.4896         51.8183         60.1274         1.45361
           24770         57.5070         62.7310         50.1865    -691.328E-03
           24771         70.4405         44.0394         80.3862         5.79096
           24772         63.6631         48.7966         71.4738         4.12530
           24773         63.6063         48.7027         71.7308         2.70707
           24774         64.4602         48.0396         72.8430         3.67698
           24775         55.8026         55.4296         56.1663    -189.606E-03
           24776         55.8347         56.4054         55.2150     745.229E-03
           24777         56.4104         59.7020         52.3977     423.216E-03
           24778         56.2734         59.0029         52.8559         1.84904
           24779         56.5524         60.1385         51.9710         1.41492
           24780         91.7692         33.2005         103.626        -2.67586
           24781         91.0463         33.6311         102.919        -3.01803
           24782         92.2189         32.6489         104.097     531.489E-03
           24783         92.2236         32.7866         104.109         1.29353
           24784         91.5327         32.9250         103.441     49.5105E-03
           24785         84.4681         97.4141         44.5061     169.901E-03
           24786         84.3998         97.2751         43.4975     144.716E-03
           24787         71.8500         45.1015         82.4824         3.87312
           24788         72.3479         45.0927         83.0952         3.78817
           24789         72.9508         45.5305         83.8491         3.45536
           24790         49.5722         52.6829         34.0835         10.2607
           24791         48.0913         51.5173         32.5821         9.58621
           24792         49.1555         52.9366         33.0895         9.49929
           24793         84.0725         44.8556         96.9808    -582.101E-03
           24794         84.3670         45.8381         97.3580    -509.310E-03
           24795         71.8538         82.5609         42.8583        -4.01034
           24796         72.9058         83.8709         43.4743        -3.51882
           24797         72.2124         83.0196         43.3207        -3.74853
           24798         83.4429         46.1937         96.3238    -214.134E-03
           24799         83.8203         45.9239         96.7458    -107.479E-03
           24800         83.5980         45.2794         96.4701    -106.809E-03
           24801         83.6388         46.8446         96.5627    -201.268E-03
           24802         78.8469         90.6834         41.9048        -3.53126
           24803         78.3300         90.0937         42.0999        -3.61737
           24804         49.9755         35.1455         53.7135        -9.39842
           24805         49.1209         34.5235         52.7539        -9.29642
           24806         49.1264         34.1186         53.2113        -8.81986
           24807         49.9825         34.7372         54.1755        -8.91624
           24808         72.2395         43.4504         82.9903         4.04857
           24809         72.3537         43.0921         83.1111         4.16716
           24810         52.2942         56.8411         33.0995         9.82515
           24811         53.5727         58.6692         33.4280         9.51711
           24812         54.1681         58.9844         34.3143         10.0259
           24813         52.9133         57.1573         33.9900         10.3331
           24814         50.4910         54.7950         31.9468         9.60515
           24815         93.6884         107.451         42.8643    -240.886E-03
           24816         93.3458         107.009         42.3194    -238.596E-03
           24817         81.3255         36.4616         92.9577        -3.29813
           24818         80.4550         36.6867         92.0034        -3.54827
           24819         81.9636         36.0623         93.5454        -3.66344
           24820         78.3392         37.3942         89.7236        -3.80901
           24821         76.5982         38.2684         87.9781        -3.13334
           24822         63.5410         71.5178         40.5885         7.70366
           24823         86.9347         99.9042         41.4688     102.646E-03
           24824         87.0536         100.065         41.7527     52.3074E-03
           24825         87.1428         100.120         41.3511     29.4915E-03
           24826         61.9587         40.5552         68.9999        -8.78395
           24827         62.5409         40.5013         69.9202        -8.44659
           24828         62.9857         40.7821         70.4977        -8.34945
           24829         62.3984         40.8370         69.5769        -8.68459
           24830         67.7194         76.6406         39.8054         7.71106
           24831         66.6782         75.2504         39.5608         8.06794
           24832         63.6418         42.6080         71.4247        -7.67292
           24833         65.8450         46.9046         75.0447        -2.81405
           24834         67.0054         46.1177         76.6043        -3.02629
           24835         66.5979         46.3166         76.2124        -1.96858
           24836         65.4577         47.1027         74.6538        -1.75645
           24837         66.0770         42.9663         76.0694    -801.756E-03
           24838         67.8245         42.0279         78.1641        -1.75745
           24839         67.2770         42.3837         77.5551    -834.581E-03
           24840         85.4515         96.9383         37.7523        -6.81476
           24841         84.1121         95.6155         38.2646        -6.50727
           24842         84.4391         96.0944         38.2054        -5.98603
           24843         85.7788         97.4185         37.6922        -6.29426
           24844         55.8434         54.6619         56.9512    -250.773E-03
           24845         55.9754         53.6875         58.0045    -403.959E-03
           24846         55.9863         53.6992         58.0107     500.252E-03
           24847         81.9630         38.4873         93.7122        -4.52448
           24848         82.1926         38.2330         93.8382        -5.03172
           24849         61.0871         46.0970         69.2400         1.19427
           24850         60.1529         46.8378         67.6475         2.37134
           24851         61.1695         45.9858         69.3864        -1.05309
           24852         60.2124         46.7760         67.9191    -712.754E-03
           24853         61.2177         45.9800         69.4871     16.1614E-03
           24854         58.1301         48.9534         64.2481     74.2231E-03
           24855         58.6318         48.3589         65.2100    -287.663E-03
           24856         58.9087         48.0871         65.7035     369.330E-03
           24857         58.4221         48.6605         64.7744     715.359E-03
           24858         96.5311         108.310         34.0046        -6.16467
           24859         95.1628         106.913         34.4287        -6.35597
           24860         82.9494         93.9664         35.2600        -6.34837
           24861         81.7384         92.7484         35.7819        -6.25225
           24862         81.9484         93.0964         35.8115        -5.77515
           24863         46.5241         32.5817         48.5565         10.4442
           24864         82.0374         43.8638         94.6233         1.01099
           24865         81.2881         43.2961         93.7422         1.19157
           24866         82.9846         43.9593         95.7038     789.086E-03
           24867         82.1518         94.5592         42.2756         2.43550
           24868         47.7133         50.4003         31.7198         10.4708
           24869         48.6552         51.2472         32.5985         10.7853
           24870         48.3666         50.3943         33.1020         11.1378
           24871         47.4132         49.5356         32.1942         10.8402
           24872         90.3080         103.738         42.6932     232.638E-03
           24873         74.5268         42.8741         85.7795         3.44755
           24874         49.6800         53.4579         31.9475        -9.95930
           24875         44.3762         33.9120         44.4555        -10.8090
           24876         45.2442         35.4919         44.4198        -11.4132
           24877         44.1270         34.9418         42.8881        -11.3352
           24878         44.9079         33.3482         46.0507        -10.3224
           24879         45.5237         34.5490         45.9363        -10.8886
           24880         43.7423         32.7075         44.5677        -10.2475
           24881         35.0186         35.1471         25.7476        -8.81278
           24882         90.5809         103.989         42.2707    -158.778E-03
           24883         90.8755         104.189         41.2827     16.7627E-03
           24884         75.6598         44.4403         87.2120        -2.53407
           24885         82.0907         44.6303         94.7343    -387.359E-03
           24886         81.1651         44.1960         93.6655    -552.244E-03
           24887         83.8303         96.5066         42.6505        -1.91337
           24888         45.6503         45.7486         33.8180        -11.4672
           24889         83.0151         95.6499         42.3909    -314.507E-03
           24890         82.9967         95.6719         43.0222    -384.360E-03
           24891         82.5078         95.1138         42.8787    -476.722E-03
           24892         76.0001         43.4130         87.5636        -2.90650
           24893         82.1648         43.9319         94.7715    -983.636E-03
           24894         81.9295         43.2738         94.4714        -1.02075
           24895         81.3668         43.4842         93.8410        -1.17572
           24896         46.5421         32.4239         48.7614        -10.2993
           24897         45.4020         31.6411         47.4817        -10.1332
           24898         44.1309         31.4272         45.3902        -10.4257
           24899         44.6828         32.4315         45.3479        -10.9396
           24900         72.6370         83.5232         42.2894        -3.81958
           24901         73.4831         84.5642         42.4461        -3.48373
           24902         76.0636         87.6844         43.4682        -2.52344
           24903         34.0928         32.7138         26.8696        -9.11329
           24904         45.0854         34.9476         44.6811         11.2020
           24905         44.0677         33.2222         44.6148         10.4877
           24906         47.8404         48.8914         34.6711         11.4218
           24907         47.0054         48.4111         33.6322         10.9987
           24908         48.8917         50.7590         34.7567         11.1072
           24909         45.1895         46.4639         32.2826         10.6615
           24910         43.3278         44.8219         30.6098         10.0553
           24911         34.2340         29.7338         30.6884         9.28394
           24912         36.2354         30.9365         32.9023         9.85325
           24913         81.1333         45.1138         93.6526     723.997E-03
           24914         74.7348         86.0946         43.9040         2.90722
           24915         73.8264         84.9861         43.2729         3.30398
           24916         83.2175         95.8632         42.2175     258.286E-03
           24917         81.5714         94.1098         43.9670     788.837E-03
           24918         74.6727         44.8848         85.9851         3.01942
           24919         73.7983         44.8277         84.9039         3.36845
           24920         90.8996         102.608         35.8670        -6.53361
           24921         92.1507         103.912         35.4547        -6.35351
           24922         80.4531         91.5340         36.4166        -5.81439
           24923         50.2763         55.1443         33.0751        -8.50008
           24924         85.3430         98.4486         45.4407    -59.5708E-03
           24925         85.6268         98.8023         46.1574    -32.6505E-03
           24926         85.0350         98.1011         45.4386    -99.7999E-03
           24927         70.2115         43.6864         80.5840        -3.99163
           24928         70.6281         43.4205         81.0492        -4.21141
           24929         49.6799         33.7633         53.1768        -9.92950
           24930         71.1869         81.7553         42.9932        -4.08899
           24931         49.8001         34.0120         54.6577         8.05789
           24932         69.5820         79.7983         42.7697         4.38115
           24933         84.4860         97.5255         46.6758     189.557E-03
           24934         84.5670         97.5743         45.4804     171.062E-03
           24935         70.6417         45.5299         81.0494         3.57988
           24936         50.1145         32.8930         55.0331         8.38799
           24937         85.5561         46.7789         98.7443     315.316E-03
           24938         93.9057         108.052         46.1638    -148.161E-03
           24939         94.2183         108.322         45.4027    -181.044E-03
           24940         78.8392         90.7674         42.9253         3.19061
           24941         79.2716         91.3159         43.4392         2.89380
           24942         55.1751         61.4270         33.3701         8.31215
           24943         52.2636         57.4988         32.2309        -8.94001
           24944         52.9213         58.7338         32.1222        -8.28299
           24945         93.2625         107.103         43.8274     154.881E-03
           24946         69.7819         44.5341         79.9044        -4.47163
           24947         69.0414         44.4422         79.0179        -4.45358
           24948         70.5448         44.7735         80.8622        -4.23067
           24949         84.0059         46.6904         96.9791    -117.302E-03
           24950         78.1057         89.9950         43.7475        -2.86419
           24951         96.7419         108.939         34.1464         3.88115
           24952         95.9038         108.166         34.5323         3.66577
           24953         95.0099         107.239         34.7969         3.97500
           24954         92.7357         104.773         35.3904         5.09992
           24955         84.8460         96.4937         35.1642         3.84803
           24956         86.5986         99.7262         43.8221         1.13183
           24957         44.6981         49.0851         27.2707         7.82019
           24958         44.0264         47.7189         27.6026         8.49499
           24959         88.2950         101.808         46.2975     607.544E-03
           24960         79.4324         48.1233         91.6449         1.30731
           24961         79.8401         47.6365         92.1359         1.31809
           24962         34.5832         21.9776         37.7897         6.20345
           24963         78.0658         45.7784         90.0492        -2.00466
           24964         78.3677         46.7191         90.4062        -1.75521
           24965         36.6220         23.8978         39.6204        -7.00312
           24966         37.2524         25.2136         39.4942        -7.91651
           24967         79.8967         92.2080         44.7193        -1.26832
           24968         80.4821         92.9022         45.5548        -1.07413
           24969         34.4764         37.6396         21.9504        -6.22531
           24970         78.4055         90.4706         46.7947        -1.44745
           24971         78.0869         90.0989         46.2799        -1.60082
           24972         78.7616         90.8929         46.6771        -1.38310
           24973         79.5394         91.8019         47.2829        -1.14237
           24974         41.8233         44.4157         27.3227        -9.00863
           24975         34.6312         23.2729         37.5474        -6.36986
           24976         35.1173         22.8873         38.6059        -5.84720
           24977         39.6467         29.1821         40.7777         9.08157
           24978         34.4546         37.5970         21.9585         6.24462
           24979         34.9927         38.6521         21.6669         5.73068
           24980         37.3032         40.9289         22.4383        -6.61439
           24981         34.7474         23.7160         37.4001         6.66203
           24982         88.5473         101.945         44.2861    -659.807E-03
           24983         80.0976         49.1291         92.4051        -1.00575
           24984         79.5081         48.4116         91.7284        -1.22154
           24985         87.1691         100.535         46.2676    -814.311E-03
           24986         79.4476         91.7008         45.9423         1.30902
           24987         77.9002         47.4956         89.8356         1.72947
           24988         77.2009         47.0581         89.0070         1.98100
           24989         63.6054         71.1443         38.6137         8.94922
           24990         58.7708         42.0433         63.7830        -9.99584
           24991         59.2145         39.8102         64.9327        -9.83602
           24992         59.0469         40.3233         64.4114        -10.1491
           24993         60.3553         66.6609         40.4034         9.30919
           24994         60.9488         67.5398         40.6003         9.07169
           24995         60.7519         67.1531         40.8398         9.23542
           24996         60.1694         66.2809         40.6427         9.47286
           24997         87.4567         100.262         39.6749    -32.1244E-03
           24998         87.4609         100.228         39.3874    -91.5178E-03
           24999         87.2609         100.121         40.2492    -102.040E-03
           25000         77.3376         89.1293         43.9691        -2.75196
           25001         94.1719         108.415         46.9392    -149.037E-03
           25002         85.2401         49.2405         98.4253    -268.839E-03
           25003         87.1194         98.9567         34.5700         2.78195
           25004         86.4896         98.2653         34.7059         3.17573
           25005         92.8397         106.491         42.5745     171.428E-03
           25006         93.0823         106.832         43.1954     168.149E-03
           25007         83.5385         44.4381         96.3555     686.522E-03
           25008         84.1579         44.9378         97.0817     559.944E-03
           25009         81.3796         93.7386         43.2477         2.53828
           25010         81.6348         94.0126         42.9716         2.52889
           25011         80.3896         92.5542         42.7478         2.90520
           25012         80.8405         93.0594         42.5049         2.82520
           25013         79.7374         91.7360         41.9974         3.23794
           25014         79.2935         91.2354         42.2265         3.31784
           25015         46.6657         32.1944         49.2264         10.0462
           25016         46.9837         31.8984         50.1506         9.56737
           25017         47.9137         32.7781         50.9127         9.96720
           25018         48.3038         32.6346         51.8316         9.54342
           25019         83.4974         45.5671         96.3666     155.911E-03
           25020         84.0082         45.8311         96.9561     60.5280E-03
           25021         48.0159         34.4343         50.7391         9.87435
           25022         47.4011         34.2809         49.7621         10.0217
           25023         72.6563         43.9297         83.5251        -3.73798
           25024         72.5361         43.3032         83.3440        -4.04787
           25025         48.5119         51.7595         33.0904        -9.86799
           25026         88.4944         34.6617         100.563    -928.780E-03
           25027         87.9061         35.7447         99.9425        -3.35284
           25028         72.0187         83.0778         40.5252         1.75392
           25029         72.3653         83.4222         40.3170         2.26150
           25030         73.2314         84.4083         40.0055         2.19298
           25031         72.8715         84.0516         40.2143         1.67990
           25032         81.2798         93.2762         39.5428         3.19973
           25033         82.7720         94.8556         39.0242         3.28601
           25034         58.5827         56.5129         60.4337    -652.665E-03
           25035         58.8437         55.6046         61.5561        -1.20526
           25036         58.9006         55.0623         62.1013    -313.440E-03
           25037         58.6348         55.9692         60.9764     237.001E-03
           25038         35.5019         24.0928         37.5914        -7.58275
           25039         38.0477         26.8594         39.3142        -8.87973
           25040         33.0945         25.6052         32.2674        -8.65347
           25041         36.0472         35.6994         27.0985         9.27407
           25042         34.6823         33.7657         26.7642         9.13104
           25043         34.7719         25.9504         35.4731        -8.12114
           25044         94.5752         108.768         45.9264     173.067E-03
           25045         94.5395         108.870         47.5016     141.319E-03
           25046         94.3305         108.591         46.9308     152.391E-03
           25047         57.9075         65.6704         34.1140        -6.25011
           25048         57.9260         66.0940         33.9552        -5.10821
           25049         56.9780         64.8119         33.4586        -5.62566
           25050         85.7906         49.5360         99.0623    -92.5341E-03
           25051         52.8601         34.1596         59.0017         7.33892
           25052         53.4647         34.2629         60.3473         6.06624
           25053         53.1776         35.5591         59.5921         6.61374
           25054         53.9596         35.9698         60.7798         6.05141
           25055         53.0481         35.1366         60.0127         5.37412
           25056         52.2358         34.7238         58.8205         5.92898
           25057         52.9909         59.1828         34.2209        -7.29490
           25058         75.7279         87.2198         43.2739        -3.11558
           25059         74.1217         85.2976         42.5001        -3.52346
           25060         74.9996         86.2921         42.5138        -3.64234
           25061         69.2093         45.3602         79.3532         3.41233
           25062         94.6574         108.941         46.7984    -156.939E-03
           25063         95.0552         109.359         46.5620    -150.584E-03
           25064         69.0598         79.2905         43.4866        -3.61768
           25065         69.9952         80.4160         43.9299        -3.43639
           25066         85.6556         49.0517         98.9044    -232.950E-03
           25067         85.6601         98.5390         41.8417    -110.271E-03
           25068         85.2538         98.1201         42.1663    -55.7426E-03
           25069         52.7965         55.8936         36.9347         11.0093
           25070         51.2970         54.3747         35.5889         10.6980
           25071         52.4685         56.0721         36.0483         10.4989
           25072         53.6696         57.7686         36.5956         10.2966
           25073         52.6779         37.9168         55.9875        -10.4171
           25074         51.6332         37.0837         54.8537        -10.2637
           25075         53.7900         35.5996         58.9459        -9.12624
           25076         52.7789         36.5908         56.0684        -10.8726
           25077         53.9323         37.4059         57.4596        -10.9119
           25078         53.6315         37.9216         56.4909        -11.3913
           25079         57.8132         63.7152         35.9265         9.67980
           25080         57.9153         63.5546         36.4461         10.0498
           25081         90.4106         102.231         36.0913        -6.05312
           25082         89.4301         101.090         36.3691        -6.64356
           25083         88.9470         100.719         36.5928        -6.16008
           25084         91.6086         103.465         35.6860        -5.93946
           25085         92.8474         104.748         35.2705        -5.74471
           25086         93.3890         105.195         35.0426        -6.15919
           25087         79.6856         90.8163         36.8042        -5.47903
           25088         80.4393         91.6854         36.5760        -5.16256
           25089         81.2068         92.4036         36.1895        -5.49185
           25090         81.8978         93.1956         35.9759        -5.17603
           25091         57.1931         50.4018         62.0882         1.30725
           25092         57.5475         49.8368         62.9726     521.755E-03
           25093         57.8468         49.3702         63.5949         1.18567
           25094         56.6871         51.4286         60.6621         1.67380
           25095         56.5790         51.7810         60.0921         2.61225
           25096         56.3184         52.4582         59.2959         2.19438
           25097         53.1927         34.6904         58.9479         8.08513
           25098         70.1188         80.4507         42.8561         4.30035
           25099         53.3841         59.2157         34.7913        -8.02339
           25100         56.0020         60.6640         38.1089         10.2575
           25101         85.8375         43.5167         98.8768     427.339E-03
           25102         86.1637         42.6572         99.1656     535.462E-03
           25103         85.9330         42.6598         98.9105     528.890E-03
           25104         56.2303         38.3137         60.8053        -10.4290
           25105         55.4952         40.4475         59.0342        -10.7467
           25106         56.2769         41.2231         59.8828        -10.8067
           25107         61.1875         67.7649         38.0465         9.70416
           25108         62.6186         69.8651         38.1949         9.12136
           25109         58.6583         48.3503         65.1489         1.69670
           25110         59.1818         47.7853         66.1925    -457.568E-03
           25111         58.8879         48.0362         65.6673    -917.060E-03
           25112         59.5505         47.3687         66.8074        -1.12778
           25113         57.8955         49.2523         63.7641    -503.579E-03
           25114         90.0850         34.3306         102.066        -2.78028
           25115         90.6191         33.5856         102.617     61.4335E-03
           25116         92.3095         32.8409         104.151         2.27396
           25117         92.7495         32.6123         104.563         2.26968
           25118         83.2272         36.8064         95.2352        -1.58955
           25119         83.2887         37.3248         95.4009        -1.05964
           25120         82.5327         37.3688         94.5760        -1.26477
           25121         82.6335         38.7982         94.7064        -3.06235
           25122         82.6122         38.5479         94.5915        -3.53937
           25123         57.9717         49.2136         63.6516        -2.56459
           25124         67.3823         77.4422         42.4568         3.07947
           25125         68.6315         78.8227         41.7673         3.87181
           25126         75.8256         87.0536         41.5751         4.54492
           25127         77.5143         88.9188         40.8861         4.68257
           25128         62.0401         50.1944         69.1749        -2.34751
           25129         62.3215         50.0142         69.4644        -3.23797
           25130         62.6659         49.5534         70.2514        -2.40940
           25131         100.195         112.365         32.8906        -3.01472
           25132         101.439         113.580         32.4455        -2.70835
           25133         100.796         112.917         32.6573        -3.19433
           25134         90.1810         101.924         32.9529        -2.37922
           25135         89.4508         101.253         33.4332        -2.36281
           25136         90.4472         102.247         32.9715        -1.86469
           25137         91.1892         102.885         32.4384        -2.25938
           25138         91.1440         102.896         32.5398        -1.72930
           25139         75.3175         86.4703         38.8882        -3.91536
           25140         83.4541         95.2471         38.6346        -5.15664
           25141           82.25         94.0411         39.0883        -4.80796
           25142         83.6021         95.5027         38.6195        -4.66741
           25143         84.3801         46.4435         97.3990    -25.3191E-03
           25144         57.5875         63.9787         35.0962         8.88291
           25145         58.5509         64.9397         35.9158         9.19180
           25146         56.3288         62.6196         34.2285         8.63125
           25147         54.4561         60.1003         33.5202         9.02558
           25148         61.5234         68.2798         50.4810        -2.67757
           25149         62.5780         71.0080         45.2334        -3.63985
           25150         61.7155         69.6424         45.8646        -4.05360
           25151         61.1638         69.0352         46.3045        -3.03785
           25152         33.4903         26.5932         31.9816        -8.98276
           25153         32.0271         25.7062         30.4599        -8.56597
           25154         31.5979         24.7113         30.7315        -8.22132
           25155         34.3983         32.5856         27.5013         9.33178
           25156         35.0191         29.1697         32.6670        -9.33127
           25157         42.8787         31.9436         43.7899         9.99061
           25158         41.1205         30.7990         41.7812         9.72045
           25159         80.7489         93.1990         44.9495        -1.02072
           25160         89.0408         102.445         43.7299    -542.839E-03
           25161         90.0207         103.540         43.8357    -339.368E-03
           25162         77.8342         46.0122         89.7884        -1.86642
           25163         77.4594         45.4955         89.3479        -1.99982
           25164         77.2316         46.2091         89.0619        -2.07285
           25165         44.3092         46.2125         30.0425        -10.2224
           25166         43.6384         44.9661         30.2764        -10.4421
           25167         45.4349         47.0481         31.2761        -10.7097
           25168         85.3973         98.2788         42.6393         1.46207
           25169         85.9464         98.8727         42.3622         1.27653
           25170         84.7507         97.5139         42.1892         1.61407
           25171         86.0105         99.0162         43.2093         1.28702
           25172         81.0125         45.9561         93.5080         1.23431
           25173         80.5342         45.9017         92.9508         1.35905
           25174         80.4219         45.2598         92.8099         1.42793
           25175         59.8516         67.1909         47.4369         1.24715
           25176         74.2420         42.0940         85.3354         4.07991
           25177         75.1236         41.5695         86.1098         5.16958
           25178         75.6898         38.5980         86.9945         3.10440
           25179         74.9393         39.0841         86.2720         2.40333
           25180         75.9663         38.7626         87.4145         2.26928
           25181         76.7265         38.2743         88.1434         2.96672
           25182         63.2130         40.9905         70.7708        -8.32853
           25183         63.8623         41.0142         71.7438        -7.99100
           25184         61.9992         40.9299         68.9398        -8.90045
           25185         62.7805         41.0896         70.1010        -8.55007
           25186         62.3739         41.1738         69.4606        -8.76357
           25187         64.2702         72.5100         40.8676         7.44107
           25188         63.7833         71.7509         40.9922         7.76710
           25189         63.0628         70.7596         40.7158         8.02619
           25190         62.6345         70.0541         40.9141         8.32149
           25191         61.9348         69.0681         40.6330         8.58136
           25192         87.5113         100.220         38.9257     150.924E-03
           25193         87.4676         100.249         39.4882     79.3295E-03
           25194         87.3201         100.081         39.4305     185.202E-03
           25195         86.8283         42.3017         99.8700     351.557E-03
           25196         86.8879         41.5596         99.8603     357.389E-03
           25197         87.0457         41.3116         100.006     397.513E-03
           25198         87.1721         41.0445         100.114     457.783E-03
           25199         87.1301         40.6205         100.020     397.746E-03
           25200         68.4901         77.6174         40.2199         7.53989
           25201         69.5773         79.0682         40.3575         7.10624
           25202         68.0290         76.9733         40.4556         7.75451
           25203         63.7706         43.0658         71.4475        -7.83617
           25204         63.0883         42.7650         70.5113        -8.05954
           25205         62.4968         42.9194         69.5273        -8.44181
           25206         88.2693         34.6604         100.315         1.15888
           25207         87.9463         34.5559         99.9349         1.50609
           25208         87.3017         35.0660         99.3459         1.41583
           25209         87.6239         35.1654         99.7232         1.07030
           25210         58.5860         60.9583         55.8730     424.582E-03
           25211         56.1383         52.9335         58.8706    -107.544E-03
           25212         67.2071         46.0762         76.3442         5.25964
           25213         72.3950         82.8445         40.6708         5.56966
           25214         68.8254         78.1126         40.0018         7.29954
           25215         69.9936         79.6444         40.2341         6.86781
           25216         86.8195         42.9838         99.9236     353.834E-03
           25217         77.6218         40.3331         88.8515        -5.39904
           25218         80.8113         38.8865         92.3747        -5.07795
           25219         79.8655         37.0823         91.4659        -3.11715
           25220         80.5232         36.9625         92.2003        -2.87669
           25221         79.4705         37.5249         91.1620        -2.43388
           25222         79.4827         36.9960         90.9550        -3.69480
           25223         101.712         113.957         32.4428        -1.11575
           25224         101.676         113.942         32.4837    -654.801E-03
           25225         102.318         114.521         32.1709        -1.01522
           25226         91.5522         103.359         32.4824    -574.748E-03
           25227         91.1746         103.027         32.7569    -196.985E-03
           25228         90.4501         102.349         33.2424        -1.01824
           25229         90.4493         102.301         33.0919        -1.39661
           25230         89.8770         101.831         33.6801        -1.10334
           25231         64.3544         43.8061         73.7853        -1.86901
           25232         64.4939         43.8591         74.0513     151.101E-03
           25233         64.1648         44.0658         73.5803         1.10129
           25234         92.0902         104.081         35.5860        -5.32844
           25235         47.4888         32.8407         50.0743         10.2260
           25236         73.4664         42.2200         84.4955         3.77226
           25237         73.9853         42.4781         85.1244         3.61473
           25238         80.6714         92.8266         41.9786         2.92259
           25239         81.4251         93.7255         42.3581         2.67147
           25240         37.9237         33.2914         32.7121         10.7833
           25241         48.1643         33.6413         51.8939        -8.96036
           25242         29.4573         27.6413         24.6788        -7.67684
           25243         37.2062         34.3741         30.7503        -10.2332
           25244         36.8877         33.4034         31.2904        -10.1822
           25245         38.5769         35.5045         31.9584        -10.6605
           25246         92.5605         106.107         41.9480     193.708E-03
           25247         93.1859         106.815         42.1650     241.309E-03
           25248         72.0915         44.5806         82.7655        -4.05659
           25249         72.7777         44.6395         83.6333        -3.77431
           25250         74.0151         44.6473         85.1822        -3.26547
           25251         74.3312         85.6049         42.2916        -3.09368
           25252         81.9766         94.5031         42.6684    -588.104E-03
           25253         81.5508         42.5966         94.0058        -1.04666
           25254         47.5327         35.5052         47.4870        -11.9689
           25255         46.2819         34.9102         45.7700        -11.9197
           25256         45.8108         33.9410         45.8732        -11.5365
           25257         37.0955         33.1097         31.4939        -10.4994
           25258         36.0862         31.6734         31.2477        -10.2032
           25259         37.0370         31.8549         32.6354        -10.5123
           25260         45.6292         33.6784         47.0578         10.2987
           25261         46.4558         34.3958         47.8429         10.5155
           25262         46.3194         33.7209         48.3072         10.0625
           25263         46.7896         47.0853         34.5654         11.6189
           25264         37.9625         35.0610         31.3400         10.4641
           25265         36.4430         34.0739         29.7049         9.94723
           25266         83.0027         43.3909         95.7046    -55.1812E-03
           25267         83.0963         44.0612         95.8476     54.4520E-03
           25268         83.0305         95.7918         44.5179     451.796E-03
           25269         74.5019         44.3217         85.8058         2.97425
           25270         75.1334         44.5363         86.5679         2.76635
           25271         74.8141         44.6780         86.1674         2.94351
           25272         66.7344         41.9457         76.1240         5.54531
           25273         66.1216         42.4716         75.6300         4.48958
           25274         38.1775         42.5559         21.8526         5.74271
           25275         78.0308         45.9917         90.0084         1.97439
           25276         78.0917         45.3965         90.0790         2.04327
           25277         78.8266         45.7075         90.9481         1.81741
           25278         78.6412         47.7901         90.7135        -1.50714
           25279         33.8235         22.9061         35.8296        -7.21784
           25280         34.8915         22.5794         37.8180        -6.61551
           25281         77.6509         89.5854         45.8747        -1.76312
           25282         77.8969         89.8710         46.6503        -1.56903
           25283         39.9915         27.6987         42.9141        -7.72748
           25284         39.8019         43.0436         26.1849         7.59120
           25285         34.1646         36.6740         22.5569         6.84773
           25286         78.6292         48.0542         90.6914         1.47414
           25287         68.1981         45.4097         77.7432         5.00795
           25288         71.2975         40.4444         82.1886         2.35836
           25289         59.0119         62.5582         54.6103     984.532E-03
           25290         59.3021         63.6593         53.6768    -145.595E-03
           25291         58.6992         61.2616         55.7060     834.686E-03
           25292         80.9880         36.5900         92.6063         3.30488
           25293         80.6957         36.4596         92.1864         3.88338
           25294         78.2957         40.0115         89.5986         5.36533
           25295         78.3555         40.0903         89.8085         4.73439
           25296         88.6120         33.8413         100.473         2.01112
           25297         88.8451         33.3666         100.559         2.78425
           25298         87.2131         35.6235         98.8856         5.20852
           25299         86.4939         36.1318         98.2863         4.71738
           25300         87.2362         35.7162         99.0155         4.72231
           25301         71.5795         82.4423         40.5477         2.92251
           25302         70.2509         80.9268         41.1359         2.76155
           25303         70.5886         81.1651         40.8760         3.73414
           25304         74.1120         85.4148         39.7226         1.99298
           25305         78.5790         90.2442         40.4941         3.88338
           25306         79.5866         91.4590         40.1355         3.11789
           25307         78.0098         89.7454         40.7291         3.03733
           25308         76.9855         88.4967         41.1221         3.79682
           25309         72.0987         80.3633         42.4871        -10.7891
           25310         70.9001         79.7069         43.3984        -9.11714
           25311         72.2963         81.1875         42.5610        -9.64928
           25312         73.3126         80.7382         41.4072        -12.7105
           25313         58.7669         55.1308         61.7803         1.05517
           25314         83.0189         44.6451         95.7879     165.089E-03
           25315         71.3712         44.4665         81.8571        -4.31656
           25316         73.3993         44.6569         84.4109        -3.53727
           25317         93.5308         107.244         42.5814     237.361E-03
           25318         48.6193         34.5107         51.8226         9.58643
           25319         50.3229         35.8018         53.6907         9.83453
           25320         51.7362         56.3295         32.5862        -9.61465
           25321         84.3534         97.2227         43.4890    -148.896E-03
           25322         84.6501         44.0765         97.5889     478.733E-03
           25323         83.1240         43.1248         95.8130     740.016E-03
           25324         48.6108         33.5620         51.3959         10.3282
           25325         97.4562         109.694         33.9450         3.47278
           25326         97.6617         109.799         33.7458         4.01832
           25327         85.7134         97.4291         34.9024         3.49740
           25328         67.3154         41.3997         76.5099        -6.61198
           25329         31.0054         27.3519         27.2331         8.49398
           25330         28.2882         24.5176         25.6565        -7.52522
           25331         31.0223         25.4640         29.1053        -8.32631
           25332         29.5307         24.8562         27.2856        -7.91503
           25333         30.1340         24.0024         29.0344        -7.87069
           25334         32.1240         31.1188         25.3546         8.36111
           25335         30.3037         29.7963         23.5787         7.68336
           25336         29.9625         27.4466         25.8005        -7.89319
           25337         27.7152         25.9794         23.5292        -7.09116
           25338         30.8182         27.5944         27.1243        -8.18656
           25339         56.3212         59.4285         52.5843    -277.656E-03
           25340         56.9392         61.3203         51.1580     770.071E-03
           25341         55.9348         57.5170         54.1780    -683.663E-03
           25342         55.8117         55.8084         55.7431        -1.15631
           25343         64.4515         71.8510         40.9441         9.25354
           25344         59.8411         44.1545         64.7709        -9.93311
           25345         59.6507         41.0251         65.1478        -10.0599
           25346         87.2343         40.7286         100.144     531.787E-03
           25347         59.6197         65.3944         40.6142         9.73830
           25348         59.6014         65.5330         40.1723         9.60128
           25349         87.3402         100.200         40.1831     28.7313E-03
           25350         87.6329         100.314         38.6531    -124.366E-03
           25351         94.4328         106.725         35.0931         3.69873
           25352         90.3549         102.313         33.4703     326.030E-03
           25353         90.6452         102.550         33.1717     675.468E-03
           25354         90.8234         102.728         33.0861     95.7824E-03
           25355         100.948         113.276         32.8850     938.915E-03
           25356         100.637         113.022         33.1461     698.515E-03
           25357         74.4618         85.6051         42.1704        -3.99932
           25358         73.9846         85.1632         42.3740        -3.37154
           25359         74.8034         86.1229         42.0183        -3.24529
           25360         75.0224         86.0928         41.9105        -4.76415
           25361         66.9017         76.8889         42.7230        -2.80515
           25362         66.4957         76.2330         42.8604        -3.67690
           25363         65.0368         70.2791         42.7568        -12.4821
           25364         86.4050         98.3069         35.1016         2.59296
           25365         86.9576         98.9153         35.0274         2.25127
           25366         96.5630         108.861         34.3743         3.37619
           25367         85.3607         98.4191         44.5509    -40.2539E-03
           25368         70.0504         42.7458         80.2644        -4.77632
           25369         70.1631         42.5975         80.3711        -4.91294
           25370         69.3054         42.2470         79.2674        -5.28859
           25371         69.3064         79.4113         42.3967        -4.70850
           25372         70.2390         80.5721         42.7112        -4.42523
           25373         85.4852         45.9806         98.6322    -342.624E-03
           25374         84.9980         45.9286         98.0781    -406.918E-03
           25375         84.7005         45.1321         97.7048    -471.658E-03
           25376         50.8786         54.9564         34.2491        -9.61983
           25377         51.6874         55.9773         34.7073        -9.59775
           25378         50.8038         55.3335         33.7624        -9.08326
           25379         53.7421         59.1049         35.4010        -8.83110
           25380         54.7768         60.5701         35.8875        -8.51582
           25381         53.7067         36.8051         59.0455         8.49699
           25382         54.0736         37.6442         58.8422         9.30112
           25383         54.6225         37.6230         59.9150         8.80351
           25384         69.4094         79.4726         42.0925         5.00645
           25385         68.9715         78.9413         42.0975         5.04560
           25386         69.6814         79.8690         42.4743         4.64589
           25387         84.3741         45.9439         97.3753    -675.488E-06
           25388         84.7179         45.4798         97.7451    -98.3644E-03
           25389         84.9096         46.0641         97.9866    -95.1439E-03
           25390         85.0568         44.1140         98.0477     421.018E-03
           25391         85.4159         43.9962         98.4422     375.850E-03
           25392         77.2368         88.7951         41.9438         3.91868
           25393         78.4150         90.2346         42.5106         3.43521
           25394         77.9103         89.5936         42.0527         3.75199
           25395         75.9176         87.1955         41.6330         4.37110
           25396         76.6728         88.1370         41.9960         4.01359
           25397         94.8433         108.667         42.5575    -301.983E-03
           25398         94.5952         108.326         42.0383    -327.911E-03
           25399         94.3017         108.102         42.7372    -283.145E-03
           25400         51.3457         34.3847         55.6346         9.51930
           25401         50.5710         33.5078         55.1564         8.95540
           25402         53.4580         35.2789         58.6756         8.95053
           25403         54.5613         35.8230         60.1865         8.70434
           25404         55.6063         60.8714         34.9339        -9.87983
           25405         56.9307         62.6321         35.4913        -9.68833
           25406         56.5809         62.4975         34.8576        -9.29017
           25407         57.7505         64.5300         34.8050        -8.27808
           25408         57.6679         64.6622         34.5210        -7.85048
           25409         56.7227         63.5007         34.0350        -7.91607
           25410         56.7985         63.3520         34.3197        -8.34630
           25411         75.5831         86.7843         41.5132        -4.49581
           25412         76.9463         88.4359         41.8285        -4.05603
           25413         77.4858         89.0578         41.7021        -3.98308
           25414         94.2283         107.953         42.2150     306.377E-03
           25415         95.2345         109.162         43.0872     262.024E-03
           25416         69.4793         44.2166         79.4819        -4.80672
           25417         69.1012         43.9981         78.9638        -5.10294
           25418         68.5354         43.8427         78.2444        -5.26552
           25419         88.7959         35.4652         100.928        -2.57905
           25420         88.1688         35.9802         100.350        -2.55551
           25421         88.1154         35.8231         100.227        -2.94527
           25422         88.6838         35.1772         100.874    -265.097E-03
           25423         88.6667         34.8860         100.797    -588.603E-03
           25424         90.0036         101.907         36.2726        -5.66760
           25425         88.9022         100.808         36.6723        -5.58062
           25426         90.1676         102.183         36.2881        -5.16410
           25427         91.2051         103.145         35.8676        -5.55510
           25428         80.9681         92.3148         36.4474        -4.83161
           25429         79.2166         90.4706         37.1497        -4.87145
           25430         79.7383         91.0936         37.0163        -4.54222
           25431         81.7539         93.1941         36.2084        -4.54338
           25432         101.637         113.919         32.5364    -311.028E-03
           25433         101.282         113.603         32.7439     15.1205E-03
           25434         61.1354         67.8803         50.7198     241.402E-03
           25435         99.5047         112.039         34.0200     932.330E-03
           25436         99.2473         111.758         34.0248         1.28973
           25437         100.449         112.832         33.2072         1.00287
           25438         32.3253         21.6930         34.4173        -6.74295
           25439         35.6110         37.3598         24.5798         7.88499
           25440         87.3230         98.9485         37.1164        -6.56930
           25441         88.4290         100.026         36.6995        -6.79598
           25442         87.9123         99.3565         36.8186        -7.28983
           25443         86.8032         98.2760         37.2398        -7.06142
           25444         33.3908         31.6769         26.9567         8.92113
           25445         34.9364         33.6309         27.4730         9.28608
           25446         32.1041         28.6558         27.7060         8.86620
           25447         38.8126         36.1255         31.3791         10.8059
           25448         36.0738         30.8152         32.7412        -9.80960
           25449         38.5168         32.7577         34.9547        -10.5465
           25450         33.1309         27.1361         30.8841        -9.04685
           25451         38.2786         32.3504         34.2447        -10.8603
           25452         36.7524         36.0876         27.8598         9.62034
           25453         38.5219         36.6266         30.5208         10.4687
           25454         36.4666         34.9360         28.7459         9.78488
           25455         56.9858         50.8451         61.3979         2.17893
           25456         57.1211         50.5783         61.5041         3.30049
           25457         56.8419         51.1254         60.8459         2.92899
           25458         88.4477         101.731         43.1356    -675.876E-03
           25459         42.3704         43.9987         28.9425        -9.91849
           25460         43.1237         45.3829         28.7351        -9.63370
           25461         40.7379         31.2055         40.6352         10.0434
           25462         86.5627         99.6044         42.8457         1.14406
           25463         79.3211         91.5508         46.6973        -1.26691
           25464         90.5089         33.9926         102.406         3.18465
           25465         90.9606         33.7029         102.860         2.85488
           25466         92.5460         32.6456         104.394         1.72420
           25467         92.6358         32.3476         104.472    -208.762E-03
           25468         92.6321         32.4441         104.481    -722.596E-03
           25469         90.4448         33.5232         102.417     410.659E-03
           25470         90.4436         33.2693         102.350     966.664E-03
           25471         99.9064         112.003         32.9416        -3.70036
           25472         89.6169         101.040         32.7966        -4.48028
           25473         90.7805         102.264         32.3820        -3.91987
           25474         71.3637         82.3184         40.7716        -1.86021
           25475         72.6213         83.7404         40.2563        -1.99302
           25476         78.2221         89.7438         40.6112        -4.47539
           25477         79.1744         90.9880         40.2910        -3.28678
           25478         77.9016         89.6906         40.7634        -2.49621
           25479         78.6896         90.5798         40.4767        -2.26306
           25480         79.9522         91.8648         40.0079        -3.04886
           25481         59.6370         64.5658         53.0055    -444.803E-03
           25482         59.9712         67.2374         47.3315        -2.43970
           25483         78.0451         40.0556         89.1643         5.99561
           25484         76.5823         40.8034         87.6405         5.63045
           25485         79.4590         37.1140         90.9835         3.41761
           25486         78.4632         37.6294         89.9964         3.03632
           25487         78.9717         37.6152         90.6035         2.62692
           25488         79.9722         37.0994         91.5984         3.00887
           25489         76.2339         38.1842         87.4599         3.82662
           25490         84.0162         37.8426         96.0240         3.64460
           25491         84.0292         36.3658         96.0283         1.74627
           25492         56.0907         58.3448         53.5126     458.116E-03
           25493         55.8866         55.0267         56.4735        -2.13418
           25494         62.8587         49.2553         70.6991         1.73897
           25495         63.7718         48.3992         72.2075         1.31841
           25496         64.5369         47.8446         73.2424         2.28821
           25497         79.9383         39.4478         91.5921        -4.39681
           25498         78.5937         40.1510         90.2320        -3.91432
           25499         90.7906         102.688         33.0777    -473.186E-03
           25500         96.7900         108.773         33.9478        -5.06108
           25501         96.0501         108.147         34.2804        -4.54702
           25502         75.7640         43.1803         87.2781         2.99269
           25503         75.1675         42.8051         86.5595         3.18953
           25504         75.7174         42.5840         87.2228         2.95561
           25505         76.3174         42.9602         87.9424         2.76478
           25506         81.7957         41.3096         94.1990     800.301E-03
           25507         82.3525         41.7011         94.8507     746.641E-03
           25508         71.6038         42.6975         82.1626         4.52633
           25509         70.1292         42.2169         80.2811         5.16423
           25510         70.8928         42.2859         81.2473         4.90535
           25511         94.0070         107.713         42.2132    -295.825E-03
           25512         93.6757         107.295         41.7865    -314.536E-03
           25513         93.3623         106.901         41.3977    -324.877E-03
           25514         53.3723         57.3600         34.7450         10.7113
           25515         52.3981         55.8875         34.5617         10.9424
           25516         82.6542         95.0673         41.1838         2.08599
           25517         82.5582         94.9418         40.7971         1.90239
           25518         81.9477         94.2558         40.9762         2.19550
           25519         36.3673         29.6383         33.7413         10.0947
           25520         35.0384         28.5584         32.6023         9.66545
           25521         35.3194         29.3910         32.2489         9.85668
           25522         47.3106         48.8025         32.8992         11.2518
           25523         48.7095         50.1719         34.1295         11.5889
           25524         48.5448         49.2858         34.9292         11.9579
           25525         47.1459         47.9081         33.7159         11.6340
           25526         49.4602         51.7548         33.6456         11.2107
           25527         89.7649         103.080         42.1389     308.776E-03
           25528         89.6561         102.850         41.2011     202.100E-03
           25529         89.1807         102.390         41.7045     369.684E-03
           25530         49.9528         51.3514         35.2869        -11.9049
           25531         49.7352         51.7586         34.2437        -11.4661
           25532         48.4397         50.1317         33.5945        -11.3838
           25533         46.5139         34.9719         47.3513        -10.8679
           25534         46.1645         35.6106         46.0116        -11.3208
           25535         48.8641         35.6312         51.1027        -10.4479
           25536         36.6609         36.3197         27.4067        -9.47239
           25537         36.1246         35.0845         27.9193        -9.55877
           25538         37.9640         36.5279         29.6077        -10.1959
           25539         38.4748         37.7596         29.0936        -10.1102
           25540         35.9958         34.1430         28.8066        -9.72419
           25541         90.4834         104.001         43.3487    -242.364E-03
           25542         90.6102         103.739         40.0932     225.417E-03
           25543         90.7421         103.967         40.7033     99.8121E-03
           25544         74.8618         44.1421         86.2628        -2.72733
           25545         83.8533         96.4491         41.5350        -1.80911
           25546         84.7713         97.5110         41.8622        -1.56678
           25547         84.3150         97.0238         42.2298        -1.76407
           25548         77.9507         89.6020         41.6057        -3.86084
           25549         77.0689         88.5276         41.3209        -4.20685
           25550         78.4055         90.1319         41.4508        -3.72121
           25551         83.9618         44.9459         96.8670     8.78942E-03
           25552         84.1980         45.6778         97.1656    -15.2548E-03
           25553         84.3368         44.6199         97.2730     109.686E-03
           25554         83.6568         44.3377         96.4930     15.6626E-03
           25555         80.5722         92.8638         41.7119    -782.965E-03
           25556         81.0986         93.4658         41.8625    -675.772E-03
           25557         80.5497         92.8603         42.1053    -869.227E-03
           25558         80.6294         43.1504         92.9832        -1.35760
           25559         80.8184         43.6266         93.2194        -1.33243
           25560         81.1643         43.0061         93.5877        -1.19621
           25561         84.7337         43.8745         97.6698    -468.721E-03
           25562         84.4231         44.4560         97.3560    -515.369E-03
           25563         50.7283         35.0694         53.7562        -10.6296
           25564         49.6711         34.3364         52.5547        -10.5003
           25565         70.9722         81.4576         42.6298        -4.35639
           25566         70.8644         81.3073         42.3460        -4.49978
           25567         76.1351         87.7657         42.9856        -2.49172
           25568         75.2507         86.7101         42.4089        -2.75602
           25569         76.1473         87.7796         42.5909        -2.43428
           25570         35.6150         33.2704         28.8403        -9.81964
           25571         36.8186         34.9316         29.2083        -10.0426
           25572         44.3511         43.9043         33.3124        -11.4349
           25573         45.4052         44.7949         34.3199        -11.7551
           25574         45.9689         46.8198         33.3121         11.1208
           25575         37.9969         32.7143         34.0537         10.4552
           25576         38.1589         32.0050         35.1469         10.3498
           25577         36.4279         30.2209         33.9949         9.75349
           25578         74.4570         85.7860         41.7195         2.77123
           25579         74.9518         86.3640         41.9409         2.71876
           25580         81.0258         44.4730         93.5143     648.896E-03
           25581         80.8658         43.8708         93.3136     560.535E-03
           25582         81.5999         43.7579         94.1433     339.303E-03
           25583         71.9329         44.7821         82.5712         4.02544
           25584         71.2961         44.6993         81.7718         4.22801
           25585         70.8639         44.4007         81.2138         4.49215
           25586         71.4977         44.4831         82.0138         4.28757
           25587         71.2294         44.2535         81.6763         4.42334
           25588         72.0348         44.3767         82.7011         4.09297
           25589         72.3044         44.6149         83.0364         3.96007
           25590         76.1039         44.9305         87.7314         2.45451
           25591         76.0284         45.1289         87.6338         2.50575
           25592         75.4669         44.9318         86.9574         2.70534
           25593         75.5466         44.7352         87.0613         2.65064
           25594         81.1065         93.5406         43.0739     858.410E-03
           25595         81.2867         93.7116         42.4343     723.867E-03
           25596         80.6024         92.9277         42.2574     891.216E-03
           25597         80.4248         92.7569         42.8966         1.02531
           25598         43.0775         31.3281         44.7934        -9.50551
           25599         42.7649         45.0068         29.4470         9.33474
           25600         76.4877         46.5415         88.1588         2.26004
           25601         75.8998         45.7449         87.4626         2.54623
           25602         58.5046         60.0950         56.7502     630.674E-03
           25603         80.4760         35.9235         91.5550         5.55391
           25604         70.2920         79.3465         43.8668        -8.19521
           25605         59.0564         54.4770         62.7546     389.497E-03
           25606         59.0829         55.1508         62.1125        -2.36370
           25607         56.7533         60.4911         51.4915        -2.89647
           25608         56.4582         59.3981         52.2731        -3.25766
           25609         57.3985         62.4806         50.3756     429.804E-03
           25610         55.9686         57.3184         54.2858         1.97558
           25611         85.6743         97.5227         35.2550         2.86746
           25612         87.4367         99.4476         35.0179         1.96070
           25613         96.8616         109.360         34.7830         2.35121
           25614         97.5994         110.056         34.4030         2.31069
           25615         95.0729         107.394         34.9342         3.49643
           25616         86.0371         99.1540         44.2165     28.1863E-03
           25617         86.0787         99.1419         43.4311     50.3136E-03
           25618         69.3036         42.1427         79.2337        -5.41995
           25619         68.5869         42.0018         78.3317        -5.60408
           25620         52.5789         56.0135         36.3382        -10.6770
           25621         51.5585         54.6133         35.8324        -10.7800
           25622         51.7331         54.2300         36.6118        -11.2614
           25623         52.7300         55.6228         37.1165        -11.1572
           25624         51.6607         55.3855         35.2259        -10.1884
           25625         52.5972         56.5786         35.7759        -10.1581
           25626         52.6390         57.1737         35.2531        -9.57089
           25627         51.2705         36.8493         54.3799         10.2872
           25628         51.9146         36.8511         55.6167         9.89003
           25629         53.4504         37.7279         57.6181         9.78967
           25630         66.9942         43.3343         76.2097         5.91423
           25631         67.6609         43.5286         77.0418         5.81204
           25632         68.2547         43.7519         77.8780         5.37912
           25633         67.5851         43.5569         77.0475         5.48243
           25634         69.6509         44.0490         79.6466         5.02337
           25635         68.9267         43.9012         78.7176         5.25718
           25636         68.3586         43.7205         77.9426         5.59908
           25637         68.8619         78.7318         41.7868         5.38730
           25638         69.3656         79.3816         41.8610         5.18948
           25639         68.7665         78.5968         41.7132         5.47424
           25640         68.2653         77.9433         41.6376         5.67643
           25641         84.8862         44.9166         97.9066    -178.316E-03
           25642         85.4004         44.8182         98.4783    -260.743E-03
           25643         85.1786         45.4503         98.2633    -171.738E-03
           25644         85.6119         44.0830         98.6676    -342.892E-03
           25645         85.8561         44.6462         98.9781    -322.257E-03
           25646         54.1383         36.3103         58.8174         9.81005
           25647         53.3733         35.6594         58.0722         9.58385
           25648         52.9295         35.9176         57.0030         10.1576
           25649         53.7004         36.5715         57.7541         10.3743
           25650         52.2480         34.9698         56.6907         9.58458
           25651         51.1967         34.8186         54.8836         10.1248
           25652         52.0854         35.4158         55.9277         10.1886
           25653         66.2172         41.2435         75.2381         6.48084
           25654         67.3118         41.5931         76.6460         6.17047
           25655         67.8031         41.8349         77.3655         5.72314
           25656         75.9552         87.2830         41.8648         4.17494
           25657         56.6606         62.8754         34.5868        -8.86026
           25658         74.0923         84.9002         40.9639        -5.21013
           25659         73.5191         84.2068         40.8773        -5.33745
           25660         94.4744         108.098         41.3587     387.804E-03
           25661         93.8109         107.464         41.9490     311.602E-03
           25662         94.0605         107.612         41.0909     393.462E-03
           25663         69.1272         43.9039         78.9555        -5.27600
           25664         68.4799         43.7720         78.1261        -5.46365
           25665         67.6198         43.5557         77.0657        -5.56393
           25666         67.9962         43.6413         77.5191        -5.56039
           25667         66.1085         42.2190         75.6937         4.24488
           25668         65.8894         41.7378         75.3161         4.84350
           25669         66.9120         42.2369         76.5544         4.69452
           25670         95.2565         109.483         45.5895    -159.509E-03
           25671         73.4764         84.4468         41.8139        -4.08948
           25672         65.6409         43.3240         75.0160         4.25632
           25673         65.1458         42.8411         74.3024         4.86333
           25674         40.6159         42.0285         27.9321         9.60895
           25675         38.6901         40.4220         26.1716         8.86830
           25676         57.3766         36.8704         64.8803         6.20088
           25677         57.7318         37.1713         64.9465         7.00827
           25678         58.9820         67.5073         34.6403        -4.47815
           25679         61.1070         69.9232         35.9943        -4.69264
           25680         94.7389         109.146         48.1849     125.625E-03
           25681         95.1315         109.539         47.6367     121.304E-03
           25682         56.3154         64.0440         36.1059        -5.11582
           25683         85.7745         48.0636         99.0293    -135.068E-03
           25684         64.8978         43.2885         74.2653         3.52717
           25685         63.1744         44.4171         72.0843         2.81384
           25686         64.2046         43.8279         73.5115         2.53423
           25687         65.2941         43.2215         74.9603         2.31473
           25688         64.3608         43.8669         73.8513         1.09807
           25689         65.3230         47.3433         74.1916         3.35609
           25690         66.2380         46.7069         75.2683         4.32725
           25691         73.5769         84.4498         41.3767        -4.61910
           25692         74.2640         85.3521         41.9170        -4.11638
           25693         74.2333         85.1291         41.1631        -4.94629
           25694         74.8329         85.8343         41.1841        -4.87586
           25695         67.8690         42.6480         77.7249         4.50901
           25696         68.2124         42.1879         77.9637         5.28844
           25697         95.3561         109.429         44.1470    -201.090E-03
           25698         95.3124         109.144         42.3309    -300.389E-03
           25699         67.4513         43.6825         77.0014         5.03027
           25700         85.7101         45.3810         98.8568    -333.105E-03
           25701         85.8804         46.1426         99.0865    -297.031E-03
           25702         67.9115         77.8248         42.5109        -4.33966
           25703         92.4728         32.6056         104.338        -1.10944
           25704         92.0858         32.9547         103.964         1.95006
           25705         58.4092         60.0242         56.4860         1.69153
           25706         58.3226         59.1192         57.3274         1.74825
           25707         62.3193         69.6259         49.6498        -3.04083
           25708         63.1737         71.0054         48.8289        -3.26603
           25709         63.2376         70.8114         48.8333        -4.39701
           25710         66.4175         41.2949         75.4863        -6.45574
           25711         66.5203         41.3769         75.5310        -6.66346
           25712         86.2424         99.2823         42.9327     73.1622E-03
           25713         86.2240         99.3412         43.9197     44.6771E-03
           25714         86.0739         99.0489         42.4061     98.3223E-03
           25715         86.3452         99.2770         41.6699     136.893E-03
           25716         65.5014         74.2372         41.0738         6.86583
           25717         66.7118         75.8929         41.3146         6.30646
           25718         66.2092         75.1804         41.2700         6.60916
           25719         86.3225         43.3212         99.4020     315.998E-03
           25720         86.1960         44.2176         99.3297     313.826E-03
           25721         86.1510         43.6872         99.2404     318.556E-03
           25722         86.1824         43.0421         99.2233     317.548E-03
           25723         86.2962         42.5180         99.3032     317.057E-03
           25724         73.6068         84.3789         41.0438         5.05993
           25725         67.0046         43.3229         76.2237        -5.91382
           25726         67.2944         43.4410         76.5610        -5.93614
           25727         66.3781         43.1847         75.3050        -6.38542
           25728         67.0468         43.4439         76.1619        -6.21894
           25729         66.3271         43.3811         75.1346        -6.62256
           25730         60.2358         46.7880         67.9484    -687.584E-03
           25731         59.5529         47.4214         66.7674        -1.42313
           25732         62.9507         48.9887         70.9959     398.025E-03
           25733         74.7927         84.3745         41.4636        -9.20382
           25734         69.2184         78.4173         44.5643        -7.08421
           25735         77.5932         38.3646         89.2237        -1.91687
           25736         78.7482         38.0084         90.4629        -1.95402
           25737         77.3673         40.6845         88.8957        -3.86008
           25738         80.9163         38.9719         92.6154        -4.48791
           25739         87.8670         100.049         37.2455        -4.08180
           25740         88.8664         101.101         36.9458        -3.91766
           25741         80.7556         92.2475         36.7434        -4.13422
           25742         78.6810         90.0672         37.5517        -4.10908
           25743         79.7006         91.2251         37.2744        -3.70354
           25744         56.1199         53.2211         58.4599         1.88800
           25745         55.9512         54.0189         57.5671         1.65762
           25746         55.9362         56.6456         54.7176         2.92287
           25747         55.9210         55.4071         55.8526         3.28267
           25748         55.9652         56.2540         54.9483         3.62083
           25749         87.5494         99.4462         37.1576        -5.47232
           25750         87.5877         99.3519         37.0806        -6.05122
           25751         56.7654         51.3428         60.3500         3.77018
           25752         56.5009         51.9987         59.5952         3.45303
           25753         61.2813         69.5120         46.1568    -703.012E-03
           25754         60.6269         68.4917         46.6800    -944.923E-03
           25755         71.7928         43.3532         82.6119        -3.23905
           25756         73.0134         42.7491         84.0695        -3.14517
           25757         70.0191         44.2940         80.5779        -2.38256
           25758         70.6060         43.9695         81.1753        -3.25059
           25759         71.1959         43.6768         82.0151        -2.37144
           25760         72.1287         40.0819         83.1125        -2.55723
           25761         71.5019         40.4825         82.4830        -1.76626
           25762         70.2741         40.9645         81.0636        -1.80597
           25763         68.4995         41.8286         79.0284    -950.474E-03
           25764         69.0461         41.4798         79.6262        -1.76402
           25765         80.1867         43.6774         92.4943        -1.51641
           25766         79.2542         45.0252         91.4434        -1.76353
           25767         39.1305         28.3549         39.6869        -9.61705
           25768         77.0351         88.8356         43.2434        -2.17588
           25769         77.0277         88.8202         42.7222        -2.13310
           25770         77.9265         89.8772         42.9344        -1.83459
           25771         37.8318         39.1658         26.6273         8.77786
           25772         38.8207         39.3293         28.1765         9.56552
           25773         77.3636         43.9635         89.1979         2.41681
           25774         76.5932         43.5905         88.2770         2.68318
           25775         76.9158         43.2626         88.6569         2.57360
           25776         77.6887         43.6306         89.5781         2.30993
           25777         79.2051         44.9676         91.3842         1.79040
           25778         76.6688         45.3798         88.4019         2.27596
           25779         76.5975         44.9970         88.3252         2.27188
           25780         77.2120         45.1627         89.0587         2.05733
           25781         79.2825         46.2170         91.5034         1.39619
           25782         38.4737         28.5547         38.3606        -9.80978
           25783         38.4522         29.6321         37.2434        -10.2801
           25784         37.6928         37.9029         27.6774         9.43625
           25785         37.3489         36.8226         28.1908         9.70182
           25786         36.4026         36.7933         26.5940         8.99330
           25787         41.8807         42.9010         29.3705         10.1800
           25788         33.1722         35.7085         21.0805         6.67493
           25789         37.0032         28.5744         36.7453        -9.17420
           25790         38.4330         30.0144         37.7651        -9.72161
           25791         38.1624         30.6320         36.6260        -9.97521
           25792         91.3330         33.4702         103.238         2.49960
           25793         98.9981         111.457         33.9401         1.72042
           25794         98.7409         111.275         34.2731         1.49173
           25795         88.6568         100.834         35.1747     832.759E-03
           25796         85.9793         98.7678         40.6680    -230.091E-03
           25797         84.8007         97.6409         42.4294     16.8730E-03
           25798         84.3150         97.1161         42.6139     100.004E-03
           25799         85.6278         42.9205         98.5952     483.642E-03
           25800         85.3997         43.3960         98.3804     408.378E-03
           25801         84.0602         43.9316         96.9228     156.228E-03
           25802         54.9753         59.1170         37.7755         10.5460
           25803         53.8737         57.5017         37.3268         10.7857
           25804         54.6265         39.6439         58.0627        -10.6921
           25805         53.6727         38.7821         57.0564        -10.5521
           25806         52.1717         38.3381         54.6668        -10.9458
           25807         55.0414         37.9514         58.9948        -10.7671
           25808         51.7161         35.8401         54.8359        -10.7763
           25809         58.9080         64.5374         37.4378         10.3220
           25810         57.8067         63.0367         37.0023         10.5091
           25811         54.3696         58.6723         35.1696         10.6488
           25812         63.1439         71.1444         48.8028        -2.30627
           25813         63.9930         72.4413         48.0807        -2.49175
           25814         62.3408         69.8720         49.5319        -1.97978
           25815         90.3378         34.0323         102.143         3.90566
           25816         81.8991         37.8792         93.9659    -892.936E-03
           25817         81.0553         37.9566         93.0466        -1.05044
           25818         86.7463         36.4758         99.0215    -595.662E-03
           25819         86.2412         37.5063         98.5315        -2.44392
           25820         81.2977         39.6400         93.3855        -2.51261
           25821         81.4686         39.2871         93.4853        -2.99554
           25822         82.4527         39.1550         94.6016        -2.58197
           25823         56.5232         51.9543         59.7412        -3.18472
           25824         56.6396         51.5728         60.3684        -2.40285
           25825         56.2691         52.6735         58.9261        -2.78501
           25826         57.0560         50.6788         61.6018        -2.17322
           25827         57.4951         49.9195         62.6105        -2.52597
           25828         74.0446         84.9322         42.3353        -4.91515
           25829         73.4879         84.4483         42.5980        -4.15122
           25830         79.9424         91.7316         39.9809        -3.87912
           25831         78.9433         90.5996         40.3510        -4.13672
           25832         56.0018         54.0349         57.2887        -3.16362
           25833         56.1982         53.1414         58.1616        -3.75270
           25834         61.3494         50.4411         68.2555        -1.08246
           25835         61.7058         50.1767         68.8977    -155.172E-03
           25836         60.7418         51.2559         67.0697    -769.095E-03
           25837         101.161         113.493         32.8158    -384.507E-03
           25838         100.784         113.165         33.0842    -367.618E-03
           25839         91.1470         102.950         32.6595        -1.26006
           25840         90.9549         102.806         32.8560    -824.472E-03
           25841         99.4210         111.582         33.1563        -3.37823
           25842         98.3813         110.537         33.5113        -3.72966
           25843         97.3980         109.295         33.7387        -5.47972
           25844         88.2478         99.9287         33.7060        -3.36787
           25845         88.7589         100.309         33.2754        -3.95217
           25846         80.8582         46.5334         93.3346         1.22594
           25847         82.0385         94.3736         41.3533         2.34507
           25848         46.2617         47.6130         32.2489        -11.0849
           25849         47.0123         48.8813         32.2010        -10.9224
           25850         77.8255         46.8070         89.7628        -1.83317
           25851         80.0059         92.2433         42.1027        -1.02808
           25852         77.0061         43.4735         88.7673        -2.54181
           25853         76.5266         42.8323         88.1903        -2.68178
           25854         75.5160         42.7768         86.9810        -3.04869
           25855         46.3350         36.1729         45.7594         11.5439
           25856         80.4524         45.1075         92.8672     927.328E-03
           25857         80.3416         44.4658         92.7289     852.311E-03
           25858         77.2445         37.8057         88.5553         3.79856
           25859         78.9156         37.1573         90.3270         3.84499
           25860         58.5975         64.9870         48.6793        -1.18466
           25861         58.1288         64.0876         49.2534    -889.839E-03
           25862         65.4021         74.2056         43.2629        -6.04505
           25863         64.4330         73.1981         43.9485        -5.13548
           25864         88.3304         100.339         34.5985         1.72551
           25865         98.5788         110.977         33.9064         2.24415
           25866         96.0786         108.626         35.1954         2.30546
           25867         95.8244         108.320         35.1201         2.57069
           25868         70.9176         81.3659         42.1937        -4.53553
           25869         70.9954         81.4678         42.0489        -4.50400
           25870         71.8493         82.5412         42.2061        -4.14999
           25871         84.8301         97.6954         42.6956    -31.0998E-03
           25872         85.4491         98.3302         42.1000     76.5380E-03
           25873         85.1544         97.9866         41.9062     69.0227E-03
           25874         85.3167         98.1148         41.3761     125.935E-03
           25875         85.6087         98.4560         41.5725     135.095E-03
           25876         70.1324         42.3744         80.3044        -5.06651
           25877         49.4616         52.5229         34.0210        -10.2834
           25878         49.8068         53.4635         33.7549        -9.79164
           25879         53.5199         56.8774         37.3207        -10.9425
           25880         54.1467         57.8059         37.5690        -10.8109
           25881         54.0735         58.0933         37.0532        -10.4677
           25882         53.4364         57.1626         36.8040        -10.6013
           25883         53.6240         40.3581         55.6314         11.5048
           25884         54.0687         39.9262         56.8262         11.0899
           25885         52.6842         39.3981         54.6904         11.3589
           25886         84.3866         45.0703         97.3521    -76.8344E-03
           25887         85.5505         43.0123         98.5172    -464.287E-03
           25888         85.7161         42.3110         98.6381    -588.242E-03
           25889         70.7019         44.0846         81.0009         4.65666
           25890         70.3588         44.1578         80.5509         4.79448
           25891         93.9854         107.542         41.1660    -382.316E-03
           25892         94.3116         107.956         41.5951    -363.634E-03
           25893         94.6079         108.181         40.9454    -421.980E-03
           25894         75.5798         86.7140         41.0930         4.75031
           25895         74.3870         85.2374         40.9070         5.20984
           25896         74.1930         85.0001         40.9207         5.27066
           25897         49.1177         33.4648         52.4290         9.97303
           25898         49.4659         34.5522         51.9359         10.8041
           25899         49.9515         34.4552         52.9635         10.4519
           25900         54.5692         37.8871         58.2014         10.9552
           25901         54.0618         38.0857         57.1525         11.2906
           25902         54.6013         38.8118         57.5773         11.4672
           25903         55.1000         38.6060         58.6237         11.1366
           25904         57.5562         62.4264         37.3958        -10.8274
           25905         59.0900         64.8714         37.3484        -10.1861
           25906         70.1232         44.0771         80.2501        -4.88517
           25907         68.6262         43.7844         78.2713        -5.57196
           25908         69.2076         43.8841         79.0420        -5.32063
           25909         68.7050         43.8402         78.3713        -5.54276
           25910         68.1317         43.7475         77.6021        -5.79930
           25911         77.4844         89.0286         41.2619        -4.02830
           25912         77.8816         89.5054         41.1480        -3.83595
           25913         78.8068         90.6083         41.3370        -3.52956
           25914         95.0999         108.692         40.8182     434.433E-03
           25915         65.8012         41.4515         75.0705         5.40918
           25916         64.7408         41.1538         73.8990         5.09579
           25917         64.6626         40.8694         73.6532         5.66584
           25918         95.5936         109.585         43.3333    -219.247E-03
           25919         95.4627         109.373         42.8090    -255.119E-03
           25920         72.8702         83.5260         40.9718        -5.06604
           25921         73.5852         84.3607         41.0687        -5.03357
           25922         85.8965         48.2702         99.1720    -237.654E-03
           25923         67.7490         77.5406         42.1493        -4.79941
           25924         66.8954         43.3524         76.2150         5.50569
           25925         57.6312         37.0377         65.4384         5.50947
           25926         58.4556         37.5356         66.0931         6.34241
           25927         57.8347         65.2018         34.3204        -7.15166
           25928         62.3036         71.3374         36.6349        -4.62022
           25929         95.3000         109.727         47.6532     98.5422E-03
           25930         53.3405         36.0871         59.1982         7.63315
           25931         57.0809         37.9515         64.8596         4.92157
           25932         86.3586         49.8287         99.7179    -139.309E-03
           25933         86.4911         51.0814         99.8622    -117.988E-03
           25934         86.3878         51.1508         99.7409    -110.241E-03
           25935         89.7560         101.278         32.8324        -3.92259
           25936         88.6162         100.065         33.2411        -4.51233
           25937         87.9790         99.2989         33.3756        -5.17275
           25938         98.7599         110.677         33.2970        -5.18266
           25939         100.671         112.571         32.7960        -5.12049
           25940         91.2521         33.3331         103.221    -791.619E-03
           25941         90.6295         33.7213         102.654    -364.026E-03
           25942         90.8071         33.7082         102.829    -821.591E-03
           25943         91.7055         33.1975         103.599         2.17884
           25944         58.3386         58.8503         57.7586         1.01517
           25945         86.7799         99.4777         39.3205     336.492E-03
           25946         86.9860         99.7273         39.5105     277.499E-03
           25947         86.1921         41.6225         99.1023     295.447E-03
           25948         85.8634         41.7069         98.7486     296.356E-03
           25949         92.3423         104.607         35.7816        -3.96425
           25950         81.6269         93.2161         36.4963        -3.81939
           25951         85.9890         47.0804         99.2467    -265.288E-03
           25952         67.4689         77.1102         41.7842        -5.23269
           25953         68.3423         78.1998         42.1038        -5.00808
           25954         66.7122         41.8434         76.2063         5.19563
           25955         67.6654         42.2563         77.3784         5.01053
           25956         70.7823         40.8104         81.6743         1.53927
           25957         72.0535         40.3096         83.1266         1.59252
           25958         71.5229         43.4755         82.2438         3.50999
           25959         73.1049         42.6779         84.1112         3.55522
           25960         33.5185         30.6718         27.9943         9.26790
           25961         34.6565         29.9236         31.2219        -9.40056
           25962         76.5658         87.8619         38.4447        -3.76096
           25963         83.7710         95.7680         38.6073        -4.19865
           25964         85.0430         97.0435         38.1295        -4.51824
           25965         47.7112         33.6797         49.6039        -10.8340
           25966         48.6833         34.2215         50.8390        -10.8649
           25967         83.5781         42.4936         96.2797    -602.403E-03
           25968         83.9833         41.9690         96.6905    -499.116E-03
           25969         49.9856         52.4904         35.0222         10.8795
           25970         84.2017         96.9263         41.8380     42.9942E-03
           25971         83.6830         96.3649         42.0076     146.202E-03
           25972         70.4936         43.9955         80.7663         4.61524
           25973         53.3604         56.7675         35.5743         11.2356
           25974         93.3924         106.727         40.0125    -524.332E-03
           25975         92.9658         106.373         40.7056    -369.736E-03
           25976         70.9910         42.0836         81.3831         4.84345
           25977         50.5517         37.7808         52.1575        -11.2284
           25978         51.1675         37.3516         53.7039        -10.7206
           25979         48.7653         36.3997         50.1300        -11.0275
           25980         49.5599         36.4348         51.5850        -10.7574
           25981         49.7905         37.7595         50.7119        -11.4961
           25982         83.7180         43.3448         96.5023     189.338E-03
           25983         32.1575         26.9018         29.5363        -8.80502
           25984         31.0327         26.7840         27.8477        -8.48573
           25985         65.5339         47.0787         74.7162         2.10650
           25986         66.3401         46.5789         75.6689         3.17274
           25987         67.2012         46.0435         76.6519         4.07479
           25988         79.3676         90.7858         37.2712         4.15208
           25989         77.8133         89.1718         37.9257         3.95162
           25990         78.3756         89.6912         37.6032         4.35519
           25991         79.3055         90.6113         37.1619         4.66307
           25992         88.6333         100.494         36.7451         5.75355
           25993         87.5946         99.5098         37.1507         5.39422
           25994         77.6777         37.7650         89.0879         3.43406
           25995         50.5726         35.5361         53.0268        -11.0649
           25996         50.7154         36.2434         53.9583        -10.0432
           25997         50.2430         36.5100         52.8090        -10.4984
           25998         93.8546         107.267         40.2822    -489.615E-03
           25999         93.5600         107.036         40.8537    -406.045E-03
           26000         94.2811         107.774         40.5922    -467.881E-03
           26001         83.4671         95.9347         39.9661    -217.728E-03
           26002         70.2724         43.9909         80.5301         4.49093
           26003         70.9550         43.9958         81.3895         4.30176
           26004         69.7826         44.0341         79.9205         4.56586
           26005         49.7608         49.7313         37.6107         12.3666
           26006         50.5017         36.7631         51.7620        -11.8676
           26007         50.7785         37.5074         51.6357        -12.1399
           26008         49.4427         36.3176         50.2218        -11.9349
           26009         50.4596         35.9189         52.4544        -11.3820
           26010         83.9796         41.2847         96.6272    -425.406E-03
           26011         72.4441         83.3589         41.6634        -3.49393
           26012         71.9468         82.7231         41.7428        -3.82359
           26013         71.1686         81.7813         41.6722        -4.00936
           26014         71.7896         82.4784         42.0204        -4.12780
           26015         83.7962         42.3095         96.5116     437.356E-03
           26016         83.3499         42.7683         96.0510     269.989E-03
           26017         77.2600         88.7851         40.9840        -3.88968
           26018         93.7404         106.875         38.6557    -833.932E-03
           26019         93.7691         107.039         39.4354    -637.719E-03
           26020         70.4758         41.9444         80.7441         4.98855
           26021         88.4938         33.3735         100.138         3.24637
           26022         89.8643         32.8685         101.529         2.84411
           26023         89.5219         32.8679         101.116         3.31154
           26024         88.2781         35.0646         99.9379         5.17057
           26025         78.5966         90.6727         43.5921         1.65617
           26026         77.7936         89.7259         43.1827         1.91261
           26027         78.0703         90.0417         42.7807         1.76162
           26028         77.3167         89.1564         42.4864         1.98821
           26029         79.8781         45.6942         92.2041         1.17585
           26030         79.7815         45.0315         92.0884         1.13274
           26031         88.3395         101.501         42.0432    -623.467E-03
           26032         87.5404         100.575         41.6134    -742.697E-03
           26033         41.9346         33.2723         40.6096         10.8551
           26034         41.7340         33.8809         39.5926         11.0705
           26035         43.1898         35.3422         40.6936         11.5256
           26036         43.0925         43.7465         30.6838        -10.7085
           26037         42.8961         42.8007         31.4777        -11.0241
           26038         44.1109         43.8469         32.5812        -11.4057
           26039         79.7506         92.0224         44.0302        -1.30985
           26040         78.7654         90.8555         43.0743        -1.57077
           26041         78.2114         44.2350         90.2052        -2.12425
           26042         77.8638         43.5510         89.7829        -2.25504
           26043         39.9112         39.7752         29.6156        -10.1935
           26044         41.0423         40.3950         30.9721        -10.7170
           26045         42.1364         40.7459         32.5167        -11.2965
           26046         42.9843         42.0101         32.7531        -11.3431
           26047         40.6659         29.9973         40.6869         10.3110
           26048         40.4729         30.7803         39.5768         10.6847
           26049         42.1583         32.3090         40.9669         11.2363
           26050         79.6127         44.4659         91.8511         1.69091
           26051         79.6975         45.0052         91.9612         1.64204
           26052         79.1178         44.4277         91.2727         1.83782
           26053         79.7188         44.0339         91.9632         1.67077
           26054         80.2129         44.7785         92.5566         1.50806
           26055         86.4711         99.4279         42.0223         1.10565
           26056         86.9847         99.9697         41.7139     907.748E-03
           26057         86.3489         99.2275         41.3402         1.01670
           26058         80.4188         37.1411         92.1416         2.57451
           26059         79.3938         37.6479         91.1091         2.25188
           26060         79.7967         37.7031         91.5882         1.89188
           26061         80.8203         37.1969         92.6221         2.21510
           26062         78.5019         40.1285         90.0846         4.16261
           26063         77.2516         40.7485         88.7715         3.84237
           26064         70.4176         80.5872         44.0542        -4.95877
           26065         79.8642         37.7563         91.6787        -1.75149
           26066         81.6280         39.0030         93.5657        -3.49766
           26067         80.3953         39.7425         92.3475        -2.94383
           26068         65.6739         75.4247         43.3839        -2.17747
           26069         73.7104         84.9293         42.4814        -2.79769
           26070         73.0896         84.1266         42.7800        -3.34682
           26071         63.1305         72.1558         44.9093     933.612E-03
           26072         64.2179         73.6004         44.2329         1.40673
           26073         70.7720         81.4827         43.8489         2.54673
           26074         69.1212         79.5284         44.6841         1.82176
           26075         63.2083         71.4865         48.4816    -312.466E-03
           26076         73.3630         39.6324         84.5162        -2.44936
           26077         55.9838         54.7817         56.3719        -3.80820
           26078         58.5286         60.8525         55.6507        -2.00451
           26079         58.3980         59.9521         56.3995        -2.34132
           26080         67.9261         77.3171         41.8573        -6.33175
           26081         66.8178         76.0292         42.4699        -6.03984
           26082         85.6173         98.5487         42.4606     70.8744E-03
           26083         85.8785         98.7859         41.9042     115.877E-03
           26084         67.6928         77.1818         41.5418        -5.93934
           26085         68.3037         77.9900         41.6381        -5.67398
           26086         68.4510         78.1878         41.6880        -5.59174
           26087         85.7823         44.0260         98.8539    -342.738E-03
           26088         85.5895         42.1449         98.4876    -323.925E-03
           26089         85.8319         42.7129         98.8064    -333.125E-03
           26090         85.8648         41.4819         98.7278    -292.713E-03
           26091         54.9379         59.4174         37.3266        -10.2033
           26092         55.4421         59.8617         37.8765        -10.3783
           26093         55.9128         60.7785         37.7707        -10.0206
           26094         55.1572         39.3897         59.2534         10.2271
           26095         55.8749         40.1322         59.9422         10.3917
           26096         55.8152         39.2524         60.5368         9.76546
           26097         85.8144         43.3946         98.8415    -439.872E-03
           26098         86.0145         42.6441         98.9994    -530.809E-03
           26099         86.2445         43.0482         99.2900    -491.919E-03
           26100         86.0472         43.7974         99.1319    -401.389E-03
           26101         67.0620         76.3876         41.3862         6.07787
           26102         67.5241         76.9656         41.4977         5.98985
           26103         68.0014         43.8015         77.4196         5.85718
           26104         67.6878         43.6127         77.0074         5.99838
           26105         67.1907         43.6301         76.3168         6.23040
           26106         85.9965         43.0977         99.0216     326.495E-03
           26107         85.7357         43.1293         98.7343     339.967E-03
           26108         85.8015         42.4009         98.7453     325.481E-03
           26109         86.0652         42.3680         99.0341     312.123E-03
           26110         72.8067         83.2497         40.7133         5.83393
           26111         67.8176         41.6831         77.2497         6.17093
           26112         67.3259         41.5862         76.5727         6.43818
           26113         68.2035         41.7500         77.7410         6.07369
           26114         68.7034         41.8461         78.4182         5.80628
           26115         55.6506         38.4854         59.6675         10.8317
           26116         56.3005         38.4877         60.8158         10.4967
           26117         55.2054         37.8211         59.3978         10.5767
           26118         58.7715         65.0035         36.3061        -9.49597
           26119         59.8053         66.1317         37.0814        -9.66947
           26120         60.9280         67.8908         37.1021        -9.04415
           26121         67.7714         43.5665         77.1648        -5.83994
           26122         68.2873         43.7103         77.8326        -5.67855
           26123         67.5534         43.5925         76.8250        -6.05732
           26124         95.6895         109.240         40.2723     449.598E-03
           26125         95.9747         109.419         39.5104     500.326E-03
           26126         96.2412         109.742         39.7301     427.814E-03
           26127         74.5840         85.4900         40.9834        -5.10796
           26128         65.0635         41.6781         74.4607         4.28863
           26129         86.5415         48.1358         99.9067    -194.955E-03
           26130         86.4270         48.8909         99.7898    -189.581E-03
           26131         54.8736         36.3967         60.0840         9.36594
           26132         56.0381         36.8739         61.7837         8.97336
           26133         58.0356         37.4329         66.2128         4.52050
           26134         58.8501         65.9763         35.2522        -8.03224
           26135         59.6943         67.1516         35.5874        -7.68911
           26136         58.3509         65.6156         34.7904        -7.56839
           26137         61.0311         68.7658         36.2693        -7.63085
           26138         95.4580         109.278         42.1595     294.904E-03
           26139         95.6731         109.559         42.4991     256.800E-03
           26140         58.0234         66.2594         37.3780        -4.31767
           26141         54.2269         36.8797         60.0046         8.01746
           26142         55.1274         37.5577         60.9445         8.22913
           26143         55.4733         37.5419         61.6564         7.76904
           26144         86.0615         45.1665         99.2403    -294.144E-03
           26145         90.3530         34.2297         102.426        -1.51986
           26146         90.6940         33.8989         102.737        -1.15288
           26147         90.6337         33.9416         102.685         1.06978
           26148         90.1621         34.2754         102.264     736.560E-03
           26149         90.4436         33.9195         102.497     414.482E-03
           26150         67.5068         41.6939         76.9319        -5.99611
           26151         67.2981         41.5926         76.5337        -6.45286
           26152         63.6900         41.2131         71.4406        -8.13287
           26153         63.2616         41.3068         70.7829        -8.35410
           26154         87.0793         99.8877         39.9672     189.080E-03
           26155         86.9446         99.8513         40.8928     140.531E-03
           26156         67.2234         76.6640         41.4734         5.80487
           26157         63.2208         70.8983         41.1739         8.04522
           26158         86.9620         40.8113         99.8591     351.000E-03
           26159         63.1137         43.3029         70.3895        -8.19743
           26160         64.4232         43.3553         72.3672        -7.55331
           26161         65.7002         43.4428         74.2279        -6.93117
           26162         66.9513         43.5844         75.9855        -6.34732
           26163         61.0937         46.0826         69.2341        -1.40958
           26164         60.7097         46.4104         68.6645        -1.10716
           26165         60.1557         46.8391         67.7389        -1.74042
           26166         86.2685         98.2706         37.6836        -4.77094
           26167         85.1467         97.2396         38.1536        -4.03139
           26168         86.3706         98.4690         37.7117        -4.28146
           26169         39.8424         39.6400         29.6538         10.2016
           26170         38.7337         38.2223         29.1426         10.0658
           26171         39.1782         31.6978         37.3057        -10.3436
           26172         40.1290         30.9277         38.8290        -10.7551
           26173         40.3010         34.4558         35.5882        -11.4988
           26174         39.5440         33.0765         35.6624        -11.2169
           26175         38.0917         34.3193         31.9490        -10.7841
           26176         37.5637         34.6261         30.7551        -10.5058
           26177         36.5447         33.4008         30.3051        -10.2261
           26178         39.8979         34.1091         35.2481         11.3763
           26179         40.1740         37.8560         32.1881         11.0047
           26180         39.0118         36.5539         31.5301        -10.7103
           26181         39.8663         36.4519         33.2365        -11.0671
           26182         40.2879         37.5032         32.8072        -11.1158
           26183         33.3429         29.7989         29.0627        -9.04009
           26184         35.2510         31.1744         30.8922        -9.65241
           26185         89.6659         101.516         36.3731         5.88431
           26186         73.2925         39.8558         84.5180         1.68835
           26187         73.5107         42.5359         84.6716         2.99019
           26188         72.8350         42.9459         84.0136         1.85648
           26189         86.4768         45.8474         99.7451    -268.655E-03
           26190         86.4606         44.7937         99.6646    -298.168E-03
           26191         64.9321         74.0081         40.8482        -5.58261
           26192         65.0878         74.0625         40.8286        -6.00157
           26193         66.2464         75.4845         41.2332        -5.85858
           26194         95.9062         109.882         43.0130    -186.259E-03
           26195         95.8208         109.723         42.5294    -227.794E-03
           26196         65.6923         41.2341         74.8294         5.81090
           26197         64.9673         42.5342         73.7639         5.99881
           26198         64.6481         42.4565         73.5561         5.45489
           26199         65.6319         42.8281         74.5530         6.00293
           26200         66.3252         43.0835         75.3863         5.99038
           26201         71.4429         81.7377         40.4673        -5.57174
           26202         72.1785         82.6045         40.6295        -5.52732
           26203         70.5724         43.9932         81.2004         2.81753
           26204         40.0488         30.1707         39.4344        -10.4614
           26205         41.7783         31.5110         41.1071        -10.9242
           26206         45.5231         46.0297         32.7321         11.3853
           26207         43.9330         44.6722         31.2087         10.8733
           26208         40.7531         32.0012         39.8302        -10.4069
           26209         42.7966         34.0508         41.3711        -11.0942
           26210         41.6445         33.4306         39.9156        -10.9210
           26211         90.0326         33.9054         102.061     292.115E-03
           26212         90.4139         33.7689         102.438    -50.4987E-03
           26213         56.0173         53.5081         58.2058     680.049E-03
           26214         39.1669         37.3218         30.7898        -10.6810
           26215         37.9051         36.6053         29.3423        -10.1647
           26216         38.1163         35.6500         30.6686        -10.5625
           26217         38.8885         38.1137         29.5336        -10.2154
           26218         40.0541         38.7356         30.8947        -10.7414
           26219         78.6760         90.7370         42.5207        -1.51721
           26220         80.0655         43.1053         92.3341        -1.51905
           26221         79.3707         43.0835         91.5316        -1.72963
           26222         79.4933         43.6557         91.6910        -1.72830
           26223         78.5558         43.0315         90.5837        -1.98776
           26224         78.5186         42.5012         90.5271        -1.92959
           26225         36.3586         28.3489         34.9938         9.75980
           26226         37.9271         29.7991         36.1907         10.3144
           26227         38.2481         29.4015         37.1409         10.1821
           26228         40.0578         31.1866         38.4326         10.8557
           26229         78.3486         43.8019         90.3580         2.09592
           26230         78.5038         43.3174         90.5296         2.02914
           26231         88.0901         101.194         41.7336     627.829E-03
           26232         88.5758         101.680         41.3031     450.823E-03
           26233         87.4758         100.475         41.3487     723.104E-03
           26234         39.9986         32.9760         37.4017         10.7540
           26235         79.5413         91.7595         43.3037         1.33418
           26236         79.7165         91.9378         42.6737         1.21761
           26237         78.7917         90.8837         42.9949         1.55523
           26238         77.0436         44.7368         88.8667         2.05427
           26239         77.6912         44.8388         89.6355         1.82865
           26240         40.7118         40.2886         30.2875        -10.6017
           26241         40.1086         38.9891         30.6942        -10.6950
           26242         86.1433         99.0402         41.7740        -1.14728
           26243         85.2389         97.9998         41.4395        -1.35990
           26244         86.6524         99.5569         41.2680    -920.550E-03
           26245         78.7767         45.3078         90.9131        -1.51152
           26246         78.4592         44.7717         90.5430        -1.53423
           26247         86.2342         37.0036         98.5551    -535.535E-03
           26248         85.7204         38.0771         98.0675        -2.23662
           26249         86.6081         37.5616         98.9576        -2.19760
           26250         65.6657         74.9515         46.7984        -1.98190
           26251         64.8156         73.7622         47.3942        -1.81595
           26252         64.7567         73.7572         47.3711        -1.04004
           26253         61.3661         68.3685         50.2690    -679.586E-03
           26254         60.7013         67.0536         51.0199        -1.47279
           26255         60.4580         66.5676         51.4720    -553.453E-03
           26256         59.9172         65.3314         52.2136        -1.50699
           26257         59.6142         64.6087         52.8493    -588.452E-03
           26258         56.3596         39.0185         60.5514        -10.8030
           26259         59.3997         41.8618         64.9607        -9.58098
           26260         56.2978         60.2818         39.4848         10.9043
           26261         56.1405         60.4169         38.8211         10.6446
           26262         86.4757         41.8026         99.4266     638.800E-03
           26263         87.0508         99.9425         40.6757    -135.090E-03
           26264         58.4793         56.8319         59.9964    -183.177E-03
           26265         58.5420         56.8288         60.0868     792.580E-03
           26266         57.3856         50.0552         61.9066         4.23899
           26267         57.7544         49.4121         62.7390         4.39343
           26268         57.7032         49.4322         62.4039         5.05414
           26269         57.3317         50.0746         61.5647         4.90170
           26270         62.5743         45.0078         71.3305        -2.01835
           26271         61.8490         45.5216         70.3322        -1.64303
           26272         61.7108         45.5836         70.0414        -2.40165
           26273         68.4674         78.0787         39.4336        -6.20256
           26274         64.8932         40.8678         73.7763         6.13972
           26275         64.1064         40.4732         72.7507         6.41210
           26276         96.1559         110.108         42.6803    -137.702E-03
           26277         96.1205         110.005         42.2253    -183.533E-03
           26278         64.1593         72.8436         40.3948        -6.35035
           26279         86.5788         45.6145         99.8472    -274.852E-03
           26280         80.1105         40.3790         92.1878        -1.92348
           26281         80.2760         40.0021         92.2927        -2.45100
           26282         81.1241         40.0223         93.2775        -1.98587
           26283         79.1953         40.4196         91.1289        -2.38540
           26284         79.1660         40.6119         91.1494        -1.95575
           26285         78.1411         40.9863         90.0329        -1.85688
           26286         80.1026         38.0850         92.0127        -1.14381
           26287         68.4433         45.1490         78.6760         1.66147
           26288         66.9670         46.0179         76.7883         1.17246
           26289         61.0050         66.9592         39.3601         10.3984
           26290         60.1124         65.8135         38.7425         10.5022
           26291         60.7801         66.9762         38.3985         10.0955
           26292         59.8068         65.7268         37.8600         10.1960
           26293         56.4829         42.3725         59.5220        -11.1672
           26294         55.7833         41.6210         58.7273        -11.1782
           26295         86.2193         41.8853         99.1523     641.931E-03
           26296         86.5849         99.3592         40.0603    -269.393E-03
           26297         86.3332         99.1207         40.3653    -253.769E-03
           26298         88.1652         35.9708         100.464    -121.835E-03
           26299         87.7323         36.8004         100.139    -1.95790E-03
           26300         85.2511         37.4532         97.5600    -572.122E-03
           26301         84.6904         38.6694         97.0318        -2.17082
           26302         78.4726         38.1213         90.1766         1.87536
           26303         48.0103         36.3682         47.5387        -12.2654
           26304         48.4792         35.8679         48.8726        -11.9464
           26305         49.1275         38.3855         48.8351        -11.9688
           26306         50.5103         51.9092         35.7935         12.0217
           26307         49.7927         51.5428         34.6445         11.6631
           26308         56.2821         58.5988         52.8650        -3.51094
           26309         56.1962         57.8520         53.3272        -4.18164
           26310         56.0658         57.3406         53.8788        -3.73916
           26311         79.9499         46.3655         92.2873         1.18703
           26312         78.5005         44.9810         90.5563        -1.99204
           26313         66.5914         75.9470         46.2554        -3.64500
           26314         65.2639         74.8035         43.6017        -2.84365
           26315         64.1890         73.4802         44.2385        -2.19847
           26316         64.6013         74.0963         44.0191        -1.53193
           26317         66.8166         76.6710         45.7833    -225.213E-03
           26318         76.3819         40.9100         87.4407        -5.53419
           26319         101.201         113.515         32.7628    -727.894E-03
           26320         88.3306         100.610         35.8395     661.660E-03
           26321         88.3015         100.530         35.5952     871.171E-03
           26322         56.8314         51.1532         61.0361        -1.81986
           26323         63.7721         72.4820         44.4012        -4.47424
           26324         57.1402         64.2436         34.0531        -7.43509
           26325         57.9693         64.2210         35.5957        -9.22018
           26326         58.0869         64.6167         35.3451        -8.81998
           26327         58.2342         57.5347         57.7730         4.73331
           26328         66.3618         41.3500         75.5029        -6.20260
           26329         66.8374         41.6619         76.2404        -5.63486
           26330         67.4606         41.7613         76.9523        -5.74143
           26331         86.0946         98.9631         41.3016     173.761E-03
           26332         66.9734         76.2154         41.4229         6.26771
           26333         73.4779         84.1084         40.8682         5.53561
           26334         72.4825         82.8568         40.8498         5.90017
           26335         72.0683         82.3665         41.0108         5.93412
           26336         72.8807         83.3833         40.9409         5.67000
           26337         65.0635         43.6016         73.2697        -7.26601
           26338         60.9485         46.2023         69.0763     60.8034E-03
           26339         79.6948         91.3642         37.5721        -2.88338
           26340         80.6697         92.3161         37.0627        -3.32523
           26341         90.1551         102.448         36.5842        -3.74199
           26342         87.8772         100.181         37.3971        -3.37159
           26343         36.3043         37.3795         25.7869         8.55787
           26344         42.0268         39.8582         33.2068         11.5246
           26345         40.1544         37.2137         32.5863         11.2296
           26346         36.7636         27.6301         37.2724        -8.73208
           26347         42.3244         34.5027         40.0002        -11.2697
           26348         43.3455         35.3268         41.0064        -11.5174
           26349         42.5294         35.3989         39.3944        -11.5220
           26350         43.5434         42.4698         33.1486         11.5661
           26351         45.1789         44.0236         34.5229         11.9867
           26352         44.2906         42.7388         34.2969         11.8966
           26353         95.7160         109.544         42.0708    -280.377E-03
           26354         96.0571         109.874         41.8019    -241.993E-03
           26355         95.9560         109.696         41.3433    -294.201E-03
           26356         72.8738         83.4380         40.7842        -5.42480
           26357         71.5090         81.7150         40.4034        -5.92542
           26358         83.4121         95.2906         36.3885        -2.62302
           26359         84.0896         95.9134         35.9172        -2.97578
           26360         85.3190         97.1567         35.3949        -2.94162
           26361         85.5849         97.4826         35.4517        -2.64608
           26362         86.2720         98.1310         35.0253        -2.79660
           26363         86.0123         97.8102         34.9653        -3.09170
           26364         97.0348         109.283         34.1136        -3.52152
           26365         97.1363         109.463         34.2323        -3.08997
           26366         40.6735         29.9633         40.7520        -10.2774
           26367         42.7810         43.0803         30.8767         10.8183
           26368         42.7626         42.1034         32.0510         11.2270
           26369         39.8291         31.7783         38.3705        -10.3850
           26370         40.7842         33.0812         38.7268        -10.8066
           26371         89.7230         34.3055         101.814     100.021E-03
           26372         89.1974         34.5743         101.306     368.646E-03
           26373         41.1250         39.2962         32.1953        -11.1906
           26374         41.8981         39.5749         33.2546        -11.5391
           26375         42.8733         41.0028         33.5687        -11.6396
           26376         78.5675         90.5952         41.9730        -1.43507
           26377         79.3305         91.4721         42.0494        -1.20906
           26378         78.9663         44.2797         91.0919        -1.89568
           26379         77.6720         42.9560         89.5470        -2.28238
           26380         78.7454         43.6251         90.8194        -1.96118
           26381         79.0700         43.9030         91.2048         1.86438
           26382         79.0550         43.5000         91.1773         1.85705
           26383         78.7498         42.8884         90.8057         1.91082
           26384         79.3079         43.0704         91.4585         1.74937
           26385         78.2724         90.2644         42.3064         1.61668
           26386         78.9965         91.1064         42.5201         1.41021
           26387         79.2088         45.5454         91.4203         1.38475
           26388         79.0739         44.9852         91.2630         1.36035
           26389         78.9026         44.4222         91.0624         1.30576
           26390         79.6125         44.4685         91.8875         1.07826
           26391         78.1078         45.3732         90.1226        -1.74791
           26392         78.3919         45.9250         90.4525        -1.68884
           26393         77.7618         44.8943         89.7179        -1.81791
           26394         60.2754         66.1617         51.7833     326.212E-03
           26395         59.7159         64.8426         52.7015     653.394E-03
           26396         60.4893         66.6203         51.3111         1.44073
           26397         63.1914         71.3473         48.6817        -1.42855
           26398         62.3381         70.0814         49.1741    -955.877E-03
           26399         67.9838         78.1828         45.1726     365.336E-03
           26400         62.2750         70.9786         45.4611    -299.523E-03
           26401         66.9791         42.4767         77.1669         1.28932
           26402         66.3009         42.7208         76.2585         2.09864
           26403         65.7512         43.0931         75.6379         1.23595
           26404         81.3163         93.1013         39.4529        -4.51195
           26405         84.9979         97.3172         38.4551        -2.41898
           26406         85.9581         98.2673         38.0945        -2.86245
           26407         84.0177         96.2625         38.7174        -2.61426
           26408         76.5543         88.1212         38.9562        -1.87090
           26409         77.1088         88.6738         38.6440        -2.31541
           26410         75.7128         87.1846         39.1836        -2.01108
           26411         86.5213         46.7375         99.8374    -248.773E-03
           26412         86.4234         47.7400         99.7616    -206.795E-03
           26413         95.9769         110.058         43.7623     115.262E-03
           26414         95.8484         110.034         44.7065     95.9600E-03
           26415         95.7993         109.892         43.9776     148.095E-03
           26416         57.6620         38.9697         64.2378         7.81233
           26417         62.3428         70.5495         36.7801        -7.10495
           26418         63.9331         72.6243         37.4732        -6.59246
           26419         58.4936         37.6388         65.7294         7.26721
           26420         58.1177         37.5736         64.9737         7.86560
           26421         59.2448         53.7795         63.4567         1.09955
           26422         58.9502         54.4323         62.4815         1.76308
           26423         60.3583         52.2297         65.9978        -1.47427
           26424         61.1853         51.0538         67.7567        -1.34334
           26425         60.7043         51.6256         66.8523    -790.628E-03
           26426         60.3515         51.8907         66.2182     551.490E-03
           26427         59.8683         52.5193         65.1388         1.14327
           26428         78.8699         38.1798         90.6450         1.53255
           26429         77.7669         38.7121         89.5007         1.07373
           26430         76.4182         41.2701         87.9816         2.98715
           26431         79.6798         39.6943         91.4187         3.85835
           26432         80.3190         37.7215         92.1832         1.60988
           26433         59.4753         53.1610         64.1078         1.77367
           26434         59.3842         53.0304         63.7986         3.01451
           26435         59.1457         53.6962         63.1595         2.39691
           26436         58.8971         54.2272         62.2612         3.05860
           26437         76.8335         40.8018         88.1561        -4.61993
           26438         96.2879         110.008         41.0463     245.601E-03
           26439         96.3923         110.157         41.2765     189.672E-03
           26440         96.1745         110.042         42.0765     180.757E-03
           26441         96.0693         109.894         41.8453     235.098E-03
           26442         95.8424         109.778         42.7584     209.666E-03
           26443         96.0032         109.972         42.8944     169.223E-03
           26444         62.7549         70.3584         37.7007        -8.54580
           26445         61.8606         69.3365         37.1286        -8.46593
           26446         61.8207         68.9134         37.6781        -9.12186
           26447         58.0538         39.9104         64.0085         8.84900
           26448         57.3397         39.1785         63.3594         8.57915
           26449         56.4957         39.1879         61.8427         9.22021
           26450         56.4532         38.1206         62.8889         7.66235
           26451         56.1381         38.3496         62.0109         8.43670
           26452         58.1309         37.8633         64.5944         8.54189
           26453         58.0913         38.0981         64.2608         8.97952
           26454         58.9625         38.5498         65.3895         8.85909
           26455         57.0397         37.2832         63.1943         8.68064
           26456         57.9303         64.1978         37.9177        -8.77574
           26457         57.8381         64.4953         37.5125        -8.11969
           26458         95.7418         110.014         45.5669     82.3799E-03
           26459         86.6498         46.5927         99.9765    -255.576E-03
           26460         64.3453         73.3342         37.6587        -5.94138
           26461         61.2150         40.8940         68.7341         7.33464
           26462         61.9988         39.5064         70.0155         6.99974
           26463         58.7316         55.7960         61.2674     574.499E-03
           26464         73.7345         85.0467         42.4299        -2.00581
           26465         74.3945         85.7310         42.1781        -2.69041
           26466         63.6326         72.8432         44.5840    -980.540E-03
           26467         98.0325         110.689         34.9550         1.37363
           26468         97.7506         110.487         35.3653         1.23651
           26469         97.2240         109.960         35.5393         1.43665
           26470         87.9067         100.191         36.0661     848.956E-03
           26471         100.684         113.058         33.0963    -732.377E-03
           26472         100.241         112.681         33.4507    -729.602E-03
           26473         100.339         112.786         33.4376    -364.454E-03
           26474         89.7820         101.819         34.0379    -540.792E-03
           26475         89.4937         101.604         34.4831    -266.101E-03
           26476         60.1665         65.9007         51.6304        -2.15114
           26477         59.4951         64.2573         52.7839        -2.32934
           26478         59.4197         47.5154         66.3925         2.56174
           26479         58.7503         48.2303         65.1521         2.76552
           26480         59.7821         47.1783         67.0389        -2.35752
           26481         81.8026         38.7221         93.6528        -3.99393
           26482         69.8515         44.3643         80.5118     499.618E-03
           26483         70.4199         44.0902         81.1729         1.27900
           26484         69.2887         44.6701         79.7671         1.40443
           26485         69.9171         44.3444         80.4771         2.16958
           26486         70.0825         80.4049         44.2434        -3.93741
           26487         72.0290         82.8787         43.2707        -3.32519
           26488         61.4824         67.5207         39.9773         10.3625
           26489         59.9417         65.2189         39.6172         10.8591
           26490         56.0225         42.8291         58.3872        -11.4861
           26491         56.6331         43.5800         59.0945        -11.4203
           26492         87.0141         39.6908         99.7655     952.035E-03
           26493         86.7340         39.6440         99.4509         1.04733
           26494         55.3401         58.6402         39.4022         11.2824
           26495         58.6854         54.6464         61.4301         3.69765
           26496         58.5393         55.0502         60.6423         4.36658
           26497         58.2403         56.5494         58.5009         5.16176
           26498         58.2000         57.7126         57.1450         5.44461
           26499         66.2609         43.3414         75.0517         6.63623
           26500         66.9985         43.4195         76.1063         6.21490
           26501         66.3617         43.1614         75.2954         6.36205
           26502         65.6974         42.9108         74.4724         6.43779
           26503         65.1489         40.9069         73.8288         6.84147
           26504         65.1882         40.8952         74.0183         6.46435
           26505         63.9078         40.3982         72.3372         6.87527
           26506         63.8862         40.4212         72.1561         7.25049
           26507         66.8460         41.4367         75.9728         6.52137
           26508         65.8884         41.1961         74.6887         6.89560
           26509         66.4151         41.4206         75.3351         6.83963
           26510         96.2807         110.006         41.0781    -243.670E-03
           26511         64.6289         73.0135         40.9175        -7.28506
           26512         65.5555         74.3612         40.9841        -6.72961
           26513         86.5845         44.9789         99.8153    -292.076E-03
           26514         86.6568         44.2378         99.8452    -307.784E-03
           26515         86.5361         44.0489         99.6967    -311.660E-03
           26516         86.0427         43.3927         99.0968    -321.568E-03
           26517         86.4247         43.5083         99.5308    -311.022E-03
           26518         84.7130         97.4729         41.6250    -47.5919E-03
           26519         83.9509         96.4717         40.0211    -237.680E-03
           26520         84.1712         96.6495         39.4675    -405.963E-03
           26521         68.7476         44.1451         78.5600         4.96011
           26522         74.3162         44.0142         85.6093         2.87063
           26523         75.0356         44.2083         86.4698         2.68503
           26524         50.6935         38.3032         50.8008        -12.4875
           26525         51.6677         38.1311         52.7542        -12.1674
           26526         84.0760         40.8725         96.6955    -351.648E-03
           26527         83.6207         40.8099         96.1866    -400.262E-03
           26528         71.1610         81.6849         41.9851        -4.40717
           26529         70.5570         80.9899         41.7143        -4.36964
           26530         70.0096         80.3288         41.6924        -4.45218
           26531         81.9165         41.2179         94.3277    -749.811E-03
           26532         81.2236         41.7843         93.5887        -1.00731
           26533         81.0532         42.2678         93.4230        -1.15206
           26534         80.6668         42.6721         93.0047        -1.29776
           26535         47.2811         36.2529         46.3052        -12.3255
           26536         48.7204         37.3935         47.9153        -12.5332
           26537         76.3544         87.7444         40.9606        -3.96664
           26538         77.3518         88.9245         40.9511        -3.66501
           26539         81.8960         94.1983         41.0949        -2.30302
           26540         81.2367         93.4415         40.7551        -2.26126
           26541         82.2900         94.6424         40.8697        -2.01203
           26542         82.8846         95.3377         41.3131        -2.04122
           26543         81.0807         42.9861         93.5213    -221.495E-03
           26544         81.3700         42.3210         93.8085     119.180E-03
           26545         80.8439         43.6789         93.2822    -510.761E-03
           26546         80.4632         43.2098         92.8328    -442.332E-03
           26547         83.9152         41.2770         96.5471     777.949E-03
           26548         48.4783         38.6718         47.2945        -12.2043
           26549         48.2588         39.0079         46.5190        -12.3544
           26550         52.2652         41.2867         52.2454        -12.3088
           26551         55.3233         57.9765         38.9203         12.1253
           26552         55.7075         58.1474         39.8496         12.2661
           26553         93.2450         106.312         38.4778    -916.058E-03
           26554         94.2337         107.311         38.1535    -984.585E-03
           26555         69.9519         41.8698         80.0947         5.11776
           26556         74.0631         42.1425         85.2357         3.47737
           26557         90.5555         103.692         40.1760    -181.074E-03
           26558         90.2047         103.199         39.3982    -401.101E-03
           26559         89.6880         102.711         39.8778    -173.610E-03
           26560         90.0684         103.236         40.7051     9.19914E-03
           26561         56.5472         59.4862         51.9955        -4.01900
           26562         56.3673         58.6791         52.5819        -4.26725
           26563         61.6393         49.8625         68.7538        -2.18139
           26564         79.0909         90.8202         38.0516        -2.23487
           26565         78.6199         90.2743         38.0808        -2.52990
           26566         90.8868         103.425         36.8982        -2.47127
           26567         65.6760         41.8230         74.3069        -7.08034
           26568         64.8063         41.7906         73.0579        -7.50735
           26569         87.1139         39.2036         99.8260     273.846E-03
           26570         87.1045         38.5879         99.7323     184.825E-03
           26571         87.2832         38.7023         99.9412     259.756E-03
           26572         85.9433         98.1095         36.3980         1.52322
           26573         85.4149         97.5402         36.4580         1.68763
           26574         70.7874         41.1993         81.7230    -766.221E-03
           26575         72.1964         40.6899         83.3531    -421.585E-03
           26576         75.5005         39.1094         86.9661         1.72007
           26577         74.4124         39.4627         85.7667         1.68879
           26578         73.0246         42.9090         84.2793         1.25931
           26579         72.9824         43.0206         84.2582     591.565E-03
           26580         45.4282         34.8049         44.3386        -11.9670
           26581         44.7517         35.0520         42.8497        -12.1098
           26582         46.5745         46.7750         33.9515         11.7850
           26583         44.6536         36.2111         42.5163        -11.7562
           26584         87.8722         35.5047         99.7582         4.12759
           26585         88.4019         35.3631         100.385         3.51837
           26586         38.9664         35.6173         32.1477        -10.9746
           26587         87.9415         100.954         41.0354     526.103E-03
           26588         88.9999         102.097         40.9004     258.831E-03
           26589         86.8600         99.7662         41.0633     796.343E-03
           26590         76.6457         42.7361         88.3315         2.62592
           26591         76.3148         42.4205         87.9395         2.67907
           26592         79.8784         92.1007         42.1441         1.06489
           26593         76.4217         44.7135         88.1221         2.28931
           26594         76.1130         44.3866         87.7631         2.32072
           26595         78.3893         44.8813         90.4598         1.58455
           26596         78.1504         44.4261         90.1829         1.56393
           26597         39.4624         37.6921         31.0332        -10.6963
           26598         40.8876         38.7100         32.5070        -11.1799
           26599         85.6474         98.4239         41.0712        -1.11760
           26600         84.2702         96.8972         41.2177        -1.56737
           26601         60.6285         68.4180         46.5667        -2.02703
           26602         61.4379         69.6976         45.9841        -1.56000
           26603         60.8672         68.6854         46.2876        -2.82070
           26604         80.4863         92.5091         39.8515        -2.48943
           26605         71.4203         82.4314         40.8134        -1.22255
           26606         71.5916         82.6507         40.8170    -764.539E-03
           26607         72.3351         83.4581         40.4426        -1.50248
           26608         59.6302         52.3312         64.4264         3.55690
           26609         59.3316         52.7818         63.5272         4.15099
           26610         59.0908         53.4809         62.8999         3.60833
           26611         60.1614         53.3740         64.2082        -4.99876
           26612         67.1078         45.7434         77.0229    -765.887E-03
           26613         66.3950         46.2276         76.0748    -478.924E-03
           26614         65.6396         46.7525         75.0397    -182.980E-03
           26615         60.3209         67.9675         46.9062        -1.52036
           26616         60.4054         66.3446         51.1480        -2.85682
           26617         66.6511         76.1538         46.1968        -2.99378
           26618         63.2733         72.3052         44.8332        -1.54137
           26619         62.5829         71.3809         45.2797        -1.03856
           26620         62.9461         71.9182         45.0331    -484.985E-03
           26621         64.2424         73.6631         44.1536         1.12205
           26622         72.3410         83.5193         42.9115    -316.444E-03
           26623         73.6740         85.0262         42.4253        -1.38578
           26624         72.2683         83.4074         43.0176        -1.06236
           26625         75.4961         86.8414         41.7284         3.68397
           26626         76.4879         88.0721         41.3169         2.91491
           26627         74.4745         85.5439         42.1540         4.38753
           26628         72.7166         83.6426         42.9456         3.62317
           26629         66.5981         76.5633         42.8846         2.42636
           26630         67.9973         78.2386         42.1655         2.79247
           26631         80.0316         92.2458         41.5750     894.351E-03
           26632         80.1282         92.3271         41.0783     696.728E-03
           26633         79.3555         91.4552         41.0484     886.021E-03
           26634         75.6310         44.1499         87.1951         2.41486
           26635         75.1360         43.9150         86.6169         2.46195
           26636         83.2974         95.7855         40.9947        -1.79994
           26637         80.1816         43.8633         92.5322    -743.499E-03
           26638         79.8012         43.4500         92.0869    -709.207E-03
           26639         42.8960         37.4477         37.8003         11.8941
           26640         42.9243         38.3123         36.8675         11.9433
           26641         78.5802         42.0287         90.5872        -1.79437
           26642         40.0375         33.4754         36.1165         11.3580
           26643         40.9834         33.6278         37.6013         11.5384
           26644         40.1825         32.4821         37.3497         11.2211
           26645         39.2124         32.3194         35.8468         11.0548
           26646         38.5523         31.1501         35.8962         10.7328
           26647         37.5029         30.6063         34.6942         10.4546
           26648         89.4099         102.481         40.4047     64.3537E-03
           26649         75.2082         42.2765         86.6187         3.06099
           26650         74.6258         42.4076         85.9074         3.34945
           26651         74.6445         42.0132         85.9480         3.19283
           26652         69.7528         79.3743         41.2837         6.77457
           26653         70.5708         80.4770         41.2725         6.37058
           26654         70.1306         79.9523         41.5465         6.36549
           26655         69.3147         78.8463         41.5581         6.76813
           26656         68.0477         77.0266         41.2323         7.59994
           26657         68.9191         78.2381         41.2411         7.17478
           26658         68.4342         77.6299         41.6249         7.20065
           26659         67.5724         76.4201         41.6162         7.62479
           26660         86.6573         38.6974         99.2633     83.7807E-03
           26661         86.2139         39.5848         98.8971     140.792E-03
           26662         86.2265         39.0237         98.8394     62.6991E-03
           26663         87.4678         38.3845         100.095     301.071E-03
           26664         87.4608         38.0060         100.033     204.017E-03
           26665         87.7320         37.5813         100.261     262.643E-03
           26666         87.7369         37.9587         100.323     358.911E-03
           26667         62.9796         42.0607         70.3316        -8.34651
           26668         62.3099         41.9499         69.2899        -8.72431
           26669         62.6449         41.6805         69.8144        -8.62106
           26670         63.3295         41.7916         70.8623        -8.24768
           26671         87.1624         99.6043         37.3475     684.897E-03
           26672         87.1040         99.6065         37.7609     581.129E-03
           26673         86.8310         99.3275         37.8744     627.065E-03
           26674         86.8895         99.3257         37.4572     732.862E-03
           26675         87.1609         99.7127         38.0519     484.320E-03
           26676         86.8858         99.5229         38.8048     407.192E-03
           26677         86.8594         99.4210         38.2939     516.966E-03
           26678         64.0486         44.7227         71.7430        -7.38439
           26679         64.1459         45.0075         71.9275        -7.13524
           26680         64.0714         44.5094         71.7589        -7.49810
           26681         64.0397         72.1527         42.1339         7.30020
           26682         63.0348         70.6625         42.4168         7.70902
           26683         62.8065         70.2641         42.1514         8.01262
           26684         62.0224         69.0439         42.4417         8.34195
           26685         61.6839         68.4810         42.1799         8.65319
           26686         96.3756         109.129         35.8858         1.58842
           26687         96.7991         109.589         35.9013         1.38149
           26688         95.6838         108.320         35.6404         2.03939
           26689         95.4372         108.030         35.5655         2.23942
           26690         84.6356         96.7539         36.8007         1.65248
           26691         85.3678         97.5612         36.8276         1.43145
           26692         84.5959         96.7802         37.1716         1.39091
           26693         88.1960         35.6706         100.270         3.09505
           26694         88.8556         35.2654         100.922         2.91207
           26695         88.6839         34.9547         100.830     502.100E-03
           26696         88.5488         34.7521         100.642     788.639E-03
           26697         87.9131         35.2714         100.059     812.183E-03
           26698         85.1832         42.7132         98.0844     486.759E-03
           26699         85.5697         42.3477         98.4797     573.949E-03
           26700         85.4285         41.7188         98.2626     688.439E-03
           26701         57.8812         62.7883         37.6918         10.8596
           26702         54.1171         57.2792         38.1843         11.2084
           26703         55.1347         58.8702         38.4882         10.9331
           26704         55.1924         38.6673         58.7410        -11.1340
           26705         86.1757         39.8536         98.8653         1.11646
           26706         86.5860         39.3848         99.2507         1.18910
           26707         86.4546         38.8749         99.0294         1.42259
           26708         86.0343         39.3493         98.6378         1.34664
           26709         56.1532         44.0043         57.9160        -11.7060
           26710         56.6631         44.8501         58.4511        -11.6072
           26711         55.6390         43.3501         57.3057        -11.7860
           26712         55.3480         42.1193         57.5634        -11.5522
           26713         87.2063         99.7935         38.2638    -428.407E-03
           26714         86.8983         99.4522         38.2173    -519.440E-03
           26715         57.0984         60.6465         41.7156         11.1346
           26716         56.4244         59.3579         41.8156         11.4585
           26717         56.4000         41.2487         59.3984        -11.5677
           26718         66.5974         76.2006         46.1917        -2.22474
           26719         67.4931         77.4634         45.5887        -1.61868
           26720         59.2845         63.6729         53.3428         1.95358
           26721         59.7791         65.0122         52.3814         1.69020
           26722         62.0750         69.5208         49.1034         2.75247
           26723         62.7245         70.4996         48.2019         3.60356
           26724         62.8775         70.8520         48.2740         2.79911
           26725         64.4694         73.4054         47.3980     467.209E-03
           26726         63.7221         72.2880         48.0006     505.408E-03
           26727         64.1842         72.9739         47.4970         1.22526
           26728         63.4060         71.7966         48.1231        -1.26631
           26729         62.5514         70.3912         48.8170        -1.91057
           26730         63.6797         72.1651         47.7476        -2.09596
           26731         57.1144         50.3239         60.5085        -6.14544
           26732         57.5307         49.5367         61.6949        -5.93847
           26733         44.1737         41.2845         35.6150         12.2315
           26734         45.4722         42.4487         36.8405         12.5491
           26735         44.7963         41.4087         36.6290         12.4780
           26736         46.4519         36.1494         44.8766        -12.3741
           26737         44.3334         35.4604         41.7099        -12.2112
           26738         46.1767         45.3713         34.8965         12.1005
           26739         45.7985         44.1432         35.6517         12.2694
           26740         95.6065         110.063         47.6051     10.5798E-03
           26741         95.6673         110.073         46.9672     30.1679E-03
           26742         95.7248         110.104         46.6228    -6.38864E-03
           26743         86.5934         50.6541         99.9862    -129.910E-03
           26744         86.5912         51.4930         99.9715    -110.936E-03
           26745         66.8777         76.7612         39.2748        -4.18815
           26746         66.1242         75.7570         38.7452        -4.73663
           26747         67.5829         77.4599         39.4445        -4.72254
           26748         64.7453         74.0290         37.9219        -5.19331
           26749         63.7447         72.9236         37.4239        -4.96922
           26750         61.2649         40.7929         69.8572         4.43401
           26751         60.6463         40.3476         68.9853         4.98223
           26752         62.0015         41.1740         70.5780         4.95381
           26753         62.1551         40.1344         71.0770         4.21011
           26754         61.7308         39.6972         70.4410         4.80286
           26755         60.9742         69.7709         39.4435        -3.91966
           26756         75.0475         86.4842         41.9013        -2.62639
           26757         75.1565         86.6557         41.8385        -2.18887
           26758         76.1438         87.7393         41.4444        -2.47376
           26759         67.6648         78.0251         42.4166    -578.004E-03
           26760         101.113         113.409         32.7511        -1.11337
           26761         90.2862         102.233         33.4650    -668.053E-03
           26762         89.8805         101.878         33.8447    -798.751E-03
           26763         60.9177         46.0073         68.5315        -4.10987
           26764         61.8330         45.3126         69.9318        -4.01739
           26765         63.5158         44.4370         72.6589        -1.73628
           26766         95.5932         110.049         47.6052    -23.4111E-03
           26767         96.1265         110.191         43.5268    -53.8565E-03
           26768         96.1248         110.141         43.1690    -97.6030E-03
           26769         62.2169         70.2149         39.5762        -7.15021
           26770         63.2327         71.5955         40.0322        -6.73333
           26771         86.6903         46.1359         100.000    -268.374E-03
           26772         86.7256         45.1276         99.9827    -299.746E-03
           26773         86.6670         45.4314         99.9356    -284.024E-03
           26774         86.6046         49.8456         100.002    -152.581E-03
           26775         58.6607         53.7520         61.0671         5.91860
           26776         58.5124         54.0371         60.3182         6.45045
           26777         58.3948         54.8344         59.7725         5.99940
           26778         58.5376         54.5491         60.5204         5.46675
           26779         86.2508         38.5858         98.8074    -16.6517E-03
           26780         82.6798         37.9080         94.8256    -751.186E-03
           26781         82.0546         39.6712         94.2615        -2.11328
           26782         85.4796         39.8851         98.1031        -1.23502
           26783         85.7767         39.4844         98.3743        -1.33903
           26784         85.6657         40.1305         98.3410        -1.10799
           26785         81.0493         93.3191         40.5459     304.606E-03
           26786         80.2382         92.4148         40.5383     471.221E-03
           26787         74.6442         43.7570         86.0426         2.49790
           26788         84.4664         97.0146         39.8248    -320.616E-03
           26789         47.9486         46.3409         37.5861         12.6576
           26790         47.3838         46.0840         36.7310         12.4504
           26791         46.5591         44.9569         36.3234         12.3859
           26792         85.2886         41.6685         98.1105    -329.208E-03
           26793         71.1157         81.6713         41.7736        -4.23908
           26794         69.9237         80.1630         41.7275        -4.72680
           26795         72.6517         83.6468         41.4918        -3.19252
           26796         73.4891         84.6508         41.5153        -2.92525
           26797         74.3169         85.6358         41.4931        -2.65329
           26798         75.2080         86.6902         41.5135        -2.34435
           26799         49.8338         38.1935         49.2751        -12.6308
           26800         49.3501         38.2221         48.3413        -12.7191
           26801         82.1886         40.5204         94.5751    -524.310E-03
           26802         81.6110         41.8894         94.0471     344.322E-03
           26803         80.1936         92.2561         40.7343        -2.48548
           26804         78.6143         90.4303         40.8486        -3.05075
           26805         78.9827         90.8765         40.7268        -2.71799
           26806         48.0363         39.3953         45.6768        -12.4978
           26807         49.0314         40.5340         46.4749        -12.7144
           26808         53.3804         41.2385         54.4684        -11.9477
           26809         69.2402         41.8439         79.1528         5.48288
           26810         94.5950         108.019         40.0023    -539.309E-03
           26811         94.9532         108.312         39.4493    -626.708E-03
           26812         94.2337         107.583         39.7053    -601.116E-03
           26813         71.9377         41.7552         82.6754         4.01820
           26814         72.5030         41.7020         83.3850         3.73656
           26815         51.4991         52.6281         37.1420         12.3507
           26816         49.7789         50.4522         36.1086         12.2534
           26817         50.7837         51.1737         37.4675         12.5668
           26818         91.0194         104.012         38.9931    -661.573E-03
           26819         92.2046         105.247         38.7683    -804.945E-03
           26820         91.6160         104.581         38.5638    -863.953E-03
           26821         66.4827         42.7990         76.5860     439.909E-03
           26822         76.8367         41.1816         88.4971         2.62444
           26823         76.9618         88.7548         43.7268        -2.20847
           26824         34.8437         27.0890         33.7169         9.25204
           26825         76.2823         43.9272         87.9087         2.77058
           26826         75.3241         45.1382         86.7752         2.78151
           26827         75.9276         44.6479         87.5281         2.47338
           26828         80.5053         44.3807         92.9153    -785.661E-03
           26829         72.2280         83.1837         43.1634         2.87314
           26830         74.1561         85.3370         42.3039         3.52131
           26831         71.0628         82.0054         43.4937     128.031E-03
           26832         65.1483         74.7879         43.6912         1.79964
           26833         64.6290         74.1655         43.9198        -1.26165
           26834         65.8232         75.7439         43.3276    -164.303E-03
           26835         65.2598         43.4247         75.0448     270.882E-03
           26836         64.8685         43.6698         74.5282    -593.367E-03
           26837         66.0719         43.0466         76.0687    -424.465E-03
           26838         79.9906         39.8739         91.9064         2.96960
           26839         80.2223         39.9529         92.2120         2.61173
           26840         81.1366         39.4861         93.1526         2.87615
           26841         80.9058         39.4055         92.8445         3.23706
           26842         80.5609         39.2657         92.3305         4.03174
           26843         79.7556         39.8082         91.5819         3.40289
           26844         80.6319         39.3856         92.4922         3.57425
           26845         80.9553         37.7231         92.8958         1.34323
           26846         80.4579         38.2205         92.4283     881.543E-03
           26847         81.3599         37.7758         93.3541         1.14876
           26848         81.0703         37.3174         92.9377         1.87820
           26849         60.9756         51.1061         67.4950    -92.6459E-03
           26850         61.6592         50.3579         68.7584    -497.460E-03
           26851         68.6217         44.9310         78.9831    -446.517E-03
           26852         66.3487         46.3675         75.9944     490.963E-03
           26853         62.8821         48.4986         70.8380        -2.55366
           26854         62.2445         49.1554         69.8060        -2.35152
           26855         57.5411         62.7496         50.0632        -1.69238
           26856         57.1101         61.5387         50.7497        -2.71310
           26857         59.0947         54.0261         62.9829        -1.75461
           26858         59.1863         53.9872         63.2545    -856.938E-03
           26859         58.8883         54.8927         62.1845    -627.916E-03
           26860         58.7930         54.9303         61.9127        -1.52547
           26861         72.0421         83.1776         40.7081    -371.437E-03
           26862         70.5438         81.4521         41.2308    -330.675E-03
           26863         73.6820         84.9336         39.8778        -2.00403
           26864         74.7719         86.1501         39.4979        -1.97160
           26865         58.4206         59.8878         55.0222         5.60151
           26866         58.6243         61.0984         54.6082         4.40509
           26867         83.9817         96.0553         38.5735        -3.81126
           26868         97.2203         110.050         35.9371         1.19244
           26869         98.0777         110.861         35.4632     978.981E-03
           26870         86.4686         98.8963         37.6329     786.143E-03
           26871         86.5811         98.9309         37.0946     957.031E-03
           26872         77.5875         42.4431         89.4412        -2.22340
           26873         42.5669         39.2957         34.7189        -11.9260
           26874         42.9798         40.3297         34.4120        -11.8942
           26875         77.7142         89.6031         41.5056        -1.53940
           26876         44.5713         36.7111         41.8222         11.9043
           26877         77.7774         89.6814         41.8036         1.63690
           26878         77.6087         89.4934         42.1852         1.80289
           26879         78.6203         43.9566         90.7338         1.25018
           26880         78.3221         43.4986         90.3881         1.15121
           26881         79.4143         43.9246         91.6519     995.796E-03
           26882         43.7033         33.6021         42.4250         11.6414
           26883         42.2472         33.1756         40.2599         11.5324
           26884         78.6802         42.4119         90.7127         1.85404
           26885         44.7608         44.0218         33.6783        -11.7468
           26886         78.1136         44.3333         90.1402        -1.55456
           26887         70.1788         80.9734         41.2706        -1.51982
           26888         70.2433         81.0858         41.3112    -884.526E-03
           26889         78.3159         90.2222         40.6233        -1.65348
           26890         73.5581         84.8918         40.2108    -529.193E-03
           26891         84.4085         96.8045         38.8791        -1.38585
           26892         82.7192         95.0402         39.3974    -818.862E-03
           26893         77.8814         39.0740         89.6795     392.178E-03
           26894         77.1787         41.1726         88.9265         2.21900
           26895         68.3134         78.6149         44.9189     50.5991E-03
           26896         69.5905         80.1700         44.3655        -1.16941
           26897         68.4080         78.7005         44.9860    -923.972E-03
           26898         70.7952         81.5406         43.8269        -2.30774
           26899         69.6404         80.1536         44.4049        -2.04994
           26900         70.7413         81.5610         43.7889        -1.42983
           26901         79.3857         43.0886         91.6040    -646.188E-03
           26902         78.9376         42.8365         91.0876    -603.472E-03
           26903         47.1916         39.3555         44.0479        -12.5366
           26904         47.4489         40.4354         43.3832        -12.7605
           26905         46.3152         39.5121         42.1321        -12.5633
           26906         46.0529         38.4356         42.7962        -12.3417
           26907         74.4860         41.6672         85.7841         3.02626
           26908         75.1650         41.8475         86.5845         2.88892
           26909         47.3006         47.0031         35.1978         12.1598
           26910         48.2803         48.2748         35.6856         12.2445
           26911         48.8717         48.1056         37.2021         12.6481
           26912         88.8760         101.813         39.7488    -84.6679E-03
           26913         74.0699         43.6401         85.3732         2.51688
           26914         75.5140         44.4477         87.0354         2.59013
           26915         47.1345         44.9815         37.4159         12.6676
           26916         46.3252         43.7243         37.1437         12.6312
           26917         45.8794         36.3188         43.6711        -12.4470
           26918         45.4777         36.7255         42.5343        -12.5484
           26919         75.1781         86.6687         41.2423        -2.14293
           26920         76.0289         87.6596         41.2272        -1.86773
           26921         66.7668         42.7470         76.9061        -1.07181
           26922         66.2293         43.0053         76.1780        -1.81081
           26923         67.2622         42.5518         77.4658        -1.72286
           26924         67.7002         41.7113         77.0783         6.25730
           26925         68.4935         41.8061         78.1467         5.87938
           26926         67.9958         41.8154         77.5182         5.98015
           26927         59.5708         65.1785         38.2306         10.4989
           26928         58.6851         63.9943         37.8153         10.6245
           26929         95.5668         108.934         39.2374    -611.723E-03
           26930         95.2949         108.587         38.9215    -688.385E-03
           26931         54.5679         41.3636         56.6403        -11.5677
           26932         55.0001         40.8654         57.8048        -11.1931
           26933         74.8536         85.8484         40.9690        -4.89116
           26934         74.6585         85.6507         41.0254        -4.78263
           26935         74.3616         85.3210         41.0802        -4.73998
           26936         75.2219         86.3804         41.0453        -4.37989
           26937         53.0232         38.3732         55.0567        -11.8380
           26938         85.5552         41.0551         98.3436    -262.188E-03
           26939         85.1875         40.7131         97.9036    -255.557E-03
           26940         84.7268         40.5243         97.3776    -245.321E-03
           26941         85.3889         40.1608         98.0644    -174.060E-03
           26942         67.7203         77.2281         41.6051        -5.88656
           26943         68.2940         78.0085         41.6748        -5.56613
           26944         68.2354         77.9876         41.7386        -5.38455
           26945         68.7602         78.6584         41.7201        -5.22467
           26946         67.7716         77.3344         41.6964        -5.72576
           26947         67.4664         43.8822         76.6990         6.02908
           26948         68.0926         43.9706         77.5728         5.67374
           26949         68.1284         44.1517         77.6840         5.39067
           26950         81.6325         93.8954         40.5796        -1.91957
           26951         80.5934         92.7212         40.5617        -2.14105
           26952         80.7967         41.8257         93.1328     335.523E-03
           26953         79.9828         41.7025         92.2133     359.670E-03
           26954         79.4771         42.0882         91.6702     34.9596E-03
           26955         49.3759         41.4856         46.1963        -12.9010
           26956         49.7220         42.7748         45.5594        -13.1114
           26957         48.4786         41.1332         44.7305        -12.8754
           26958         48.1053         40.1757         45.0102        -12.6811
           26959         82.5467         94.7957         38.8468    -622.640E-03
           26960         71.4868         43.8704         82.1806         3.53100
           26961         73.4914         43.5981         84.6934         2.56221
           26962         72.7391         43.6314         83.8028         2.63368
           26963         73.2873         43.4820         84.4940         2.24229
           26964         50.2207         47.7691         40.8509         13.2016
           26965         51.1657         49.3436         41.2352         13.1338
           26966         47.7614         38.6551         44.9433        -12.9657
           26967         49.0460         39.5258         46.5944        -13.0878
           26968         48.5611         39.7198         45.4774        -13.1488
           26969         72.0223         82.9251         41.4203        -3.15051
           26970         71.3325         82.0875         41.5010        -3.38335
           26971         71.3063         82.0878         41.4543        -3.19405
           26972         72.0144         82.9448         41.3725        -2.95443
           26973         74.3438         85.6909         41.2989        -2.40930
           26974         77.2822         89.1057         41.4870         1.65927
           26975         76.5196         88.2243         41.4127         1.85497
           26976         77.8663         43.9604         89.8548         1.50722
           26977         85.6648         98.3326         39.9050    -489.538E-03
           26978         85.8531         98.5042         39.5925    -211.153E-03
           26979         86.7602         99.4885         39.5538    -62.5488E-03
           26980         45.8075         44.4784         35.2485        -12.1839
           26981         46.5022         44.6449         36.4893        -12.4750
           26982         47.5283         46.1325         36.8134        -12.5671
           26983         44.7395         42.8613         35.0464        -12.0888
           26984         43.9834         41.3044         35.2445        -12.1390
           26985         43.8853         40.4647         35.9170        -12.2729
           26986         45.0925         42.3336         36.2463        -12.4076
           26987         76.8581         88.6155         41.1779        -1.61613
           26988         77.6745         89.5519         41.1577        -1.36238
           26989         79.4256         42.4849         91.5754         1.63178
           26990         87.0167         99.8284         40.0545     363.024E-03
           26991         86.5669         99.3132         39.8493     321.014E-03
           26992         85.8244         98.5262         40.0879     603.376E-03
           26993         45.0062         34.9075         43.4525         12.0516
           26994         45.8135         36.4971         43.3698         12.5003
           26995         41.1436         32.6061         38.9114         11.3180
           26996         39.0577         31.0575         36.8685         10.7501
           26997         87.1909         40.0021         100.012     380.778E-03
           26998         87.2531         39.4733         100.012     354.660E-03
           26999         87.4234         39.2010         100.160     415.240E-03
           27000         88.2202         37.3421         100.740     749.052E-03
           27001         88.0426         37.6590         100.602     620.458E-03
           27002         88.2041         37.2101         100.706     557.996E-03
           27003         67.1374         75.7513         41.1697         8.01830
           27004         66.7081         75.1721         41.6234         8.07342
           27005         65.8324         73.8996         41.5801         8.49717
           27006         67.6067         76.3842         40.8011         7.91510
           27007         72.6924         83.1773         41.0432         5.62848
           27008         72.3100         82.7204         41.1461         5.67740
           27009         71.6889         81.9072         41.1131         5.99104
           27010         72.9306         83.5266         41.1474         5.35321
           27011         72.5324         83.0536         41.2579         5.39909
           27012         62.4364         41.4616         69.5134        -8.74185
           27013         63.4719         41.5137         71.0799        -8.24095
           27014         60.5849         42.2832         66.4605        -9.58871
           27015         61.2488         42.3252         67.5772        -9.19302
           27016         60.9132         42.8362         67.0109        -9.22874
           27017         65.3053         42.0231         73.8319        -7.07882
           27018         86.5845         99.2009         38.8458     450.975E-03
           27019         88.0349         100.481         36.9216     354.256E-03
           27020         87.9075         100.331         36.8539     504.054E-03
           27021         88.0997         100.468         36.4377     529.607E-03
           27022         87.7911         100.367         37.8516     207.787E-03
           27023         64.6844         44.7814         72.7488        -6.93079
           27024         64.7598         44.5853         72.8348        -7.03429
           27025         60.9653         67.2996         42.4860         8.97710
           27026         61.3034         67.8891         42.7908         8.62452
           27027         60.6547         66.8016         43.1551         8.88829
           27028         60.5819         66.7843         41.2532         9.36765
           27029         60.2388         66.1294         41.7946         9.53382
           27030         59.9197         65.6613         41.4462         9.70554
           27031         64.8545         73.4235         42.2891         6.62682
           27032         96.8501         109.737         36.3124         1.14251
           27033         96.4439         109.291         36.2675         1.33024
           27034         88.0601         100.388         36.2338     675.825E-03
           27035         87.7708         100.152         36.6757     645.114E-03
           27036         61.9360         49.6630         69.3160         1.56920
           27037         61.4178         50.1817         68.3674         1.88260
           27038         61.0918         50.4520         67.7265         2.37057
           27039         61.7576         49.7069         68.9692         2.21448
           27040         86.9156         38.4031         99.4618         1.47488
           27041         86.8949         38.8037         99.5044         1.29158
           27042         61.5695         67.3112         41.7280         10.4490
           27043         61.0946         66.4766         42.1048         10.6393
           27044         60.6023         65.7331         41.7115         10.8593
           27045         56.0763         58.2775         42.7714         11.7119
           27046         55.8381         58.1334         42.0441         11.7595
           27047         68.8657         79.4508         41.8734        -1.08611
           27048         69.1099         79.7663         41.7854    -432.356E-03
           27049         76.4695         88.2298         41.2552    -587.274E-03
           27050         74.7577         86.3035         41.8044     478.823E-03
           27051         63.2345         71.4836         48.5794    -676.070E-03
           27052         62.6882         70.6531         48.9546     253.584E-03
           27053         63.3485         71.6985         48.3987    -109.011E-03
           27054         56.2453         53.0395         57.9728        -4.63153
           27055         56.5121         51.9863         59.4630        -3.93535
           27056         43.2599         40.5859         34.6582         11.9672
           27057         41.7862         36.0257         37.2934        -11.5608
           27058         42.0435         35.5417         38.3320        -11.5106
           27059         43.4300         37.8645         38.3401        -12.0306
           27060         95.4362         109.921         48.1672     65.2702E-03
           27061         95.5096         109.905         47.0318     84.2697E-03
           27062         96.1108         110.098         42.9634     125.194E-03
           27063         86.5522         50.4517         99.9400    -134.709E-03
           27064         64.0850         73.5337         37.8303        -4.09666
           27065         58.6817         39.1279         66.8754         4.35616
           27066         58.4580         38.9095         66.3340         5.29809
           27067         59.8255         38.7343         68.4002         4.06579
           27068         59.5007         68.0914         38.5072        -3.79036
           27069         58.9876         67.3043         37.9743        -4.59923
           27070         58.3164         55.6569         59.1781         5.61957
           27071         58.4018         55.3739         59.8858         4.97678
           27072         85.5600         39.2924         98.1060        -1.49004
           27073         83.5638         95.5526         36.7307        -2.09617
           27074         84.0817         96.0239         36.3073        -2.40092
           27075         79.5424         91.4142         38.3805        -1.40248
           27076         79.6242         91.5537         38.6698    -990.029E-03
           27077         80.5087         92.4815         38.3254        -1.20637
           27078         94.0280         106.597         35.9395        -2.43048
           27079         94.8319         107.356         35.5342        -2.57950
           27080         94.3661         106.827         35.4963        -2.88006
           27081         88.8268         101.374         37.6464        -2.04581
           27082         79.7205         40.4522         91.7568         1.95231
           27083         79.3035         40.8013         91.3440         1.58312
           27084         80.1174         40.6877         92.2539         1.42795
           27085         80.5352         40.3402         92.6667         1.79416
           27086         63.9722         72.5304         48.0423        -1.65824
           27087         62.2454         49.7668         69.7744     760.953E-03
           27088         59.9924         52.2564         65.4374        -1.39402
           27089         60.2297         52.0886         65.9442    -481.784E-03
           27090         58.6350         55.8568         61.0583    -400.098E-03
           27091         58.9826         54.8373         62.3935     345.749E-03
           27092         58.3677         59.7978         56.2025        -3.32046
           27093         58.2655         58.5788         57.2683        -3.57975
           27094         58.2505         58.6774         55.3304         6.71496
           27095         58.1423         57.6132         56.1285         6.94219
           27096         58.4094         59.7949         54.5216         6.42222
           27097         58.2588         58.7717         55.8299         5.89403
           27098         98.2602         111.091         35.6003     690.843E-03
           27099         99.9768         112.500         33.8187    -16.6928E-03
           27100         99.5529         112.162         34.2740     38.6987E-03
           27101         87.3629         99.8395         37.4561     572.108E-03
           27102         87.4192         99.9461         37.7455     476.046E-03
           27103         88.8984         101.162         35.4954     46.9136E-03
           27104         88.6689         100.977         35.8336     195.484E-03
           27105         79.9612         92.1665         41.5716    -901.627E-03
           27106         76.6587         88.3840         42.2744         2.16645
           27107         80.1465         43.9219         92.4935     770.045E-03
           27108         79.7018         43.6304         91.9321         1.66204
           27109         79.9868         43.0218         92.2402         1.53756
           27110         85.7311         98.5150         41.0512         1.09186
           27111         47.4057         48.7611         33.1478        -11.3609
           27112         77.4142         44.4562         89.3143        -1.83863
           27113         99.6057         112.103         33.8563        -1.07198
           27114         99.7616         112.278         33.8647    -717.131E-03
           27115         89.4061         101.418         34.1187        -1.15207
           27116         63.0900         44.4134         71.6495        -4.33402
           27117         62.5269         44.8535         70.9172        -4.05835
           27118         77.4445         89.2201         40.9332         2.15644
           27119         68.9843         79.3741         41.6792         3.14517
           27120         69.0846         79.5855         41.6692         2.50164
           27121         68.9454         79.5026         41.7984         1.71107
           27122         68.7481         79.3213         41.9238     871.529E-03
           27123         67.5620         77.8961         42.4740     668.367E-03
           27124         85.8792         42.0846         98.7967     622.486E-03
           27125         85.8622         41.3940         98.7068     750.256E-03
           27126         85.7679         40.8056         98.5367     896.474E-03
           27127         59.4072         64.6188         38.9504         10.8540
           27128         58.9441         63.5238         39.8820         11.2845
           27129         58.4119         62.9350         39.2085         11.2755
           27130         58.0748         62.7827         38.3239         11.0810
           27131         54.4423         38.7214         57.3702        -11.4708
           27132         54.9282         39.5328         57.6699        -11.6662
           27133         60.6760         68.4352         46.7335        -2.03278
           27134         60.8827         68.8819         46.5497    -717.221E-03
           27135         60.1102         68.6569         38.6920        -4.42992
           27136         60.7692         39.1954         69.3928         4.51448
           27137         61.5163         39.9529         70.4241         3.74649
           27138         95.5675         110.008         47.4633     47.9872E-03
           27139         95.5136         110.029         48.4522     28.0346E-03
           27140         59.7947         39.8148         68.0521         4.78119
           27141         60.3226         40.3094         68.8782         3.92408
           27142         65.2468         74.7912         38.3425        -4.50788
           27143         65.9007         75.7231         38.9817        -3.70359
           27144         60.1999         46.5430         67.2439        -4.68234
           27145         64.9050         42.3206         73.3179        -7.04660
           27146         64.4922         42.0686         72.6313        -7.52030
           27147         63.7123         42.0721         71.4672        -7.92479
           27148         64.0199         41.7938         71.8950        -7.91005
           27149         64.3472         45.1582         72.2795        -6.85527
           27150         63.9712         45.6677         71.7725        -6.66229
           27151         87.3388         37.2922         99.7943    -42.3116E-03
           27152         86.9332         37.7778         99.4309    -38.1741E-03
           27153         87.3804         37.6659         99.8963     99.3184E-03
           27154         87.0205         38.2472         99.5935     83.7411E-03
           27155         40.8977         34.0141         37.0628        -11.5854
           27156         41.6269         35.3584         36.9934        -11.8617
           27157         41.6293         38.7984         33.8096         11.4943
           27158         40.7487         39.1423         31.7320         11.0073
           27159         41.8981         40.7752         32.0013         11.1596
           27160         40.7739         35.6963         35.8050        -11.3195
           27161         40.6678         34.9528         36.4515        -11.2182
           27162         41.8832         36.7576         36.6503        -11.6477
           27163         39.3561         34.0992         34.9763        -10.8852
           27164         65.6927         74.6304         42.1563         6.18635
           27165         65.4450         74.3633         42.4019         6.01051
           27166         68.1302         44.4499         77.8282        -4.76646
           27167         67.2154         44.5603         76.5484        -5.28042
           27168         67.7946         44.2765         77.2560        -5.41111
           27169         68.7126         44.1707         78.5318        -4.89660
           27170         86.4934         99.0536         38.5033     538.494E-03
           27171         86.4707         98.9675         38.0822     648.774E-03
           27172         69.4745         41.8563         79.5170        -5.16679
           27173         68.6628         41.8668         78.4714        -5.45675
           27174         68.3519         41.8420         78.0103        -5.76573
           27175         69.1538         41.8327         79.0536        -5.47190
           27176         86.5643         38.2270         99.0972    -38.8423E-03
           27177         73.3922         84.0679         41.0453         5.31904
           27178         72.9040         83.5574         41.2974         5.11130
           27179         76.1749         87.8275         41.2305         1.84097
           27180         74.9627         41.4138         86.3723        -2.65433
           27181         78.4337         90.4009         40.7228    -921.453E-03
           27182         75.3352         43.2800         86.9210        -1.72450
           27183         76.4618         43.0746         88.2458        -1.26631
           27184         87.6310         100.422         39.4497     88.0825E-03
           27185         48.4617         47.3846         37.2444        -12.6610
           27186         45.5250         36.8883         42.4769         12.5750
           27187         44.4073         36.1616         41.1451         12.3734
           27188         84.5084         97.0846         40.1687     911.912E-03
           27189         89.0805         101.273         35.0584    -376.885E-03
           27190         88.9968         101.224         35.2607    -136.928E-03
           27191         99.4258         112.049         34.3688    -355.415E-03
           27192         99.0556         111.769         34.8491    -304.301E-03
           27193         99.1796         111.880         34.7568     83.9791E-03
           27194         99.9097         112.434         33.8472    -361.401E-03
           27195         64.9258         43.6003         74.3994        -2.76494
           27196         80.5258         40.6889         92.7133        -1.34920
           27197         81.0365         40.3359         93.2347        -1.62519
           27198         88.9116         100.984         34.5856        -1.13619
           27199         88.5015         100.634         35.0410        -1.12901
           27200         99.0990         111.668         34.2763        -1.07706
           27201         98.8855         111.421         34.2323        -1.42750
           27202         82.1166         40.8293         94.5074        -1.02153
           27203         82.2527         41.2732         94.7063    -727.556E-03
           27204         81.6005         41.4975         94.0024    -583.690E-03
           27205         83.4402         40.3034         95.9097        -1.25423
           27206         83.5313         40.6594         96.0546        -1.05326
           27207         82.8832         41.0252         95.3791    -879.982E-03
           27208         82.7886         40.6705         95.2344        -1.07955
           27209         87.3197         37.7958         99.8044        -1.57972
           27210         87.6375         37.3399         100.072        -1.67043
           27211         86.7234         39.2188         99.3779        -1.20349
           27212         87.1771         38.7219         99.8030        -1.21031
           27213         86.9577         39.2657         99.6436        -1.09087
           27214         76.5422         88.1647         39.1729        -1.26924
           27215         74.5219         85.9095         39.6822        -1.57845
           27216         74.2030         85.5963         39.9231    -961.377E-03
           27217         85.1425         97.5350         38.5575        -1.84250
           27218         62.1348         70.7783         45.5475     347.756E-03
           27219         61.2517         69.4717         46.2051     407.243E-03
           27220         61.1607         69.3063         46.2183         1.20443
           27221         63.3641         72.3686         44.5648         2.37110
           27222         70.9549         81.6165         43.7853        -3.15154
           27223         69.8056         80.2307         44.3716        -2.99905
           27224         67.1655         77.1299         45.5952     84.8514E-03
           27225         66.8549         76.7159         45.6584     873.028E-03
           27226         68.0011         78.2098         44.9790     829.973E-03
           27227         95.7766         109.211         39.5369    -527.610E-03
           27228         74.0614         84.8313         40.8753        -5.33739
           27229         80.9113         40.5960         93.1330         1.37467
           27230         81.2028         93.4303         40.1758        -1.18629
           27231         52.7417         52.6379         40.3837         12.9848
           27232         52.9594         52.5391         41.1329         13.0832
           27233         52.3091         51.4891         40.9294         13.1316
           27234         52.0796         51.5704         40.1817         13.0435
           27235         81.4130         93.4708         38.2616        -1.10793
           27236         81.2968         93.3002         38.0120        -1.39748
           27237         72.4955         43.5747         83.5628         2.26036
           27238         71.7848         43.7589         82.6478         2.83655
           27239         70.9739         43.9145         81.6726         2.88676
           27240         50.3605         47.2769         41.7226         13.3268
           27241         49.5338         46.6997         40.5084         13.2102
           27242         51.3165         42.5614         48.4662        -13.3632
           27243         50.3150         41.5841         47.2549        -13.3465
           27244         81.8190         38.9771         94.0198     109.406E-03
           27245         80.7994         39.1850         92.9201    -43.9342E-03
           27246         80.5809         39.7144         92.7266    -371.019E-03
           27247         71.6215         82.5142         41.3426        -2.77999
           27248         72.2909         83.3213         41.2294        -2.51427
           27249         79.3599         91.4385         40.6322     672.379E-03
           27250         78.5186         90.4949         40.6915     897.318E-03
           27251         78.5197         90.5129         41.1084         1.11044
           27252         77.8306         89.7375         41.5077         1.49383
           27253         76.9542         43.2340         88.8083         1.34153
           27254         85.1335         97.7266         39.6707    -334.564E-03
           27255         84.7286         97.3016         39.8689    -609.125E-03
           27256         84.0581         96.5633         39.8394    -616.380E-03
           27257         84.4661         96.9932         39.6413    -340.228E-03
           27258         84.4109         96.9750         40.1411    -900.370E-03
           27259         43.1386         39.3444         36.0829         11.9812
           27260         44.4702         40.4727         37.3742         12.3202
           27261         43.4716         39.2170         36.8747        -12.0855
           27262         44.1603         40.5053         36.7314        -12.2212
           27263         42.4923         38.8196         35.4523        -11.8040
           27264         43.6222         38.7078         37.1944        -12.3948
           27265         42.4460         37.6528         36.1452        -12.0889
           27266         42.2221         36.5917         36.8104        -12.0513
           27267         43.4040         37.6527         37.8601        -12.3603
           27268         42.4239         38.4197         35.3401        -12.0077
           27269         41.4354         36.7148         35.2988        -11.8166
           27270         80.0380         40.6584         92.1879    -927.077E-03
           27271         79.1358         40.6858         91.1745        -1.13421
           27272         41.6042         35.7078         36.5984         11.8781
           27273         41.7424         35.0795         37.4641         11.8676
           27274         41.9597         34.1239         38.7960         11.7603
           27275         42.6889         35.5801         38.6551         12.0766
           27276         87.4967         100.289         39.5463    -18.1480E-03
           27277         87.7707         100.634         39.9130     154.329E-03
           27278         77.6022         41.0770         89.4457         1.67533
           27279         87.0219         40.1925         99.8515     333.262E-03
           27280         61.7398         41.1880         68.4723        -9.07621
           27281         60.6792         50.8702         66.8553         2.91560
           27282         87.6724         38.6534         100.343     850.452E-03
           27283         60.3101         44.6827         65.4718        -9.65521
           27284         59.6816         45.1331         64.2186        -9.98758
           27285         56.8683         45.4707         58.5413        -11.5650
           27286         56.3185         45.7220         57.2333        -11.8665
           27287         56.0940         45.0974         57.1304        -11.9067
           27288         64.1118         71.3258         41.4616         9.33035
           27289         64.9804         72.6261         41.5473         8.92817
           27290         63.7365         70.7342         42.0585         9.39983
           27291         62.9330         69.4780         41.9827         9.79267
           27292         59.5256         63.9520         41.6240         11.2964
           27293         60.0170         64.6581         42.1479         11.1074
           27294         86.3363         98.8534         38.2989    -610.481E-03
           27295         86.8131         99.3069         37.8675    -637.738E-03
           27296         86.6949         99.0942         37.3322    -828.597E-03
           27297         86.2114         98.6373         37.7645    -799.792E-03
           27298         87.9220         100.495         37.7620    -85.6746E-03
           27299         55.2989         56.9153         42.3736         12.0388
           27300         54.9864         56.6982         41.6403         12.0531
           27301         60.2617         66.3259         41.0017         9.49897
           27302         59.7144         65.4380         40.9789         9.76366
           27303         59.2497         64.5214         41.5086         10.0457
           27304         59.4665         41.5136         64.7112        -10.1938
           27305         60.1627         41.6841         65.8315        -9.87123
           27306         59.3284         42.0472         64.3461        -10.2802
           27307         55.9096         42.3705         57.9514        -11.9399
           27308         55.6752         41.4264         57.9676        -11.8985
           27309         63.5009         71.6105         47.2324         4.31049
           27310         63.5862         71.8647         47.4149         3.55681
           27311         61.9101         69.1434         49.0883        -3.48914
           27312         61.7454         68.6873         48.8997        -4.55190
           27313         60.9779         67.2109         49.7162        -4.85705
           27314         46.8525         43.6651         38.2272         12.8633
           27315         48.8082         42.2177         44.2463        -13.0402
           27316         47.3654         38.9739         43.8857        -13.0251
           27317         46.4589         37.8608         43.2546        -12.8021
           27318         46.8677         37.5427         44.3124        -12.7429
           27319         49.5094         49.4365         36.8697         12.5239
           27320         51.1955         49.3016         41.1348         13.2447
           27321         50.5328         49.1690         39.6631         13.0767
           27322         51.2020         50.2999         39.7670         13.0438
           27323         51.8368         50.4261         41.2274         13.2098
           27324         95.6481         110.015         46.5792     60.8359E-03
           27325         86.5854         50.0687         99.9798    -146.739E-03
           27326         64.4556         72.6366         38.2423        -8.03680
           27327         59.4456         39.5480         67.4212         5.49200
           27328         59.4232         40.7910         65.6693         8.82159
           27329         60.4643         67.6422         39.0061        -8.11258
           27330         61.3087         68.9294         39.2650        -7.57769
           27331         84.1227         96.1877         36.8058        -1.83852
           27332         83.0244         95.0464         37.1556        -1.84453
           27333         65.0813         46.6900         74.1141        -2.77513
           27334         61.3698         49.9611         68.2038        -2.93977
           27335         59.7276         52.9855         64.7248    -183.566E-03
           27336         58.1868         57.7247         56.6022         6.24755
           27337         58.6408         60.8027         53.1998         6.98209
           27338         95.5386         110.057         48.4610    -6.41331E-03
           27339         63.1763         43.9995         71.3856        -5.78263
           27340         64.0532         43.6675         72.7637        -5.12553
           27341         63.6799         44.0025         72.3559        -4.73899
           27342         57.6490         49.1746         61.7298        -6.58894
           27343         58.1617         48.4354         63.0031        -6.29787
           27344         69.4174         80.1337         41.7035     124.066E-03
           27345         88.2985         100.714         36.6069     200.265E-03
           27346         88.5309         100.894         36.1993     95.8066E-03
           27347         98.8273         111.610         35.2136     239.922E-03
           27348         98.5678         111.424         35.6149     245.429E-03
           27349         98.4896         111.333         35.5842     452.626E-03
           27350         58.2400         58.2407         57.1839        -4.48527
           27351         58.2535         57.5017         58.2960        -3.68430
           27352         58.3264         56.5086         59.3058        -3.77948
           27353         75.9326         39.9725         87.5614    -582.794E-03
           27354         77.3654         39.4684         89.1394    -54.1917E-03
           27355         77.4052         41.3688         89.2527         1.46304
           27356         76.3808         41.8298         88.1364     999.552E-03
           27357         69.5983         44.4448         80.1999    -584.127E-03
           27358         69.3103         44.6351         79.8473    -88.6306E-03
           27359         70.1950         44.1903         80.9398    -147.286E-03
           27360         70.7534         43.9221         81.6149     443.711E-03
           27361         58.3788         64.4322         48.8297        -2.47946
           27362         58.7818         65.2604         48.3925        -2.05451
           27363         58.6439         64.8588         48.4603        -3.00663
           27364         61.5849         69.9611         45.9806    -509.844E-03
           27365         61.9712         49.2547         69.2583        -3.10860
           27366         59.8422         52.3358         65.0446        -2.26621
           27367         59.6770         52.3886         64.5907        -3.08930
           27368         55.9717         55.8041         55.1695        -4.23274
           27369         58.9813         62.0328         52.3915         6.72918
           27370         58.6162         60.5970         52.6962         7.75033
           27371         68.0278         42.2407         78.3923        -1.77868
           27372         69.7122         41.5896         80.4409        -1.27348
           27373         67.4477         42.4820         77.6203        -2.38194
           27374         56.8379         60.4769         51.2700        -3.87860
           27375         88.5978         100.938         36.0389    -42.9250E-03
           27376         88.2999         100.738         36.7385     52.2390E-03
           27377         88.3641         100.780         36.5796    -86.0647E-03
           27378         98.8704         111.653         35.1992     35.3033E-03
           27379         98.7838         111.591         35.3314    -128.824E-03
           27380         98.5576         111.432         35.6976    -70.0703E-03
           27381         98.6422         111.492         35.5633     93.1021E-03
           27382         58.7461         61.7322         54.4517        -3.49641
           27383         58.5351         60.8232         55.3563        -3.13721
           27384         58.6948         61.5905         54.9459        -2.36501
           27385         58.9194         62.4999         54.0442        -2.72300
           27386         88.0645         100.562         37.2148     203.403E-03
           27387         87.7572         100.284         37.5585     354.236E-03
           27388         97.6290         110.825         37.5320     221.400E-03
           27389         68.5429         78.7982         44.9956        -1.82071
           27390         67.3636         77.3623         45.5794    -723.986E-03
           27391         58.4545         55.6330         60.2642        -3.77723
           27392         86.1954         98.1354         35.3187        -2.42921
           27393         85.1803         97.1291         35.8206        -2.43048
           27394         84.6045         96.4938         35.8704        -2.67448
           27395         62.5978         48.5921         70.3114        -3.17183
           27396         63.1452         48.0734         71.1771        -3.25640
           27397         56.0923         54.3679         55.8285        -6.02603
           27398         56.0462         55.0679         55.5776        -5.17610
           27399         92.0536         104.791         37.2437        -1.68386
           27400         92.8827         105.593         36.8518        -1.87713
           27401         93.6525         106.319         36.4165        -2.05183
           27402         84.6593         96.6604         36.2545        -2.15626
           27403         81.9604         93.9959         37.7965        -1.46328
           27404         82.1231         94.2034         37.9591        -1.27828
           27405         82.6177         94.6632         37.4821        -1.61620
           27406         59.6014         39.0946         66.0299         9.04430
           27407         59.6548         38.8815         66.3027         8.73356
           27408         64.6841         72.5387         39.0878        -8.75006
           27409         65.5397         73.8065         39.0639        -8.27125
           27410         65.0767         73.3000         38.6595        -8.19093
           27411         58.5091         64.7240         38.4959        -9.01463
           27412         59.1166         65.3663         38.9894        -9.13663
           27413         59.8002         66.5705         38.9532        -8.56759
           27414         96.5957         110.324         40.9464     126.023E-03
           27415         60.4885         41.4822         66.9926         8.73833
           27416         86.7498         42.9514         99.8419    -461.376E-03
           27417         86.8221         43.4319         99.9644    -414.592E-03
           27418         86.5841         43.8847         99.7364    -407.412E-03
           27419         40.0018         35.1954         34.9269        -11.1176
           27420         40.4941         36.1945         34.7056        -11.2754
           27421         40.9230         37.1757         34.3793        -11.3841
           27422         67.3955         77.0129         41.9858         5.22202
           27423         68.2478         41.7396         77.8106        -6.02398
           27424         69.3498         41.8653         79.4776        -4.73841
           27425         68.3761         41.9734         78.2209        -5.10589
           27426         68.5044         41.9341         78.3177        -5.32002
           27427         69.4766         41.8284         79.5760        -4.95227
           27428         85.1715         40.5037         97.8638     232.132E-03
           27429         84.6288         40.4420         97.2612     240.241E-03
           27430         74.0334         85.0363         41.3011         4.32364
           27431         75.5618         86.8850         41.0944         3.75564
           27432         74.6189         85.7924         41.2751         3.87770
           27433         55.2772         40.6403         57.6471        -11.8819
           27434         59.0231         63.2596         41.0614         11.4520
           27435         58.3117         62.3218         40.3469         11.5884
           27436         54.7060         56.5154         40.9864         12.0448
           27437         54.0868         55.6635         40.4849         12.1307
           27438         55.8287         44.4385         56.9873        -11.9295
           27439         55.3110         43.7850         56.3741        -12.0067
           27440         85.8317         98.3588         38.6808    -582.799E-03
           27441         85.6289         98.0702         38.2024    -736.825E-03
           27442         85.1034         97.5563         38.6112    -657.855E-03
           27443         85.6852         40.2398         98.3764         1.07284
           27444         59.3370         53.8773         63.5963     83.5535E-03
           27445         59.5787         53.0951         64.3829        -1.12447
           27446         80.2714         42.1357         92.5655    -59.8471E-03
           27447         81.0041         42.0504         93.3810    -210.759E-03
           27448         81.0679         42.4307         93.4769    -9.24962E-03
           27449         74.2908         85.6336         41.2471         2.36816
           27450         73.9721         85.2252         41.5158         2.77914
           27451         81.0937         93.3938         40.8795    -425.525E-03
           27452         81.6369         93.9464         40.2562    -108.142E-03
           27453         81.8452         94.2065         40.5936    -191.142E-03
           27454         74.2006         43.7856         85.5047        -2.66869
           27455         74.6592         43.5546         86.0909        -2.23731
           27456         73.9151         43.6241         85.1911        -2.53252
           27457         90.6171         103.671         39.5755     382.503E-03
           27458         90.8478         103.841         39.0780     610.570E-03
           27459         80.6431         42.7964         92.9835         1.31680
           27460         69.9856         44.2820         80.6674    -809.317E-03
           27461         70.5920         44.0283         81.4190    -374.561E-03
           27462         77.3023         42.7985         89.2201    -856.713E-03
           27463         76.6305         42.8317         88.4488    -983.805E-03
           27464         74.4679         43.3806         85.8903        -2.03492
           27465         87.7072         100.457         39.1198     363.822E-03
           27466         85.2527         97.8319         39.4452    -72.5392E-03
           27467         48.8122         47.2872         38.1417        -12.8501
           27468         45.7013         43.2985         36.4883        -12.4142
           27469         47.4723         38.5537         44.4869         12.9523
           27470         46.6439         37.5391         43.9106         12.7370
           27471         46.3690         37.9259         43.0183         12.8147
           27472         76.9603         42.4871         88.8319     527.371E-03
           27473         79.5050         41.8921         91.6902    -183.870E-03
           27474         78.8746         41.6552         90.9649    -445.678E-03
           27475         79.6267         41.5303         91.7997    -555.418E-03
           27476         76.3993         88.0923         40.8430         1.46213
           27477         75.7455         87.3361         41.0882         1.82890
           27478         49.3830         41.5878         46.1110         12.9172
           27479         78.1692         40.7566         90.0862        -1.34247
           27480         74.0210         41.4361         85.2627        -2.90891
           27481         75.0977         41.1964         86.5524        -2.36977
           27482         46.1907         43.3547         37.2664        -12.6601
           27483         78.2856         90.2198         40.3824    -725.813E-03
           27484         77.4607         89.2903         40.3134    -781.257E-03
           27485         78.1677         90.0778         40.1653    -558.319E-03
           27486         79.2944         91.3583         40.5197    -639.858E-03
           27487         79.1537         91.1805         40.1766    -441.611E-03
           27488         88.2564         100.201         34.3974        -2.03721
           27489         88.8270         100.706         33.9192        -2.14736
           27490         99.3292         111.682         33.5246        -2.13660
           27491         99.8257         112.120         33.2117        -2.22944
           27492         82.9908         41.5044         95.5469    -648.874E-03
           27493         82.3642         41.7522         94.8739    -496.695E-03
           27494         83.0981         40.7718         95.6050     456.179E-03
           27495         88.2698         36.1360         100.513        -2.23780
           27496         88.7098         35.6969         100.907        -2.23228
           27497         88.6895         35.9165         100.946        -1.93987
           27498         88.2513         36.3549         100.553        -1.94570
           27499         88.7118         35.4941         100.963    -14.4016E-03
           27500         89.0796         35.4516         101.344     399.497E-03
           27501         72.5445         83.7354         40.8076     978.099E-03
           27502         71.3636         82.3796         41.1076     992.380E-03
           27503         78.7496         42.0302         90.8477     33.4399E-03
           27504         79.1680         41.7235         91.2997     373.444E-03
           27505         78.3717         41.7639         90.4057     362.567E-03
           27506         84.4634         40.4121         97.0528         1.12426
           27507         82.6524         95.0266         40.0212    -957.616E-03
           27508         79.7702         91.7927         40.6127        -2.30463
           27509         91.6514         104.525         38.0523        -1.14014
           27510         74.2424         41.2304         85.5531         2.58435
           27511         73.9167         41.4100         85.1389         2.93592
           27512         71.4421         43.8643         82.1779         3.23286
           27513         84.5637         97.0324         39.0953    -512.863E-03
           27514         48.3058         45.0720         39.6718         13.1173
           27515         47.7191         45.0965         38.4449         12.8988
           27516         52.2612         51.4358         41.3998         12.9238
           27517         53.0459         53.0632         41.3107         12.6973
           27518         48.1681         39.9957         44.4630        -13.1894
           27519         47.9089         40.4257         43.5421        -13.2329
           27520         49.5995         39.3696         47.8019        -13.0009
           27521         49.7503         40.5644         47.0312        -13.2348
           27522         80.3467         40.1546         92.4997    -659.734E-03
           27523         79.5956         39.8396         91.6425    -552.549E-03
           27524         79.3645         40.2773         91.4122    -838.616E-03
           27525         74.3116         85.6746         41.0883        -2.16400
           27526         73.3693         84.5974         41.0377        -2.15430
           27527         74.2355         85.6095         40.9352        -1.88623
           27528         84.2567         40.3668         96.8442    -262.579E-03
           27529         83.8297         39.8226         96.3177    -179.801E-03
           27530         83.6698         40.3175         96.1933    -292.722E-03
           27531         69.3012         79.3909         41.7232        -4.87711
           27532         82.6636         95.0531         40.5939        -1.72116
           27533         41.5122         38.2990         34.1779        -11.5080
           27534         40.9101         35.6898         35.4116        -11.6865
           27535         75.8067         42.1096         87.3382         2.78485
           27536         87.6631         38.3945         100.306     433.057E-03
           27537         87.9512         37.5843         100.495     441.935E-03
           27538         87.8758         38.0213         100.479     516.148E-03
           27539         87.8738         38.2132         100.498     833.221E-03
           27540         87.9170         38.1195         100.535     673.961E-03
           27541         88.0386         37.7582         100.608     798.241E-03
           27542         64.5796         72.0504         42.0750         8.95331
           27543         61.9371         42.3918         68.6969        -8.79502
           27544         59.9202         42.1760         65.3537        -9.94759
           27545         61.7247         45.1919         67.8894        -8.69315
           27546         61.4302         44.7365         67.4217        -8.99710
           27547         60.5958         66.6883         42.1848         9.27708
           27548         59.4605         64.7561         42.1401         9.92035
           27549         60.2925         51.2214         65.9891         3.51428
           27550         71.1592         82.1094         43.3034     839.858E-03
           27551         60.4731         66.2582         50.5585         4.49453
           27552         62.3679         48.6098         69.8367        -3.84799
           27553         58.3038         55.0352         59.1266         6.54604
           27554         58.9380         62.3770         53.6412         4.13920
           27555         58.9136         62.3980         54.0099         3.18033
           27556         63.7456         44.1411         72.6619        -3.77229
           27557         64.3353         43.7339         73.3666        -4.17654
           27558         65.3069         43.4508         75.0662         1.12041
           27559         60.8511         46.0856         68.4599         3.96799
           27560         61.5456         45.4423         69.3811         4.54471
           27561         60.7815         46.0142         68.1676         4.72377
           27562         58.4963         60.5302         55.1609        -4.24612
           27563         79.5848         91.6708         40.2957     360.758E-03
           27564         78.6073         90.5948         40.5413     555.793E-03
           27565         78.4314         90.3908         40.6064     924.862E-03
           27566         79.3956         91.4567         40.3613     731.943E-03
           27567         68.7504         79.3073         41.9945         1.14065
           27568         69.0113         79.5838         41.8893         1.62985
           27569         61.0711         69.0987         46.2139         2.05267
           27570         60.9664         68.8568         46.2098         2.71757
           27571         61.9547         70.3438         45.4685         2.65624
           27572         66.5405         76.2650         45.7014         1.64203
           27573         66.3204         75.9190         45.7069         2.28053
           27574         67.0453         76.8981         45.2627         2.13377
           27575         67.2907         77.2631         45.2661         1.50859
           27576         72.0644         40.8632         83.1862    -963.557E-03
           27577         73.2003         40.5013         84.4888    -702.947E-03
           27578         72.3754         43.3253         83.5517    -219.738E-03
           27579         73.2035         43.0102         84.5237     22.9739E-03
           27580         72.1528         43.3447         83.2888     349.352E-03
           27581         77.3926         41.2001         89.1997         1.88118
           27582         58.9477         65.6726         48.3242     312.066E-03
           27583         58.4647         64.7483         48.8214         1.05767
           27584         73.9117         43.2840         85.2690         1.77210
           27585         74.4982         43.0776         85.9795         1.36935
           27586         43.2646         40.2201         35.3106         11.9377
           27587         47.3045         43.2451         39.8904         12.9280
           27588         46.5054         42.1953         39.4695         12.7789
           27589         46.0099         42.2250         38.4079         12.6565
           27590         45.8450         39.4682         40.5307        -12.9224
           27591         44.7959         38.3231         39.7208        -12.6819
           27592         43.7436         39.5804         36.5424        -12.3546
           27593         78.3548         42.6691         90.4213    -577.945E-03
           27594         77.7627         42.5911         89.7460    -596.338E-03
           27595         44.8936         41.8802         36.5476        -12.3340
           27596         42.5432         37.7935         36.7531        -11.8295
           27597         41.9271         37.7036         35.6553        -11.6812
           27598         41.2531         36.6735         35.5829        -11.4845
           27599         44.9728         38.6125         39.7596         12.7282
           27600         43.6195         36.9540         38.9363         12.3811
           27601         43.1065         37.2351         37.7431         12.2820
           27602         43.6229         35.7899         40.0982         12.2378
           27603         74.5878         40.9887         85.9806         2.22306
           27604         62.9953         70.8443         43.2598         6.89901
           27605         62.8286         70.6894         43.5411         6.64611
           27606         62.2397         69.4424         42.7319         8.01923
           27607         64.4694         42.6443         72.7936        -6.90621
           27608         62.6215         42.3957         69.8114        -8.36924
           27609         62.2611         42.8110         69.2787        -8.36687
           27610         61.5851         42.8061         68.1636        -8.79224
           27611         68.8893         78.3444         41.9309         6.70179
           27612         69.7636         79.5287         41.7886         6.30474
           27613         69.4415         79.1740         42.0943         6.17651
           27614         68.5734         77.9934         42.2352         6.57247
           27615         70.6775         80.7536         41.7195         5.84948
           27616         70.1431         80.1073         41.9506         5.87564
           27617         87.7714         37.1744         100.241     139.760E-03
           27618         58.2274         48.1216         62.8878        -6.97917
           27619         58.9048         47.3410         64.3666        -6.65131
           27620         81.0524         39.3204         93.2120     121.860E-03
           27621         80.3535         39.2263         92.4325     54.3053E-03
           27622         58.3921         64.5459         48.8770        -1.76175
           27623         84.6604         97.0211         38.2354    -814.841E-03
           27624         85.4504         97.8095         37.7622    -929.904E-03
           27625         85.2586         97.5345         37.3506        -1.14841
           27626         84.4635         96.7445         37.8239        -1.03061
           27627         54.4930         55.5583         41.9150         12.3101
           27628         54.2122         55.4037         41.2630         12.2866
           27629         53.6395         54.3111         41.2272         12.4755
           27630         53.9524         54.3117         42.1841         12.5525
           27631         85.0425         40.1229         97.6539         1.19068
           27632         84.9700         39.6707         97.5116         1.41042
           27633         55.0336         41.7833         56.5479        -12.2194
           27634         54.6216         40.9915         56.2226        -12.2050
           27635         53.7463         40.6401         54.7833        -12.4128
           27636         54.2342         41.2978         55.2888        -12.4136
           27637         55.5408         45.3793         55.7736        -12.1897
           27638         55.2649         44.7086         55.6396        -12.2087
           27639         54.6986         44.3187         54.7356        -12.3505
           27640         53.8601         44.6304         52.6981        -12.7002
           27641         58.9458         62.8131         42.1583         11.5454
           27642         58.4462         62.1168         41.6083         11.7016
           27643         56.6924         59.4294         40.6904         12.1746
           27644         55.9354         58.1229         40.7006         12.3774
           27645         64.7731         43.6199         74.0995        -3.38310
           27646         59.4268         53.1742         63.9898        -1.99649
           27647         59.3264         53.2020         63.6549        -2.81621
           27648         57.1886         61.5215         50.5306        -3.69756
           27649         57.4706         61.3968         49.5149        -6.36750
           27650         57.8339         62.6799         49.2114        -5.12511
           27651         57.9738         62.7753         48.7706        -5.86619
           27652         62.1860         48.5673         69.4350        -4.44845
           27653         62.8856         47.9267         70.5957        -4.37057
           27654         63.0777         47.9696         70.9989        -3.77057
           27655         61.0562         67.1200         49.1156         5.97381
           27656         61.7437         68.4046         48.3168         5.87865
           27657         61.1025         67.3698         49.4035         5.24168
           27658         59.1988         53.2363         63.2293        -3.58446
           27659         58.4482         55.3691         60.1647        -4.54373
           27660         92.9617         105.790         37.3512        -1.48277
           27661         92.4114         105.201         37.3594        -1.53719
           27662         92.1142         104.965         37.7638        -1.30324
           27663         82.0589         94.0514         37.5238        -1.74465
           27664         82.8014         95.0015         38.3030    -912.700E-03
           27665         83.7000         95.9568         38.1239    -966.230E-03
           27666         62.6960         70.5499         48.4081        -2.90684
           27667         60.0778         65.2067         50.7485        -5.51259
           27668         59.3867         63.4020         51.8164        -5.98046
           27669         59.6943         64.3323         51.5843        -5.23967
           27670         61.8643         69.7068         36.7237        -7.73321
           27671         60.9748         67.5604         37.8062        -9.63350
           27672         61.8655         68.6312         38.3889        -9.62750
           27673         56.5610         61.8827         37.7974        -9.66150
           27674         56.3192         61.0609         38.3188        -10.2448
           27675         56.9620         62.1655         38.3482        -9.89045
           27676         57.8135         63.5355         38.4602        -9.48759
           27677         57.2264         63.0081         37.8771        -9.25076
           27678         96.4334         109.990         39.9718     332.465E-03
           27679         54.9472         38.4738         59.6763         9.55116
           27680         55.6290         38.4136         60.9750         9.00566
           27681         86.2486         44.3164         99.3944    -373.697E-03
           27682         45.0258         41.5706         37.2051         12.4047
           27683         44.3764         41.3979         36.0810         12.2108
           27684         45.5252         42.9577         36.5240         12.4120
           27685         42.8666         37.9574         36.5861         12.2058
           27686         43.9982         39.9040         36.6830         12.4053
           27687         68.5073         78.2634         41.6587         5.56740
           27688         67.7057         77.1927         41.5604         5.95064
           27689         67.0144         76.5718         42.1632         5.11409
           27690         66.2044         75.4437         42.2645         5.58492
           27691         66.5839         75.8856         42.0873         5.69433
           27692         67.5206         43.7337         76.7612        -6.08717
           27693         68.0322         43.8698         77.4758        -5.77816
           27694         66.5391         44.9123         75.6552        -5.30640
           27695         66.4980         44.6003         75.4746        -5.84719
           27696         66.8998         44.3267         75.9939        -5.89377
           27697         67.3771         42.1545         76.8991        -5.50251
           27698         67.6071         42.0052         77.1253        -5.70465
           27699         85.4959         98.2422         40.7087     221.643E-03
           27700         85.8256         98.6326         40.9713     193.576E-03
           27701         85.1055         97.7988         40.5713     213.800E-03
           27702         70.2335         41.9525         80.4166        -5.15051
           27703         85.4173         97.7577         37.6594     969.880E-03
           27704         85.0862         97.3743         37.5204         1.10457
           27705         85.6227         97.8674         36.9783         1.26490
           27706         85.9488         98.2472         37.1212         1.11749
           27707         85.9980         98.4912         38.3373     653.129E-03
           27708         85.9908         98.4176         37.8931     788.705E-03
           27709         74.7552         85.7036         40.9535         5.03016
           27710         75.5789         86.7150         41.0060         4.72671
           27711         75.5866         86.7410         41.0062         4.64586
           27712         76.4804         87.8519         41.0051         4.17357
           27713         76.5493         87.9080         41.0335         4.29758
           27714         73.1312         83.9700         41.5253         4.46273
           27715         73.5015         84.3351         41.2980         4.74057
           27716         73.6525         84.4482         41.1463         4.99683
           27717         85.5396         41.7788         98.3982     316.036E-03
           27718         85.2003         41.8119         98.0265     337.427E-03
           27719         85.2445         41.2628         98.0225     300.521E-03
           27720         64.0101         72.6652         47.9371    -904.879E-03
           27721         68.5797         78.9403         44.5704         1.07694
           27722         68.9593         79.3741         44.2366         1.77991
           27723         70.0205         80.7149         43.7647         1.30244
           27724         71.7363         43.6328         82.7538        -1.27402
           27725         71.0826         43.8439         81.9804        -1.15567
           27726         71.2074         43.8238         82.0814        -1.80091
           27727         77.0241         42.5958         88.9048    -639.088E-03
           27728         85.0365         97.5821         39.3325     107.527E-03
           27729         84.9696         97.4866         39.1684     373.653E-03
           27730         85.9619         98.5356         38.9531     606.420E-03
           27731         48.3563         44.7390         40.3506        -13.0872
           27732         48.9602         46.0315         40.0992        -13.1159
           27733         77.1504         40.2606         88.9262         1.09900
           27734         78.1470         40.1748         90.0443     909.198E-03
           27735         46.5146         39.7437         41.5280         13.0377
           27736         46.0519         39.9874         40.4076         12.9718
           27737         85.7483         98.3459         39.2378    -205.851E-03
           27738         85.0191         97.5773         39.4490     70.5719E-03
           27739         77.5015         89.3415         40.5109     958.554E-03
           27740         76.6706         88.4040         40.6193         1.16835
           27741         75.8344         87.4538         40.6173         1.29873
           27742         75.5627         87.1369         40.8397         1.59494
           27743         76.1645         42.5791         87.9250     583.666E-03
           27744         76.3635         42.3422         88.1532     214.535E-03
           27745         77.1568         42.2518         89.0537     157.670E-03
           27746         46.8303         41.9168         39.9737        -13.0860
           27747         46.9210         42.6896         39.3634        -13.0398
           27748         86.8489         98.8408         35.2040        -2.12080
           27749         86.6771         98.7882         35.7837        -1.66776
           27750         88.0636         100.256         35.5237        -1.07619
           27751         97.1809         109.572         34.3647        -2.73793
           27752         98.5909         111.084         34.1822        -1.75295
           27753         60.6985         46.2960         68.3293        -3.43823
           27754         85.2118         39.7860         97.7950        -1.30912
           27755         84.0753         40.3890         96.6218        -1.16497
           27756         84.8201         39.7627         97.3590        -1.39618
           27757         61.4965         40.7519         68.2039        -9.10620
           27758         59.6713         51.2622         64.1369         5.97536
           27759         62.6388         49.4827         70.3369        -1.66012
           27760         61.7241         50.4043         68.7787        -1.35467
           27761         62.2404         49.2087         69.8040         2.21647
           27762         58.3530         54.3497         59.5328         6.89487
           27763         58.2647         54.5436         58.9640         7.28306
           27764         64.9138         43.5776         74.5867    -801.216E-03
           27765         78.7133         90.7176         40.5105     65.3715E-03
           27766         79.9791         92.0995         40.1452    -128.725E-03
           27767         69.9394         80.6969         41.5835         1.41348
           27768         58.7883         65.0259         48.1947         3.59952
           27769         58.9107         65.0531         47.8835         4.49844
           27770         64.5711         73.4391         46.8573         2.68752
           27771         63.6946         72.1269         47.5476         2.79303
           27772         62.6486         70.5214         43.8416         6.35778
           27773         61.9609         69.4343         44.1615         6.68616
           27774         62.1433         69.6098         43.8488         6.97250
           27775         61.9110         47.5515         68.4823        -6.79290
           27776         61.2063         48.2705         67.1974        -6.93622
           27777         69.2685         79.0155         42.3221         5.98942
           27778         69.2772         79.1000         42.5371         5.70943
           27779         68.4208         77.9605         42.8059         6.01083
           27780         68.4079         77.8655         42.5829         6.29905
           27781         57.2203         49.9083         60.5554        -6.79667
           27782         57.3047         49.5241         60.5365        -7.40589
           27783         57.7352         48.7908         61.7120        -7.19775
           27784         37.4981         35.3874         30.1067        -10.2115
           27785         79.3023         41.1747         91.3989        -1.01118
           27786         79.8924         40.6937         92.0000        -1.48739
           27787         79.9359         41.1725         92.1129    -877.256E-03
           27788         81.6387         40.4729         93.9605     603.913E-03
           27789         80.9259         40.5256         93.1716     722.599E-03
           27790         80.9566         40.1126         93.1747     552.434E-03
           27791         57.7077         62.6155         49.5396        -4.36837
           27792         57.9968         63.7396         49.3938        -1.77827
           27793         56.1921         53.4791         56.9470        -5.77509
           27794         56.1764         53.7105         56.0502        -6.82705
           27795         56.2879         52.8235         57.1675        -6.57456
           27796         75.7655         42.3696         87.4721    -65.5933E-03
           27797         75.9283         42.2224         87.6535     251.186E-03
           27798         75.0336         42.4673         86.6355     106.047E-03
           27799         75.5835         42.0660         87.2374     947.017E-03
           27800         73.0361         40.6890         84.2858        -1.16625
           27801         73.9883         40.4408         85.3717    -998.346E-03
           27802         74.1640         40.2504         85.5803    -535.425E-03
           27803         75.1590         40.0283         86.6958    -492.174E-03
           27804         97.9448         110.306         34.0317        -2.67648
           27805         87.4117         99.3112         34.6291        -2.44852
           27806         86.7850         98.7156         35.0189        -2.41283
           27807         87.4711         99.4332         34.8170        -2.15761
           27808         70.0783         80.7638         41.5861         2.41064
           27809         69.3892         79.8738         41.7737         2.97888
           27810         70.3855         81.0456         41.5554         2.98697
           27811         71.0748         81.9254         41.3689         2.42377
           27812         74.1677         85.6068         41.9606         1.11714
           27813         73.1729         84.4191         42.2326         1.76430
           27814         77.6189         89.4752         40.8073         1.27628
           27815         77.9548         89.8334         40.7337         1.51970
           27816         78.7653         90.7486         40.5353         1.16561
           27817         53.0323         40.8953         53.2287        -12.6953
           27818         69.1228         79.3567         41.8047        -4.09580
           27819         69.9432         80.4081         41.6541        -3.69014
           27820         70.6505         81.2923         41.5515        -3.38297
           27821         70.6902         81.2942         41.5677        -3.63717
           27822         51.9117         50.3231         41.8942         13.1089
           27823         55.2680         56.2502         42.0576         12.7459
           27824         54.2586         54.6396         41.5968         12.9235
           27825         53.3677         53.5808         40.6639         12.9417
           27826         53.6917         53.5705         41.6428         13.0347
           27827         93.4479         106.222         36.9280        -1.66875
           27828         94.1835         107.022         36.9769        -1.52001
           27829         69.5208         41.8421         79.6985         4.66490
           27830         70.2359         41.7389         80.6742         4.07723
           27831         53.1140         45.0546         50.6800        -12.9882
           27832         83.2122         39.8332         95.5889         1.62927
           27833         82.5186         39.9636         94.8379         1.63972
           27834         76.7259         88.3327         40.9502        -2.85957
           27835         77.9131         89.7105         40.7735        -2.43608
           27836         78.3783         90.2013         40.7364        -2.70205
           27837         61.5161         44.8006         68.7497        -6.59893
           27838         62.5147         44.1889         70.2998        -6.32031
           27839         81.1974         93.3966         40.8168         2.32622
           27840         81.8435         94.1324         40.6606         1.96977
           27841         81.0655         93.2537         40.5705         2.06121
           27842         80.4227         92.5179         40.7265         2.41770
           27843         48.4566         37.6506         47.1847         12.6571
           27844         47.8728         36.7971         46.8891         12.4442
           27845         82.2050         40.7142         94.6097     566.735E-03
           27846         51.1789         52.9082         35.9525        -11.9666
           27847         74.0391         43.9298         85.2826        -2.90318
           27848         73.5196         43.7687         84.6786        -2.90040
           27849         74.0624         44.1179         85.2857        -3.04598
           27850         91.4660         104.638         39.9189     375.225E-03
           27851         73.2314         41.8711         84.2413        -3.66640
           27852         72.6851         41.9355         83.5578        -3.94418
           27853         73.3551         42.1211         84.3655        -3.77758
           27854         73.8980         42.0644         85.0399        -3.50581
           27855         48.8586         47.9449         37.7018        -12.5781
           27856         49.1758         48.7801         37.4434        -12.4263
           27857         48.4484         48.1707         36.6217        -12.2444
           27858         82.4268         94.8445         40.5264    -71.3633E-03
           27859         81.9453         94.3649         41.1684    -327.405E-03
           27860         80.1226         92.3183         41.0469    -704.475E-03
           27861         80.7354         93.0149         41.1834    -588.341E-03
           27862         48.6935         38.3577         48.0293         12.0446
           27863         47.5194         37.2552         46.8821         11.8154
           27864         73.7673         84.9443         41.8331         3.13851
           27865         81.7877         42.8930         94.3118     51.0673E-03
           27866         82.1337         43.3575         94.7267     105.374E-03
           27867         65.4784         75.1061         43.2934         2.81524
           27868         73.0350         84.2997         42.3813         1.18885
           27869         86.0185         98.4642         38.3732        -1.81409
           27870         87.5765         100.088         37.9731        -1.89296
           27871         75.7722         87.3436         39.5092    -900.610E-03
           27872         74.7218         86.1820         39.8101    -832.912E-03
           27873         75.1108         86.6257         39.7760    -606.375E-03
           27874         76.2881         87.9304         39.5053    -621.210E-03
           27875         77.0571         88.7526         39.1697    -987.328E-03
           27876         62.5445         48.6917         70.2348         3.04724
           27877         62.1298         48.8251         69.4334         3.88684
           27878         88.0679         100.587         37.3448     57.2138E-03
           27879         88.1076         100.609         37.2166    -78.5848E-03
           27880         61.6957         67.4374         42.5464         10.2889
           27881         62.1915         68.2984         41.8415         10.1670
           27882         87.9407         37.8513         100.511     986.328E-03
           27883         63.6502         47.3085         71.8071        -4.24602
           27884         62.6754         47.8608         70.1442        -4.98330
           27885         61.9747         48.5230         68.9537        -5.08590
           27886         63.8762         47.3707         72.2628        -3.53130
           27887         88.8155         35.9361         101.147     536.611E-03
           27888         89.4581         35.0825         101.673     722.102E-03
           27889         89.1853         35.5683         101.468     855.615E-03
           27890         89.0422         35.5433         101.261        -1.87861
           27891         88.9354         35.7999         101.208        -1.63506
           27892         88.5841         36.1746         100.895        -1.69642
           27893         58.7292         63.4503         42.2660         10.3046
           27894         59.0651         42.5904         63.7959        -10.3589
           27895         59.1115         45.6561         63.0028        -10.2760
           27896         57.9572         61.8785         42.9826         10.6816
           27897         57.9498         62.0109         42.3300         10.7382
           27898         58.7434         43.1067         63.1210        -10.4766
           27899         58.8619         43.9613         63.2725        -10.1697
           27900         88.2410         37.1400         100.718         1.10966
           27901         88.4254         36.8709         100.875         1.03207
           27902         88.5634         36.5388         100.961         1.18955
           27903         88.0252         37.5208         100.544         1.15751
           27904         58.2146         46.8756         60.7953        -10.7294
           27905         58.6285         46.2438         61.8618        -10.5303
           27906         71.2743         43.7334         82.2452    -26.3985E-03
           27907         71.6369         43.5449         82.6634     821.038E-03
           27908         71.5843         43.6135         82.6133    -304.609E-03
           27909         71.4875         43.6865         82.4844    -761.953E-03
           27910         72.2816         43.4030         83.4300    -673.813E-03
           27911         70.0039         41.5784         80.7365        -1.85281
           27912         71.0637         41.1899         82.0129        -1.34573
           27913         75.3783         42.2500         87.0200     561.647E-03
           27914         74.3811         42.6469         85.8871     80.3667E-03
           27915         68.0706         78.1702         44.5093         2.66101
           27916         67.3360         77.1339         44.7418         3.35511
           27917         68.1530         78.2310         44.3537         3.01766
           27918         71.3836         82.3317         43.0257         1.66068
           27919         71.9580         82.9879         42.7023         1.93670
           27920         63.8964         73.0196         44.1330         2.92976
           27921         65.6826         75.1458         42.9758         4.07636
           27922         64.7976         73.9480         43.3531         4.35136
           27923         84.3695         38.8161         96.7912     114.453E-03
           27924         84.0606         39.2926         96.5115    -12.4101E-03
           27925         94.6096         107.393         36.5850        -1.65776
           27926         68.6725         41.9195         78.5790         5.09919
           27927         58.2454         54.0259         58.9909         7.76395
           27928         58.1284         54.5655         58.2040         7.95279
           27929         58.0594         54.1632         57.9782         8.48639
           27930         57.9746         55.0752         57.0400         8.47951
           27931         82.2577         94.3819         38.1477        -1.09432
           27932         69.5075         44.2898         79.8203         3.34912
           27933         68.9578         44.4128         79.0634         3.78942
           27934         68.1509         44.7131         78.0444         3.82810
           27935         68.6810         44.5860         78.7878         3.39033
           27936         51.0988         48.2934         42.3060         13.3184
           27937         69.8434         80.3460         41.6836        -3.37732
           27938         84.0355         37.5921         96.2591     723.650E-03
           27939         83.2365         38.2330         95.4797     463.930E-03
           27940         83.8924         38.0623         96.1721     470.559E-03
           27941         81.8397         40.1388         94.1048         1.64873
           27942         82.6806         39.5977         94.9547         1.97521
           27943         75.1203         86.5135         41.3227        -2.93728
           27944         52.4880         45.6077         48.7207        -13.2069
           27945         94.2168         106.947         36.4919        -1.84456
           27946         55.7933         56.9106         42.6676         12.6727
           27947         56.1614         56.8917         44.1914         12.6318
           27948         69.6606         41.7995         80.0345         3.88519
           27949         66.8553         42.6853         76.7620        -3.25593
           27950         60.2245         50.7668         65.6033        -5.04648
           27951         58.5775         55.8501         60.8877        -1.33587
           27952         58.8462         52.9044         61.6613         6.43027
           27953         59.8761         64.5580         50.7409         6.28486
           27954         60.4399         65.8518         49.9021         6.12225
           27955         60.4508         66.0469         50.2673         5.33214
           27956         56.3744         57.8017         52.4335        -6.28511
           27957         56.5484         58.5178         51.6908        -6.48805
           27958         98.4053         111.333         35.9874     65.5392E-03
           27959         98.3781         111.311         36.0201    -153.133E-03
           27960         97.5901         110.846         37.8544    -35.7746E-03
           27961         97.3797         110.700         38.2670     123.897E-03
           27962         59.1147         53.2467         62.8719        -4.25008
           27963         58.9716         53.3854         62.3570        -4.76826
           27964         57.2526         37.7692         63.0827         9.21062
           27965         57.3904         38.1631         62.9552         9.59944
           27966         73.4794         43.5135         84.7105        -2.30827
           27967         87.0529         99.6705         38.6460     885.383E-03
           27968         88.0125         100.677         38.4581         1.03557
           27969         87.8366         100.546         38.7893     656.393E-03
           27970         90.6672         103.527         38.3701     967.911E-03
           27971         91.2914         104.176         38.2531         1.04721
           27972         91.0919         104.031         38.6411     814.297E-03
           27973         47.8193         40.5992         43.2056         13.2386
           27974         46.8753         39.3685         42.5754         13.0496
           27975         47.2242         39.0282         43.5726         13.0244
           27976         48.0726         40.0724         44.1966         13.2022
           27977         83.2867         95.7226         39.9551     827.558E-03
           27978         82.5834         94.9471         39.9278     787.993E-03
           27979         77.3095         39.9414         89.1000     688.468E-03
           27980         76.1100         40.4087         87.7559         1.27611
           27981         76.2612         40.0888         87.9280     866.014E-03
           27982         79.8950         40.1470         91.9965     696.953E-03
           27983         79.5402         40.4885         91.6197     948.153E-03
           27984         79.1902         40.1044         91.2071     773.454E-03
           27985         73.5239         84.8239         40.7802         1.50466
           27986         73.2557         84.4902         40.9626         1.89802
           27987         74.2013         85.5836         40.8101         1.68211
           27988         77.2926         42.0055         89.1988    -182.245E-03
           27989         78.0757         41.8790         90.0785    -271.874E-03
           27990         48.7068         44.2911         41.6549         13.1714
           27991         48.3206         44.5520         40.5045         13.0887
           27992         46.8159         41.2375         40.6240        -13.1165
           27993         47.7452         42.9054         40.7704        -13.2386
           27994         47.9680         44.3840         39.6941        -13.1295
           27995         48.8473         45.2306         40.6297        -13.2562
           27996         79.2985         91.2543         39.1404     470.740E-03
           27997         79.1955         91.1861         39.6136    -3.89445E-03
           27998         79.7176         91.7861         39.8675    -154.926E-03
           27999         80.7962         92.9524         39.5590     145.514E-03
           28000         70.6202         41.5025         81.3743        -2.59561
           28001         71.4746         41.2421         82.4178        -2.16772
           28002         71.1698         41.2591         82.0994        -1.81358
           28003         70.3153         41.5202         81.0612        -2.24110
           28004         58.8425         61.6627         52.9462        -6.36800
           28005         59.1165         62.4508         52.0780        -6.70464
           28006         61.2942         48.6113         67.4875         6.32486
           28007         60.6794         49.2941         66.2650         6.51923
           28008         60.9761         67.5018         43.8481         8.13955
           28009         60.8581         67.2069         43.4791         8.53628
           28010         61.5161         68.2889         43.0830         8.30258
           28011         62.3919         69.9172         43.5001         7.15267
           28012         65.8874         75.0847         42.4818         5.43022
           28013         65.1308         74.0047         42.6187         5.85833
           28014         62.0700         46.0521         68.5191        -8.00965
           28015         61.9310         45.6499         68.2475        -8.35284
           28016         63.1853         46.1691         70.5370        -6.87879
           28017         66.8251         45.0022         76.1426        -4.80550
           28018         65.7556         45.5040         74.6756        -4.99253
           28019         67.2410         42.2568         76.8187        -5.18720
           28020         67.0250         42.4224         76.6296        -4.87866
           28021         65.9890         42.6724         75.2162        -5.34791
           28022         62.5455         43.1820         69.8462        -7.84968
           28023         61.8763         43.2300         68.7328        -8.30585
           28024         63.1873         43.0986         70.9077        -7.37717
           28025         73.6210         84.6277         41.5270         4.00199
           28026         72.6216         83.4489         41.8281         4.12677
           28027         58.2508         47.7934         62.7265        -7.57733
           28028         82.8989         40.2319         95.2997        -1.37528
           28029         81.6880         41.9009         94.1337    -351.971E-03
           28030         80.1901         39.6379         92.2874     366.747E-03
           28031         79.4028         39.7180         91.4207     442.549E-03
           28032         35.2425         31.6545         29.8497        -9.89779
           28033         34.4232         29.2081         30.9571         9.62111
           28034         35.4248         32.1674         30.0776        -9.71314
           28035         56.4886         52.0056         58.2442        -6.40368
           28036         56.7678         51.1103         59.3812        -6.30318
           28037         56.3769         52.4714         58.1339        -5.65460
           28038         87.9885         99.8971         34.3948        -2.27177
           28039         88.2893         100.137         34.0786        -2.50357
           28040         98.4866         110.819         33.7710        -2.62576
           28041         98.5851         110.964         33.8532        -2.33979
           28042         58.3455         59.5127         56.0031        -4.43425
           28043         58.2071         57.7483         57.1507        -5.39608
           28044         49.3619         39.1230         47.5552         12.9743
           28045         47.4936         35.5953         47.3129         12.0308
           28046         48.3357         36.7169         47.8256         12.3413
           28047         80.0160         40.6756         92.1640     945.228E-03
           28048         80.3667         40.3705         92.5368     758.442E-03
           28049         51.5375         51.4512         38.9504        -12.8556
           28050         73.3108         43.6325         84.4683        -2.66716
           28051         72.9028         43.7741         83.9365        -3.03055
           28052         72.2344         43.7990         83.1139        -3.25755
           28053         72.1503         43.8725         82.9772        -3.46723
           28054         73.1244         41.4403         84.1960        -3.16305
           28055         73.0113         41.5930         84.0294        -3.40434
           28056         72.9683         41.6959         83.9509        -3.58102
           28057         83.1490         95.5928         40.0385     166.846E-03
           28058         83.0705         95.5588         40.5616     4.03914E-03
           28059         50.5726         41.9379         48.2121         12.8623
           28060         50.4240         42.6763         47.1518         13.0420
           28061         81.7940         42.4834         94.2937    -119.365E-03
           28062         72.0782         83.1046         41.1659         2.26142
           28063         85.8403         98.4170         39.0364    -465.530E-03
           28064         85.9186         98.4683         38.8404    -811.898E-03
           28065         84.5044         97.0024         39.3453    -145.752E-03
           28066         77.6036         89.3600         39.1013    -872.481E-03
           28067         78.3426         90.1232         38.6991        -1.34631
           28068         76.3301         87.9953         39.6656    -214.139E-03
           28069         75.1602         86.6918         39.8589    -309.110E-03
           28070         58.7521         47.1786         63.7952        -7.43697
           28071         59.3185         46.5306         64.8896        -7.35474
           28072         60.5818         45.4471         67.1971        -6.90824
           28073         61.0123         44.9608         67.7896        -7.15242
           28074         64.2188         47.9111         72.9636    -469.012E-03
           28075         64.0790         47.8874         72.7867     438.412E-03
           28076         88.0673         37.1393         100.551     349.815E-03
           28077         88.3222         36.7661         100.762     465.762E-03
           28078         99.3015         111.585         33.3790        -2.58782
           28079         99.0484         111.379         33.5685        -2.39780
           28080         65.6430         43.2493         75.5326     150.683E-03
           28081         85.1511         41.2446         97.9070    -807.675E-03
           28082         85.5174         40.8478         98.2660    -898.980E-03
           28083         85.7079         41.3112         98.5276    -780.354E-03
           28084         56.9573         50.2200         59.4706        -7.57055
           28085         55.7539         60.1125         38.2837        -10.4987
           28086         54.9601         58.9386         37.9665        -10.6940
           28087         55.2885         59.2181         38.3906        -10.7953
           28088         56.4587         40.7534         60.5495         10.4580
           28089         55.3494         40.3703         58.8245         10.7740
           28090         56.9404         38.5164         61.8947         10.1932
           28091         56.6862         39.0725         61.0784         10.6862
           28092         57.3173         39.1016         62.1557         10.3826
           28093         86.4316         43.4216         99.5295    -441.929E-03
           28094         60.2459         66.2954         38.0766        -10.1482
           28095         78.3586         39.7896         90.2630     572.832E-03
           28096         77.5532         39.5627         89.3542     264.523E-03
           28097         76.3881         39.8258         88.0675     416.734E-03
           28098         76.6583         39.4489         88.3486    -128.898E-03
           28099         78.1030         41.6763         90.0952    -536.044E-03
           28100         78.8962         41.4503         90.9711    -713.452E-03
           28101         76.1851         41.7856         87.8961        -1.31525
           28102         75.3575         42.2437         86.9957    -577.008E-03
           28103         60.4545         49.7466         65.8457        -6.32363
           28104         60.0884         50.6449         65.1542        -5.78415
           28105         59.9710         50.4874         64.7906        -6.34633
           28106         85.8314         40.4432         98.5626    -995.541E-03
           28107         84.7464         41.5664         97.4943    -712.935E-03
           28108         84.6003         41.1607         97.2907    -832.798E-03
           28109         66.8283         42.6712         77.0168     33.6815E-03
           28110         56.4103         58.4674         44.0753         11.5184
           28111         56.2976         58.4583         43.4350         11.6130
           28112         56.1385         44.0915         57.6959        -11.8681
           28113         56.0629         43.2482         57.8696        -11.9235
           28114         58.3001         42.9124         62.3332        -10.7528
           28115         57.5320         47.1358         59.1843        -11.1813
           28116         60.5123         65.4249         42.6112         10.8542
           28117         76.1723         42.0149         87.9189     614.130E-03
           28118         50.3896         46.4998         42.6380         13.4355
           28119         50.4017         45.8896         43.3079         13.4942
           28120         49.6445         44.9213         42.6518         13.4592
           28121         70.9680         81.7283         41.4458        -2.97067
           28122         51.6769         43.7087         48.2494        -13.4284
           28123         52.0110         44.8202         48.0163        -13.4516
           28124         81.1192         40.2531         93.3147         1.69184
           28125         80.8351         40.0612         92.9541         2.06573
           28126         71.8647         41.2668         82.8215         2.57947
           28127         72.5293         41.0542         83.6364         2.13149
           28128         96.8383         109.956         37.4225     739.634E-03
           28129         84.0881         40.9436         96.7019    -910.955E-03
           28130         83.5507         41.2124         96.1374    -798.320E-03
           28131         72.1620         40.9333         83.2722        -1.43274
           28132         69.4656         41.8083         80.0031        -2.69796
           28133         66.2559         42.8748         75.9133        -3.80974
           28134         67.0051         42.5702         76.8273        -3.89783
           28135         59.7964         46.0473         65.7665        -7.26623
           28136         59.2261         46.2703         64.5106        -7.96025
           28137         80.4950         39.8909         92.6452     491.868E-03
           28138         56.0742         54.0484         56.7840        -4.75218
           28139         62.8743         43.8259         70.7092        -6.62266
           28140         88.9105         100.680         33.5927        -2.72439
           28141         99.7482         111.975         33.1198        -2.76278
           28142         58.1715         57.2363         57.1248        -6.17243
           28143         83.8786         96.3800         40.0448     904.512E-03
           28144         47.1605         34.8753         47.4210         11.7317
           28145         48.3379         35.9799         48.5026         12.0363
           28146         48.0204         35.2586         48.6120         11.7423
           28147         78.9405         90.8108         40.8099         2.91746
           28148         79.7823         91.7710         40.8497         2.79328
           28149         80.5808         92.6890         40.9580         2.63392
           28150         81.3285         93.5487         41.1171         2.50346
           28151         52.5367         52.2775         40.3615        -13.0143
           28152         52.4857         52.7857         39.4468        -12.8400
           28153         53.5138         55.2881         38.2774        -12.3569
           28154         52.4223         54.4461         36.7231        -12.0356
           28155         52.3723         55.0141         35.7677        -11.6147
           28156         51.1169         53.4745         34.9961        -11.5482
           28157         73.3988         44.1448         84.4590        -3.35267
           28158         73.6849         44.3811         84.7878        -3.35603
           28159         92.3313         105.535         39.6873     517.311E-03
           28160         92.6992         105.824         39.0333     722.008E-03
           28161         91.5244         104.782         40.4736     258.448E-03
           28162         92.3867         105.680         40.2437     398.580E-03
           28163         72.2350         43.7488         83.1602        -2.97116
           28164         92.2064         105.125         38.0732         1.10347
           28165         49.4063         47.5375         39.3150        -12.9671
           28166         48.6592         46.9646         38.3704        -12.8038
           28167         81.3834         93.6096         39.6523     119.616E-03
           28168         81.2169         93.3693         39.1179     430.656E-03
           28169         81.7993         94.0199         39.2110     405.736E-03
           28170         72.2636         41.3986         83.2023        -3.16316
           28171         72.4129         42.0378         83.1990        -4.15851
           28172         72.6757         42.2735         83.5110        -4.11996
           28173         73.6461         42.3642         84.7109        -3.73245
           28174         49.8435         39.3865         49.2364         12.2217
           28175         50.7542         41.1874         49.3042         12.6411
           28176         74.8773         86.3262         41.1543         2.11485
           28177         74.7160         86.1513         41.0239         1.97705
           28178         74.4232         85.7228         42.1372         2.99925
           28179         73.1251         84.3919         40.7150         1.09288
           28180         65.0488         46.1172         73.7747        -4.62320
           28181         65.2562         46.2006         74.1740        -4.04054
           28182         64.4432         46.7326         73.0007        -4.13932
           28183         63.5934         48.6405         71.8065        -2.21796
           28184         64.6295         47.8159         73.3251        -2.59116
           28185         64.4363         47.8509         73.2016        -1.48573
           28186         65.0525         46.5655         74.0181         3.23957
           28187         64.4258         46.7477         72.9677         4.16843
           28188         59.3173         62.6915         50.0090         8.61322
           28189         59.3886         63.2879         51.5465         6.50322
           28190         58.4475         59.9811         54.1040        -6.74174
           28191         58.3075         59.1426         54.2516        -7.46685
           28192         58.0869         56.4079         56.9013        -7.39735
           28193         65.6477         74.5237         42.0865        -6.35106
           28194         66.1003         75.2564         42.2303        -5.78586
           28195         73.4106         84.1169         41.1041        -5.21089
           28196         82.6286         41.2027         95.1203     621.364E-03
           28197         65.1646         42.9488         74.0713        -5.67274
           28198         72.1569         83.0011         42.1850         3.61810
           28199         71.5233         82.1587         42.2498         4.15068
           28200         65.4417         74.6289         42.8405         4.99918
           28201         64.9143         73.7884         42.8564         5.62065
           28202         65.5362         74.6678         42.6644         5.32644
           28203         58.2597         59.0898         52.9320         8.72780
           28204         91.1909         104.013         37.9637        -1.23278
           28205         90.8205         103.593         37.8556        -1.33486
           28206         67.1371         45.3807         76.8753        -2.99014
           28207         66.2341         45.7756         75.6107        -3.44955
           28208         66.8103         45.4463         76.3751        -3.46662
           28209         58.7081         46.9127         63.5034        -8.00572
           28210         58.5620         46.6930         63.0301        -8.55470
           28211         59.0755         46.0537         64.0400        -8.50743
           28212         74.8689         42.3577         86.2039        -3.23834
           28213         83.2369         95.6437         39.6161     297.838E-03
           28214         83.6829         96.1754         40.0002     219.443E-03
           28215         83.5137         96.1622         41.8285    -149.710E-03
           28216         79.9993         92.0111         41.0661         2.94143
           28217         79.4178         91.3309         41.1577         3.20733
           28218         80.6941         92.8201         41.2446         2.77918
           28219         49.1009         36.5657         49.3699         12.1341
           28220         49.9921         37.0909         50.5421         12.1604
           28221         49.8929         36.2554         51.1057         11.7745
           28222         48.9850         35.7310         49.9330         11.7428
           28223         49.9228         38.6156         50.1497         11.8700
           28224         53.7835         57.2750         35.8501        -11.2594
           28225         72.3009         44.0435         83.0944        -3.77155
           28226         71.1948         43.9724         81.7097        -4.14801
           28227         70.7948         43.9765         81.2377        -4.12171
           28228         70.0255         43.9988         80.2271        -4.51582
           28229         93.0830         106.422         40.1920     473.824E-03
           28230         82.8050         42.1087         95.3863     723.790E-03
           28231         66.5294         75.9967         42.3558         5.01826
           28232         66.1750         75.5785         42.5396         4.91514
           28233         70.3388         41.7442         80.7319        -4.37483
           28234         67.7566         42.2338         77.6293        -4.45471
           28235         67.3136         42.4101         77.1239        -4.29111
           28236         67.7980         44.8349         77.5689        -3.96894
           28237         67.8283         44.6434         77.5126        -4.46722
           28238         75.7603         87.2482         41.1745         2.85398
           28239         75.1628         86.4906         41.2404         3.41373
           28240         76.1661         87.6441         41.0360         3.28661
           28241         64.6797         46.7918         73.4572        -3.42632
           28242         65.4857         46.2287         74.5830        -3.48958
           28243         83.1141         42.0255         95.7304    -458.522E-03
           28244         64.9134         43.3450         73.9991        -4.71143
           28245         65.2310         43.3084         74.5668        -4.02644
           28246         70.2098         80.5260         42.7139         4.47547
           28247         69.8752         79.9847         42.5957         5.08608
           28248         71.5859         82.4853         42.7487         2.54312
           28249         70.5702         81.0919         42.8290         3.78720
           28250         71.7211         82.5400         42.4551         3.31003
           28251         56.8690         50.6964         59.4286        -6.95276
           28252         56.5955         51.4346         58.3912        -7.10234
           28253         68.5146         44.7016         78.6128        -3.17100
           28254         68.7875         44.6964         79.0577        -2.41012
           28255         68.0721         44.9353         78.0989        -2.86298
           28256         67.6581         45.1917         77.5978        -2.62645
           28257         68.2417         44.9672         78.3984        -2.15450
           28258         56.8015         60.4726         51.3979         3.45907
           28259         56.8475         60.9014         51.3368         2.13498
           28260         56.5162         59.7688         52.0770         2.72821
           28261         77.5709         89.3511         39.3193    -529.723E-03
           28262         78.6420         90.5090         39.0048    -729.616E-03
           28263         78.6758         90.5139         38.7836        -1.06675
           28264         87.3659         99.9374         38.2923        -1.39650
           28265         88.5979         101.210         37.9643        -1.55572
           28266         95.5119         108.558         37.5257         1.02536
           28267         95.1170         108.087         37.2885         1.20577
           28268         95.5925         108.520         36.9192         1.25008
           28269         96.5534         109.943         38.9622     455.785E-03
           28270         54.6605         58.7410         37.5268        -10.5414
           28271         54.3329         38.5579         58.4530         10.0403
           28272         54.5605         39.5819         57.9937         10.6825
           28273         54.7523         37.1210         59.1432         10.2855
           28274         54.0964         37.2086         57.9400         10.6578
           28275         95.4296         109.081         41.0397     384.673E-03
           28276         95.3607         108.850         40.0511     499.104E-03
           28277         97.8704         110.786         36.1083    -729.042E-03
           28278         97.8561         110.848         36.4621    -521.866E-03
           28279         98.2505         111.170         36.0027    -432.647E-03
           28280         84.4911         42.3997         97.2901    -488.943E-03
           28281         87.1692         99.4613         36.4695        -1.03228
           28282         86.6721         98.9829         36.8221        -1.05409
           28283         87.1854         99.5682         36.9798    -809.133E-03
           28284         87.2862         99.7992         37.7291    -530.305E-03
           28285         87.2059         99.6569         37.3803    -653.928E-03
           28286         55.8358         57.3741         43.7372         11.8645
           28287         55.6094         57.1976         43.0755         11.9604
           28288         59.1275         64.0301         44.2114         9.52915
           28289         58.7326         63.2510         44.2168         9.83966
           28290         59.1465         44.2945         63.8467        -9.79731
           28291         58.5859         44.9596         62.7239        -9.94478
           28292         86.8374         38.0065         99.3057         1.72098
           28293         86.7804         37.6324         99.1673         2.03209
           28294         86.3746         38.4741         98.8737         1.67088
           28295         88.1562         37.4693         100.685     939.147E-03
           28296         88.3394         37.0536         100.817     890.500E-03
           28297         59.0416         48.3341         62.2979        -9.65767
           28298         57.1344         46.6837         58.4892        -11.4671
           28299         57.3131         47.9812         58.2792        -11.2907
           28300         56.9196         47.5281         57.5813        -11.5765
           28301         56.7172         46.3473         57.7487        -11.6956
           28302         62.6276         69.0120         43.7985         9.37861
           28303         62.5124         68.8669         44.3647         9.16843
           28304         59.9381         64.3492         43.0878         11.0735
           28305         59.4493         63.5792         42.6230         11.3303
           28306         74.1864         43.0501         85.6294        -1.19313
           28307         78.4207         41.0063         90.3676         1.59460
           28308         74.7252         40.2902         86.2058    -886.984E-03
           28309         74.3612         40.8316         85.7422        -1.96957
           28310         75.2358         40.9233         86.7318        -2.05346
           28311         68.1654         44.5756         77.9831         4.25491
           28312         68.1970         44.8887         78.2663         2.79876
           28313         69.3919         44.4504         79.8263         2.27126
           28314         68.9467         44.5825         79.2144         2.75042
           28315         53.0371         50.2102         45.1089         13.1907
           28316         53.6823         51.9661         44.7991         12.9408
           28317         49.8358         41.7209         46.1564        -13.3945
           28318         49.8335         42.6724         45.2697        -13.4767
           28319         49.4174         41.7513         45.2874        -13.4010
           28320         67.5083         77.4901         42.3095        -3.70253
           28321         66.9618         76.6637         42.3670        -4.45754
           28322         53.2739         46.0132         49.9710        -13.2051
           28323         84.8556         38.3316         97.2573     263.991E-03
           28324         84.2377         38.2134         96.5690     355.121E-03
           28325         84.4558         37.1764         96.6514     885.359E-03
           28326         84.9597         36.6684         97.1118         1.12857
           28327         84.2616         36.7548         96.3648         1.26433
           28328         75.0561         86.5075         41.4503        -2.41590
           28329         73.5943         84.6936         41.7100        -3.46217
           28330         84.0254         39.1871         96.3865         1.94900
           28331         83.3833         39.3641         95.7021         1.96547
           28332         83.5436         38.9671         95.8013         2.33097
           28333         50.0733         43.9650         45.0289        -13.2478
           28334         50.4467         45.2037         44.4704        -13.3430
           28335         55.0948         48.9276         51.9287        -12.7237
           28336         54.5772         48.3663         51.0989        -12.9066
           28337         55.5970         57.1064         41.5384         12.6036
           28338         56.8190         58.1365         44.3494         12.3827
           28339         56.8465         57.8083         45.2697         12.3470
           28340         68.9619         41.9681         79.3108         3.30345
           28341         68.9902         41.9463         79.2798         3.66777
           28342         67.9329         42.2323         77.9154         4.12517
           28343         67.8726         42.2652         77.9167         3.76343
           28344         52.9178         51.9921         41.8416         13.1887
           28345         84.0720         96.5682         39.7149     452.124E-03
           28346         75.3747         86.9123         40.9951         1.82367
           28347         74.8916         86.3652         40.8719         1.75185
           28348         49.0261         43.7771         42.9515         13.1982
           28349         47.0620         43.4782         38.8292        -12.9743
           28350         47.8266         43.5919         40.2327        -13.1944
           28351         78.6260         90.5758         39.9209    -292.664E-03
           28352         56.8757         59.6097         50.7316        -6.63134
           28353         62.7485         43.5173         70.3232        -7.26949
           28354         77.1041         88.7160         40.9033         3.17347
           28355         78.0294         89.7676         40.8211         3.07789
           28356         50.2621         40.0571         48.4862         13.0768
           28357         53.4499         54.6758         39.1141        -12.5980
           28358         92.3193         105.318         38.4677     917.334E-03
           28359         92.9495         105.967         38.3199     975.651E-03
           28360         92.8230         105.892         38.6586     843.257E-03
           28361         91.7591         104.728         38.5301     894.166E-03
           28362         71.3351         43.8595         82.0384        -3.31237
           28363         70.1581         44.0896         80.6181        -3.33646
           28364         71.3417         43.9080         81.9941        -3.60028
           28365         82.2413         94.4441         38.7094     683.718E-03
           28366         81.5698         94.0054         42.0207    -592.034E-03
           28367         81.1529         93.5034         41.4999    -591.220E-03
           28368         81.6146         94.0316         41.6589    -511.598E-03
           28369         75.6195         87.1548         42.2452         2.55399
           28370         70.5558         81.0981         41.5998         3.84454
           28371         82.7705         95.1369         39.6568     174.790E-03
           28372         82.2023         94.5065         39.6134    -285.613E-03
           28373         81.5964         93.8637         39.8589     226.413E-03
           28374         75.0408         86.5497         40.7032         1.45680
           28375         58.4425         55.1600         60.0852        -5.06507
           28376         58.2043         53.9716         58.7576        -8.03303
           28377         58.3246         53.9147         59.4131        -7.48950
           28378         58.6415         60.7524         53.1731        -7.09443
           28379         58.4187         59.8016         53.3458        -7.76551
           28380         58.2387         58.8933         53.5079        -8.39622
           28381         66.8366         76.2941         42.1242        -5.34538
           28382         65.7850         74.9114         42.4344        -5.60041
           28383         66.5204         75.9475         42.3264        -5.16397
           28384         86.7691         37.4961         99.2112     170.412E-03
           28385         87.2316         37.0959         99.6479     149.702E-03
           28386         85.7178         38.0756         98.1583     239.016E-03
           28387         85.3327         37.8895         97.7140     350.173E-03
           28388         65.3180         45.3468         73.9039         5.76301
           28389         64.7641         45.3359         72.9907         6.33789
           28390         64.1837         45.7931         72.1724         6.28977
           28391         64.7292         45.8022         73.0858         5.71479
           28392         67.2850         44.9761         76.8616         4.22877
           28393         67.3319         42.1636         76.8669         5.42463
           28394         65.2099         42.5057         73.8619         6.57182
           28395         65.7495         42.2459         74.5633         6.54693
           28396         65.0069         42.2205         73.4391         7.08658
           28397         64.4760         42.4818         72.7374         7.11170
           28398         96.7076         109.393         35.5028        -1.72110
           28399         97.0899         109.827         35.5821        -1.44737
           28400         60.8299         44.6513         67.2623        -7.86704
           28401         60.3118         44.7676         66.2836        -8.31111
           28402         60.6447         44.2698         66.7620        -8.49208
           28403         61.1691         44.1547         67.7411        -8.04681
           28404         57.8776         54.6482         56.7507         9.01987
           28405         57.8515         55.5875         55.8131         9.02275
           28406         86.5244         98.7581         36.4660        -1.27228
           28407         87.1324         39.4066         99.8561    -987.704E-03
           28408         86.9026         40.0024         99.6851    -894.278E-03
           28409         56.1282         54.6654         53.5805        -8.56742
           28410         56.1174         54.1702         54.4417        -8.16427
           28411         97.2682         109.439         33.9239        -3.91704
           28412         68.0332         42.1161         78.4878    -83.5311E-03
           28413         68.8621         41.8301         79.4727     474.237E-03
           28414         58.8302         61.4473         52.2797        -7.40492
           28415         58.5975         60.4970         52.4530        -8.07683
           28416         58.8061         52.9948         61.5187        -6.46345
           28417         58.5723         53.8511         60.6375        -6.30526
           28418         64.7832         47.2207         73.8137         1.17509
           28419         65.7661         46.5910         75.2080     861.045E-03
           28420         65.5858         46.5270         74.9100         1.87688
           28421         70.5368         41.8076         80.9211        -4.56284
           28422         51.3052         52.7397         37.4489        -11.8795
           28423         77.5499         89.1214         41.0328         3.85490
           28424         51.7570         38.2953         52.7757         12.2207
           28425         52.5336         39.7379         53.1059         12.5268
           28426         51.7424         42.2197         50.3540         12.7171
           28427         52.6895         43.2214         51.4001         12.7502
           28428         52.8834         42.4553         52.4785         12.4927
           28429         70.0335         80.5069         41.6583         3.72807
           28430         94.2601         107.497         39.0310     726.241E-03
           28431         68.2063         45.3500         78.1734        -3.13924
           28432         56.1665         53.6645         55.3269        -7.80635
           28433         85.8833         98.1504         36.9740        -1.20826
           28434         86.0370         98.3783         37.3273    -991.790E-03
           28435         87.6185         100.047         37.0299    -603.876E-03
           28436         87.5987         99.9574         36.6299    -760.550E-03
           28437         84.9377         41.1232         97.6705     304.223E-03
           28438         66.3818         75.3086         44.0602         6.10909
           28439         67.1649         76.4586         43.8062         5.64481
           28440         66.5901         75.7440         44.3001         5.47913
           28441         69.2431         79.4077         43.3461         4.16977
           28442         68.8848         78.8236         43.2293         4.85321
           28443         56.3227         51.3215         56.4343        -9.12531
           28444         56.4795         50.7105         57.2177        -9.05624
           28445         71.9727         43.6194         82.9899        -1.83262
           28446         56.5367         59.4567         51.9882         4.06489
           28447         58.1772         63.7369         48.9495         3.91717
           28448         57.8934         62.9217         49.1933         4.75589
           28449         58.3458         63.9711         48.5966         4.43789
           28450         58.0426         47.0772         61.7858        -9.01671
           28451         58.3771         46.5545         62.4953        -9.02486
           28452         98.5226         111.376         35.6150    -325.134E-03
           28453         98.1100         111.107         36.4027    -260.038E-03
           28454         87.9452         100.223         36.0152    -854.536E-03
           28455         87.5741         99.8786         36.3398    -908.929E-03
           28456         56.5079         58.5054         44.5848         11.4150
           28457         56.4153         58.1121         45.1958         11.3934
           28458         56.0462         57.5785         44.3427         11.7303
           28459         55.7216         56.7113         44.7048         11.9089
           28460         55.5055         56.5074         44.0889         12.0455
           28461         88.6372         36.4722         101.036     999.936E-03
           28462         88.8745         36.0713         101.218         1.08656
           28463         63.2997         70.1603         43.8347         8.91363
           28464         59.7497         63.8713         43.9607         11.0418
           28465         59.8419         63.9712         44.4816         10.8883
           28466         59.0425         62.4895         44.2443         11.3773
           28467         59.4103         63.3298         43.5030         11.2760
           28468         70.9149         43.8953         81.8023    -643.470E-03
           28469         70.5108         44.0557         81.2976        -1.03165
           28470         78.2392         42.3359         90.2830    -280.101E-03
           28471         79.8075         39.4723         91.8507    -240.044E-03
           28472         72.6883         40.9867         83.8327        -1.98183
           28473         73.4064         40.8532         84.6624        -1.87248
           28474         73.7654         40.6466         85.1017        -1.41275
           28475         73.0425         40.7834         84.2729        -1.52050
           28476         69.9311         44.2710         80.5435         1.72470
           28477         66.1574         75.5546         42.5320        -4.92681
           28478         54.3984         41.9995         55.1805        -12.4886
           28479         53.6319         41.2961         54.1205        -12.6088
           28480         85.9781         38.4380         98.4914     87.5455E-03
           28481         86.0709         38.8690         98.6500    -14.2838E-03
           28482         84.5984         37.5797         96.8704     616.970E-03
           28483         81.1231         38.1770         93.1558     793.486E-03
           28484         80.6820         38.4876         92.7130     545.276E-03
           28485         80.8780         38.8689         92.9738     196.947E-03
           28486         70.0021         80.7114         41.5925        -2.08241
           28487         68.5898         78.9830         42.0250        -2.54355
           28488         69.1202         79.6788         41.8595        -1.99905
           28489         85.3763         39.0380         97.8635         1.66159
           28490         85.4428         39.3577         97.9869         1.47731
           28491         84.3063         38.6870         96.6057         2.27968
           28492         80.6001         39.9849         92.6652         2.30642
           28493         81.2599         39.6434         93.3441         2.51121
           28494         70.9695         41.3903         81.8032         2.42306
           28495         71.7603         41.1991         82.7421         2.22280
           28496         68.7703         41.9973         78.9330         4.08757
           28497         61.5351         43.6997         68.2458        -8.20021
           28498         62.1152         43.6002         69.2637        -7.74127
           28499         80.0642         92.1898         40.2290     742.670E-03
           28500         51.6572         49.7922         41.6271        -13.2802
           28501         52.5006         51.6387         41.2303        -13.1517
           28502         89.6201         102.317         37.9577         1.40859
           28503         92.7691         105.716         38.0109         1.11994
           28504         73.0493         43.3002         84.2956        -1.36123
           28505         72.4069         43.4451         83.5422        -1.35147
           28506         49.4735         44.5330         42.6864        -13.4568
           28507         49.3555         44.9338         42.0062        -13.4151
           28508         48.4706         43.6886         41.4522        -13.3343
           28509         61.6875         47.3292         67.9804        -7.33522
           28510         62.4410         46.6855         69.2993        -7.12301
           28511         62.2262         46.4299         68.8518        -7.58455
           28512         77.2323         41.3487         89.0463        -1.61403
           28513         75.4367         39.6150         86.9888    -344.064E-03
           28514         74.3910         39.8534         85.8220    -453.149E-03
           28515         75.2376         39.5258         86.7505    -740.552E-03
           28516         60.9709         66.6375         48.4223         7.27811
           28517         61.6118         67.8594         47.6987         7.13594
           28518         61.6662         68.1109         48.0332         6.53244
           28519         61.0236         66.8905         48.7581         6.67430
           28520         86.8660         38.6354         99.4809    -119.158E-03
           28521         87.1919         38.3340         99.7909    -167.227E-03
           28522         84.9449         37.7331         97.2697     494.677E-03
           28523         64.7252         73.4600         42.8004        -5.92235
           28524         65.4102         74.4746         42.6938        -5.44243
           28525         65.8609         74.7653         41.8652        -6.45970
           28526         64.9046         73.4487         42.1071        -6.77238
           28527         65.9159         44.9479         74.7003         5.83349
           28528         65.3071         44.9104         73.7538         6.34477
           28529         66.4724         42.2434         75.6212         6.05559
           28530         65.8295         42.4998         74.8291         6.00317
           28531         66.7696         41.8699         75.8689         6.47108
           28532         65.6095         41.9929         74.2640         6.94317
           28533         66.2846         42.0410         75.2408         6.53740
           28534         96.4942         109.654         37.7558    -746.229E-03
           28535         95.9667         108.879         36.7182        -1.24298
           28536         71.5251         81.9587         41.8176        -5.07309
           28537         72.6947         83.4663         41.6917        -4.45542
           28538         72.7411         83.2492         41.0609        -5.57153
           28539         72.1189         82.4225         40.9766        -5.94328
           28540         61.7312         47.7160         68.1609         6.84059
           28541         62.2157         46.8584         68.9135         7.19234
           28542         61.6787         47.3039         67.9572         7.37268
           28543         61.1515         48.3211         67.0886         6.96400
           28544         85.9352         41.6306         98.8127    -694.480E-03
           28545         86.0164         40.7053         98.7984    -893.113E-03
           28546         86.2397         41.0237         99.0811    -806.750E-03
           28547         60.5927         48.9382         65.9678         7.14433
           28548         60.1700         49.9029         65.1621         6.72809
           28549         59.6796         50.9329         64.0719         6.47174
           28550         58.6606         52.7132         60.8940         7.39875
           28551         58.5858         53.3726         60.6588         6.87247
           28552         65.0588         43.1186         74.0542        -5.24472
           28553         68.5101         42.0811         78.6737        -3.82728
           28554         68.8721         41.9842         79.1810        -3.43566
           28555         67.7003         42.3243         77.6798        -3.89758
           28556         57.7163         54.9164         55.6457         9.57041
           28557         57.7191         55.8825         54.5559         9.67848
           28558         76.1076         87.7678         40.4010     973.651E-03
           28559         83.5506         95.9882         39.6144     239.398E-03
           28560         60.9786         48.0238         66.6412        -7.55920
           28561         60.4517         49.2260         65.6935        -7.05696
           28562         61.5294         46.9708         67.6052        -7.84472
           28563         60.8241         47.6648         66.2630        -8.06785
           28564         84.4362         41.6873         97.1693     405.999E-03
           28565         84.3258         42.3225         97.1005     474.209E-03
           28566         97.3960         110.379         36.5728    -777.475E-03
           28567         97.0546         110.182         37.3915    -643.574E-03
           28568         97.5168         110.578         36.9090    -595.285E-03
           28569         97.7527         110.596         35.8234    -939.254E-03
           28570         86.4897         38.7375         99.0871    -53.1794E-03
           28571         86.0394         39.6591         98.7161    -130.536E-03
           28572         69.9728         79.7437         41.5822        -6.42846
           28573         72.5751         83.7349         40.9520         1.59644
           28574         80.6686         92.8533         40.0301     258.003E-03
           28575         85.9128         38.9409         98.4414         1.56068
           28576         86.2040         38.1541         98.6271         1.92536
           28577         85.7350         38.6229         98.1898         1.81650
           28578         56.0861         46.3144         56.3707        -12.0241
           28579         55.8224         46.9756         55.3173        -12.2201
           28580         58.4484         61.7715         42.7441         11.7445
           28581         58.0118         60.7582         43.4225         11.9243
           28582         57.8396         60.8711         42.1389         11.9650
           28583         58.9434         62.5347         43.2177         11.5265
           28584         87.7557         99.9939         35.9021        -1.05016
           28585         54.7915         55.6495         42.8163         12.3113
           28586         55.2362         42.6391         56.4942        -12.2503
           28587         55.4095         43.5134         56.4107        -12.2373
           28588         65.3179         73.3402         43.1315         7.97059
           28589         66.1840         74.6796         43.1076         7.39966
           28590         61.2252         46.1172         66.9686        -8.66668
           28591         61.3772         46.5916         67.2723        -8.26927
           28592         60.7370         47.1399         66.0423        -8.53335
           28593         60.5982         43.3218         66.5095        -9.18628
           28594         61.2607         43.2929         67.6630        -8.74915
           28595         60.2765         66.2057         43.8519         8.76208
           28596         88.5134         35.9459         100.746         2.16992
           28597         87.3461         36.4675         99.5267         2.79205
           28598         86.5290         37.0148         98.7318         2.81305
           28599         86.5247         37.3561         98.8184         2.41023
           28600         56.7040         49.4307         55.9321        -11.6665
           28601         56.8273         50.6057         55.4775        -11.5200
           28602         56.7378         48.4697         56.5902        -11.6951
           28603         57.1648         48.8347         57.5001        -11.3244
           28604         57.1177         49.7882         56.8383        -11.2968
           28605         59.9502         64.1316         45.0324         10.6654
           28606         60.0807         64.3520         45.5097         10.4245
           28607         59.5451         63.2413         45.9004         10.6788
           28608         56.8266         58.7905         46.5984         10.6626
           28609         57.2456         59.8573         46.4413         10.2831
           28610         56.1583         57.3027         45.7862         11.5101
           28611         55.9006         56.8210         45.4502         11.7340
           28612         56.1581         57.6357         44.8578         11.6196
           28613         57.0248         45.3909         59.2605        -11.0992
           28614         82.6745         95.0173         39.5361     313.785E-03
           28615         51.3455         47.7570         43.5353        -13.4092
           28616         50.8881         46.4750         44.0043        -13.3964
           28617         52.0627         48.2708         44.6749        -13.4301
           28618         52.0348         48.6021         44.1796         13.4268
           28619         51.4241         47.3520         44.2395         13.4155
           28620         51.4956         48.4359         43.0450         13.3892
           28621         49.6751         48.5985         38.3955         12.8784
           28622         50.0284         47.7848         40.3060         13.1769
           28623         74.2007         40.5371         85.5991         1.32037
           28624         72.8883         40.8964         84.0801         1.75962
           28625         49.2153         42.1506         44.5000        -13.4279
           28626         48.6583         41.3738         44.1151        -13.3529
           28627         48.8705         40.9792         44.9114        -13.3221
           28628         73.4146         84.7400         40.4913    -414.108E-03
           28629         73.5675         84.9070         40.5259    -721.424E-03
           28630         50.5782         44.1558         45.4368         13.5428
           28631         50.5680         43.1772         46.3475         13.4897
           28632         72.1714         41.0273         83.2567        -1.78818
           28633         50.4057         45.6019         43.6195        -13.5113
           28634         51.3625         46.7964         44.5860        -13.5000
           28635         51.4890         47.9602         43.6279        -13.4157
           28636         78.9641         90.8637         38.9783     712.668E-03
           28637         52.5072         49.5201         44.2437        -13.3943
           28638         52.9820         50.6333         44.0002        -13.3569
           28639         51.9117         49.1836         43.1287        -13.3783
           28640         52.1689         47.2264         46.1967         13.4019
           28641         53.0329         48.2831         47.1592         13.3446
           28642         52.9728         47.4064         48.0022         13.2935
           28643         90.6141         103.229         37.2470         2.02910
           28644         89.9039         102.551         37.6224         1.71573
           28645         89.9494         102.505         37.2624         2.21857
           28646         91.3286         103.929         36.9451         2.19609
           28647         91.6722         104.339         37.0851         1.93409
           28648         90.9655         103.645         37.3828         1.77246
           28649         79.0300         91.0631         40.4142    -247.403E-03
           28650         76.3598         88.0636         41.1666        -1.43886
           28651         77.7055         89.6022         40.8069    -510.844E-03
           28652         53.1552         50.0380         45.3131        -13.3638
           28653         52.7185         48.7804         45.7461        -13.3980
           28654         53.3550         49.2749         46.8249        -13.3350
           28655         53.6909         51.6215         44.6610         13.2766
           28656         54.6485         53.3896         44.9801         13.0929
           28657         71.1825         41.2781         82.1016         1.94897
           28658         71.5985         41.0777         82.6217         1.47521
           28659         72.1147         41.0465         83.1867         1.84546
           28660         70.0421         41.6371         80.6981         2.58775
           28661         70.4316         44.0886         81.1952         1.14400
           28662         74.0314         42.7375         85.4840    -91.1651E-03
           28663         73.3794         42.8851         84.7238    -474.448E-03
           28664         52.7205         46.8132         47.9042         13.3630
           28665         53.4064         48.1366         48.4084         13.1904
           28666         50.7676         45.3380         44.7074         13.5402
           28667         50.0958         44.6916         43.8665         13.5210
           28668         52.8179         46.0224         48.8454        -13.3389
           28669         52.3265         45.9963         47.6923        -13.4352
           28670         52.1994         47.1383         46.2645        -13.4559
           28671         69.3554         80.0021         41.7782        -1.50067
           28672         69.5164         80.2266         41.6970    -964.427E-03
           28673         70.4726         81.3528         41.3682    -855.525E-03
           28674         70.3099         81.1326         41.4512        -1.39335
           28675         57.6365         59.8142         44.1640         12.0471
           28676         58.5883         61.6983         43.9710         11.6247
           28677         58.2032         60.7507         44.7130         11.7481
           28678         56.3121         47.8843         55.9041        -11.9695
           28679         55.1085         55.9288         43.5263         12.2305
           28680         54.8751         55.2197         43.9214         12.3598
           28681         54.9654         54.9746         44.7110         12.3543
           28682         54.6139         54.1383         44.7907         12.5222
           28683         52.0947         53.9363         37.7552        -11.7708
           28684         50.5662         53.4990         35.1063        -10.6536
           28685         84.9268         97.6715         41.2375     117.604E-03
           28686         84.8372         97.6406         41.9582     27.6533E-03
           28687         52.7794         40.7996         52.8100         12.7382
           28688         51.7909         37.4516         53.5456         11.8027
           28689         52.8634         37.5134         55.4534         11.4375
           28690         49.7701         35.3315         51.7538         11.2374
           28691         50.9011         36.8224         52.4440         11.7725
           28692         78.0267         89.6869         41.5348         3.84780
           28693         79.0715         90.9320         41.6524         3.47744
           28694         78.6336         90.4012         41.3619         3.61609
           28695         77.5912         89.1549         41.2414         3.99205
           28696         53.6085         44.3185         52.4151         12.7195
           28697         52.3389         39.9635         53.5217         11.7845
           28698         53.0730         41.6571         53.5119         12.2074
           28699         53.3054         40.9496         54.5606         11.8598
           28700         51.5071         38.1635         53.5683         11.1253
           28701         54.9913         58.7054         36.6796        -11.3376
           28702         55.2826         59.5430         36.1064        -10.9088
           28703         69.4071         43.9191         79.3188        -5.18319
           28704         69.8665         43.9924         79.9091        -5.03065
           28705         93.7395         107.141         40.2682     487.558E-03
           28706         68.7199         44.5290         78.8095        -3.55773
           28707         69.0097         44.3823         79.1048        -3.90853
           28708         69.3940         44.6493         79.6718        -3.24845
           28709         97.5491         110.333         35.6368        -1.20158
           28710         64.1614         73.0282         43.5820         4.72235
           28711         69.0476         78.8999         42.8180         5.39516
           28712         68.1771         77.7772         43.2577         5.53955
           28713         67.5909         45.0110         77.3742        -3.58066
           28714         57.3743         48.3742         60.1775        -8.97124
           28715         57.0362         49.0456         59.2000        -9.06491
           28716         57.5536         47.7967         60.5990        -9.16660
           28717         57.1101         48.4658         59.3446        -9.43463
           28718         57.2801         47.8847         59.7600        -9.63317
           28719         96.2605         109.604         38.8206     572.748E-03
           28720         96.5617         109.794         38.1062     630.476E-03
           28721         86.6869         40.6472         99.5288    -815.507E-03
           28722         75.9506         41.7148         87.5933        -1.80082
           28723         75.4348         39.8426         87.0016     146.673E-03
           28724         66.8339         76.0811         41.7318        -6.10725
           28725         66.1207         75.0767         41.7101        -6.51066
           28726         85.8752         40.2934         98.6116    -208.160E-03
           28727         86.3957         38.0098         98.8836     131.789E-03
           28728         64.5426         46.2990         72.9686         5.03684
           28729         65.0902         46.2044         73.8922         4.31957
           28730         67.5429         44.1042         76.8532         5.77341
           28731         66.9420         44.0410         75.9822         6.18209
           28732         65.0326         42.8603         73.7910         6.05047
           28733         64.2833         43.2461         72.8286         5.99061
           28734         65.0059         43.1548         73.9746         5.27717
           28735         67.2492         41.7739         76.4824         6.39814
           28736         74.1878         85.0494         40.9990        -5.04836
           28737         87.3665         38.7799         100.022        -1.06428
           28738         87.4527         38.0790         100.003        -1.33100
           28739         69.5501         41.6176         80.2709     906.470E-03
           28740         57.7761         54.3232         56.4473         9.43703
           28741         57.9370         53.8173         57.5419         9.05664
           28742         95.6282         109.022         39.3628     583.947E-03
           28743         56.4994         50.1343         57.2194        -9.54511
           28744         56.7833         49.4500         58.3475        -9.30765
           28745         56.4367         58.2308         52.2669         5.94392
           28746         56.3962         58.5766         52.5129         4.75176
           28747         56.2610         57.6905         52.9836         5.36955
           28748         56.4175         57.0439         50.7854        -9.06950
           28749         56.2987         56.5156         51.5967        -8.74325
           28750         58.6336         51.5055         60.8295         8.52274
           28751         58.6546         52.1959         60.8829         7.89630
           28752         58.4556         53.1716         60.0732         7.64288
           28753         58.4467         52.6602         60.0566         8.13888
           28754         58.8106         61.2243         50.0876         9.45305
           28755         58.3074         59.7591         50.0878         10.2147
           28756         56.0991         58.0958         53.4775         2.51398
           28757         56.3402         58.8586         52.6978         3.39338
           28758         69.5360         44.5380         80.0671        -1.51839
           28759         68.8888         44.9150         79.1758        -2.28635
           28760         99.2766         111.891         34.3883    -709.223E-03
           28761         87.4888         38.9291         100.180    -940.106E-03
           28762         87.2561         39.5555         100.014    -863.964E-03
           28763         88.2158         37.3562         100.733    -890.665E-03
           28764         87.9669         37.9048         100.551    -870.092E-03
           28765         64.1692         42.7410         72.3506         7.03842
           28766         63.8364         42.5332         71.7482         7.52508
           28767         63.5522         42.7941         71.3850         7.45177
           28768         96.6682         109.469         35.9919        -1.40269
           28769         87.6190         36.7678         100.012     84.2421E-03
           28770         87.2317         37.4750         99.7072     19.4069E-03
           28771         87.2384         37.8787         99.7751    -83.0372E-03
           28772         86.9253         37.7523         99.4185     57.9028E-03
           28773         86.9330         38.1574         99.4861    -43.9846E-03
           28774         63.2857         71.1530         42.7760        -7.21530
           28775         63.9486         72.1601         42.6478        -6.85536
           28776         64.0230         72.2100         42.4226        -7.03135
           28777         68.8881         78.4620         42.3169        -6.29392
           28778         69.4056         79.0891         41.9691        -6.32296
           28779         68.1691         77.4370         42.3299        -6.74824
           28780         70.4540         80.5156         41.9138        -5.74328
           28781         88.6516         35.5916         100.801         2.53297
           28782         57.8361         51.4704         58.1809        -10.0894
           28783         57.5974         51.2497         57.5195        -10.4927
           28784         57.6961         50.3894         58.2014        -10.5685
           28785         59.7025         63.5111         47.3438         9.93567
           28786         56.4436         57.4725         47.9690         10.6248
           28787         56.7111         58.3569         47.2537         10.5718
           28788         56.8690         58.7858         47.4996         10.2372
           28789         58.1829         45.5791         61.8874        -9.97525
           28790         56.2546         47.3107         56.9004        -11.2639
           28791         56.0428         48.5453         55.8915        -11.1589
           28792         55.9491         47.7496         55.8822        -11.4864
           28793         50.3349         44.6442         44.4328        -13.5387
           28794         48.5539         44.3735         40.9230        -13.2876
           28795         77.4836         89.2565         39.3412     486.691E-03
           28796         51.1918         48.6715         41.9719        -13.3277
           28797         50.3490         48.0505         40.7315        -13.2198
           28798         49.5285         47.4133         39.6311        -13.0826
           28799         54.2637         50.9410         47.3110        -13.1820
           28800         54.2450         50.4983         47.8214         13.1714
           28801         54.9328         52.0155         47.9716         12.9872
           28802         54.7592         51.1196         48.5985         13.0113
           28803         70.2694         41.3822         81.1115     966.534E-03
           28804         68.4073         45.0480         78.7055     632.230E-03
           28805         68.7346         44.9094         79.1275    -10.7032E-03
           28806         69.6321         44.4654         80.2475    -108.087E-03
           28807         52.8016         45.4595         49.2991         13.3185
           28808         52.2467         45.5956         47.8613         13.4452
           28809         67.0972         77.0313         42.4818        -3.46149
           28810         67.9843         78.1918         42.2200        -2.98010
           28811         68.6694         79.2190         42.0192    -990.274E-03
           28812         69.6884         80.4466         41.6173    -515.649E-03
           28813         53.5275         49.5347         47.3237        -13.1166
           28814         57.4315         60.3540         41.6007         12.0543
           28815         57.2986         60.4745         40.7110         11.9800
           28816         85.5676         39.7658         98.1839         1.26348
           28817         56.1218         55.0769         52.7367        -8.93702
           28818         56.0544         54.1363         53.0780        -9.44345
           28819         65.8279         75.2176         42.7870         4.59114
           28820         65.1914         74.3971         43.0665         4.62954
           28821         66.3357         75.9761         42.6966         4.04042
           28822         65.3423         73.7820         44.5067         6.55181
           28823         67.5492         45.1273         77.3759        -3.22267
           28824         77.5122         41.7740         89.4321    -552.366E-03
           28825         78.3461         41.4405         90.3469    -864.635E-03
           28826         74.3129         42.1713         85.5936        -3.01757
           28827         76.2024         41.2088         87.5927        -3.90470
           28828         74.8227         39.4448         86.2536        -1.30652
           28829         75.9277         38.9905         87.4388        -1.68241
           28830         61.5154         46.9672         67.5713         7.87367
           28831         60.8717         47.6428         66.3600         8.03022
           28832         61.0297         47.9811         66.7450         7.52859
           28833         87.0522         40.2065         99.8761    -805.576E-03
           28834         86.6207         42.6366         99.6696    -519.243E-03
           28835         57.5995         54.1969         55.6505         9.99169
           28836         96.0961         109.464         39.0265    -567.574E-03
           28837         66.8825         41.6119         75.9552         6.66240
           28838         86.1799         40.7166         98.9930    -240.911E-03
           28839         66.9339         76.1537         41.4864        -6.29750
           28840         66.4167         75.4619         41.5324        -6.47722
           28841         67.1913         76.5327         41.6504        -6.06300
           28842         66.8596         43.7770         75.8411         6.37728
           28843         55.7990         52.3914         52.9552        -10.6272
           28844         55.7408         51.4174         53.3486        -10.9584
           28845         55.8905         51.2062         54.2363        -10.6039
           28846         56.4590         57.8605         51.9438         7.00287
           28847         56.5960         58.7361         51.5280         6.44449
           28848         58.2726         53.5017         59.1970         8.08544
           28849         58.4238         53.6873         59.8731         7.31786
           28850         57.5219         54.7951         54.7117         10.1789
           28851         56.3543         59.4931         52.5481    -664.546E-03
           28852         57.1181         61.7232         50.7775         1.68497
           28853         69.2525         79.2389         41.7554         5.23614
           28854         93.9940         107.314         39.6397     610.955E-03
           28855         51.1534         38.7235         52.4005         11.5540
           28856         56.4155         60.9362         36.7932        -10.9206
           28857         56.1136         60.1372         37.3481        -11.3046
           28858         70.0494         42.0279         80.1691        -5.25454
           28859         71.0793         42.2287         81.4870        -4.82906
           28860         71.2673         42.1523         81.7349        -4.72355
           28861         53.0519         55.5628         37.9030        -11.4984
           28862         52.5364         53.9141         38.8139        -12.1029
           28863         54.7099         39.7578         57.1435         11.8181
           28864         50.8755         37.6678         51.6744         12.1884
           28865         55.2648         55.7859         44.4857         12.1769
           28866         56.4868         46.9384         56.8899        -11.8519
           28867         55.6065         44.3900         56.4157        -12.1543
           28868         55.0125         44.8470         54.8701        -12.4519
           28869         69.6040         41.7729         80.1080        -3.09788
           28870         69.9971         41.7237         80.5177        -3.42181
           28871         75.5400         42.5041         87.2152     263.323E-03
           28872         75.7496         42.3042         87.4525    -106.215E-03
           28873         76.5774         42.1402         88.3915    -157.445E-03
           28874         75.0972         42.8693         86.6901     996.132E-03
           28875         74.4624         42.8947         85.9657     830.898E-03
           28876         48.9855         43.9014         42.2893         13.4217
           28877         49.9698         43.3907         44.8678        -13.5149
           28878         74.2401         85.6714         40.2325    -199.295E-03
           28879         73.4806         84.8149         40.3532    -3.77756E-03
           28880         74.3721         85.8138         40.4264    -828.900E-03
           28881         75.3269         86.8924         40.2036    -552.857E-03
           28882         51.4157         48.9494         42.1591         13.3392
           28883         52.2203         50.0426         42.7533         13.3460
           28884         52.2755         49.4985         43.6452         13.3927
           28885         74.9526         40.7755         86.4244         1.83347
           28886         53.4642         41.1640         53.8811         12.6325
           28887         85.3659         97.7673         38.0883     810.245E-03
           28888         86.0434         98.4067         37.4609     944.082E-03
           28889         56.0193         57.8864         41.5090        -12.4784
           28890         56.8221         59.1109         41.9734        -12.3014
           28891         56.2163         58.5904         40.7315        -12.3133
           28892         54.4297         45.1617         53.4979         12.6102
           28893         54.5808         44.1786         54.5922         12.3669
           28894         53.7529         43.3353         53.5123         12.4743
           28895         93.3831         106.330         37.7813         1.18936
           28896         94.4983         107.440         37.3608         1.25205
           28897         60.4744         48.5949         65.6216         7.71084
           28898         57.3549         53.9408         54.7344         10.5914
           28899         57.1567         53.2165         54.5832         10.9589
           28900         57.0857         53.8227         53.6656         11.1104
           28901         47.7832         43.4102         40.7101        -13.0219
           28902         69.0633         41.9297         79.3322        -3.84796
           28903         58.4482         45.8283         62.5091        -9.54398
           28904         58.7438         45.9554         63.2382        -9.05534
           28905         75.4400         42.6504         87.0959     611.079E-03
           28906         74.5432         42.7542         86.0690     483.472E-03
           28907         75.1371         40.5183         86.6514         1.45538
           28908         59.5111         65.2270         45.8700         7.63569
           28909         97.7417         110.892         37.2659    -180.545E-03
           28910         97.5036         110.734         37.7534    -267.581E-03
           28911         97.3561         110.690         38.3472    -120.983E-03
           28912         66.1434         75.2479         44.8465         5.03644
           28913         66.6984         76.1118         44.7247         4.45172
           28914         67.2310         76.9049         44.5991         3.93527
           28915         61.1440         68.7048         45.6237         4.87473
           28916         61.5958         69.6355         45.5453         3.74786
           28917         96.6024         110.375         41.2193     42.6604E-03
           28918         67.7596         77.8490         42.2406         3.41599
           28919         75.5044         87.0492         41.3416         2.07939
           28920         87.0403         41.3048         99.9961    -585.118E-03
           28921         87.1429         40.4005         100.002    -707.156E-03
           28922         64.4268         42.8687         72.8265         6.61743
           28923         62.9170         41.8566         70.2311         8.44196
           28924         62.9532         42.1463         70.3039         8.31072
           28925         63.6752         41.7456         71.3798         8.09420
           28926         63.0035         42.4361         70.4163         8.13138
           28927         97.5144         110.656         37.2992    -416.293E-03
           28928         97.8516         110.925         36.8533    -344.516E-03
           28929         63.5130         71.5864         42.9654        -6.80693
           28930         64.0034         72.3586         42.9193        -6.43394
           28931         62.6365         69.9889         42.0074        -8.17129
           28932         63.5697         71.3933         41.6082        -7.81903
           28933         69.3180         78.7446         40.9468        -7.11726
           28934         68.1796         77.1783         40.8641        -7.65738
           28935         69.6264         79.5514         42.3826        -5.61913
           28936         63.5411         44.5968         70.9169         7.79019
           28937         64.0453         44.1608         71.7173         7.64518
           28938         63.0443         45.0810         70.1398         7.84568
           28939         69.5030         79.5579         41.8118         5.14571
           28940         88.0615         36.0114         100.229         2.67959
           28941         57.4090         50.0729         57.5359        -10.9408
           28942         57.5162         49.2201         58.2167        -10.9811
           28943         59.1035         48.9063         62.3692        -9.34035
           28944         58.7726         49.2970         61.4863        -9.56637
           28945         58.7965         61.5211         46.9158         10.9149
           28946         58.9241         61.7232         47.4851         10.6207
           28947         58.2719         60.2390         47.3492         11.2129
           28948         59.9104         63.9864         46.2635         10.2457
           28949         62.5704         69.0250         44.7324         8.89334
           28950         55.2914         55.2300         45.7152         12.1347
           28951         55.6237         56.0297         45.7449         11.9044
           28952         55.2909         54.9029         46.3523         12.0981
           28953         58.4969         62.7606         44.8305         9.77779
           28954         56.6464         46.2544         58.1878        -11.1798
           28955         77.6521         89.4954         40.0480    -479.611E-03
           28956         76.4571         88.1388         39.6833     186.170E-03
           28957         75.3121         86.8717         39.9934    -117.644E-03
           28958         84.1584         96.5685         39.0375         1.00465
           28959         83.8230         96.2463         39.2795     439.984E-03
           28960         79.1796         91.2247         40.3622     360.680E-03
           28961         79.4443         91.4937         40.2465     968.684E-03
           28962         53.7260         50.5233         46.2914        -13.2888
           28963         53.6662         51.5098         44.7556        -13.2802
           28964         55.5107         49.3797         52.6645        -12.5180
           28965         53.6088         50.0111         46.6150         13.3054
           28966         53.6966         49.4627         47.5436         13.2665
           28967         53.4190         50.6602         45.2229         13.3295
           28968         72.0936         40.8441         83.2209     932.027E-03
           28969         72.5258         40.6079         83.7283     442.876E-03
           28970         68.1545         44.8187         78.1358         3.31996
           28971         67.2881         45.2903         77.0665         3.03281
           28972         66.5892         45.6845         76.1635         2.92466
           28973         71.9484         43.4069         83.0376    -724.740E-03
           28974         72.7552         43.0913         83.9912    -642.627E-03
           28975         71.3904         43.6773         82.3843    -83.3182E-03
           28976         51.9490         44.2102         48.4176         13.4220
           28977         51.2523         43.7880         47.2454         13.4915
           28978         51.5763         45.1805         46.6985         13.5147
           28979         70.5031         81.4049         41.2998    -297.699E-03
           28980         68.1061         78.4179         42.2043        -2.41133
           28981         67.7603         41.9371         77.2714        -5.84279
           28982         85.4686         97.9766         38.7754     583.587E-03
           28983         74.9789         42.4760         86.5724    -167.981E-03
           28984         75.1615         40.0993         86.6978     658.071E-03
           28985         96.2081         109.866         40.6902    -313.535E-03
           28986         96.4011         109.694         38.4877    -592.175E-03
           28987         96.6958         109.899         37.9052    -654.297E-03
           28988         86.9767         40.9017         99.8855    -354.418E-03
           28989         86.9162         40.2900         99.7482    -314.957E-03
           28990         86.6640         40.8182         99.5343    -290.758E-03
           28991         72.1695         82.4387         40.6611        -6.08349
           28992         71.6053         81.7247         40.5381        -6.27199
           28993         71.5252         81.6386         40.8863        -6.25040
           28994         70.4447         80.2246         40.8462        -6.70664
           28995         65.7025         43.4911         74.2164         6.95272
           28996         66.5502         43.5214         75.4288         6.53390
           28997         55.8831         50.3476         54.5925        -10.8981
           28998         61.9304         68.0051         45.7484         8.73490
           28999         61.8418         67.9417         46.3346         8.35658
           29000         57.0404         60.2504         50.3396         6.38737
           29001         57.3836         61.0115         49.4945         6.84359
           29002         57.3293         61.2305         49.9410         5.81049
           29003         56.6543         58.0097         49.2183        -9.61394
           29004         56.5168         57.5342         49.9537        -9.35663
           29005         55.9136         53.4670         52.5604        -10.2512
           29006         58.1701         53.2747         58.8209         8.55056
           29007         58.0487         52.9276         58.3889         9.11845
           29008         87.9207         36.9939         100.322        -1.67096
           29009         87.6281         37.6679         100.125        -1.44406
           29010         54.8596         40.7188         57.6545         11.1825
           29011         54.5111         41.2221         56.6403         11.5312
           29012         55.3210         41.9259         57.6484         11.4929
           29013         55.9027         60.0452         38.7391        -10.7248
           29014         85.6906         37.4493         97.8800         2.91408
           29015         84.7973         37.7896         96.9411         3.07227
           29016         84.5370         38.2501         96.7644         2.66694
           29017         54.7535         53.2641         46.7546         12.4531
           29018         54.6544         52.6594         47.2645         12.5045
           29019         55.8423         49.8366         53.1851        -12.3368
           29020         55.4055         45.6214         55.3942        -12.2079
           29021         55.1462         46.3033         54.4038        -12.3344
           29022         54.7487         45.5251         53.8798        -12.5795
           29023         57.3592         59.0333         44.8248         12.1386
           29024         58.0214         59.9811         46.1573         11.6450
           29025         57.6505         59.3727         45.5973         11.9245
           29026         75.0450         40.3590         86.5604         1.10898
           29027         51.1632         42.8870         47.8558         13.4237
           29028         51.7128         43.0676         48.8718         13.3633
           29029         75.8518         87.3999         41.2063         2.46496
           29030         76.9109         88.6291         40.9580         2.05643
           29031         76.5685         88.2797         41.0838         1.67430
           29032         51.7029         49.1710         42.7694        -13.2815
           29033         52.0215         50.4338         42.0500        -13.1048
           29034         81.5333         93.6690         38.7277     720.132E-03
           29035         81.9293         94.0325         38.2173         1.06323
           29036         82.6368         94.8049         38.1988         1.02505
           29037         54.0599         53.3898         43.0706        -13.1206
           29038         54.1405         54.0649         42.2089        -13.0206
           29039         53.3328         52.8510         41.7199        -13.1091
           29040         55.0690         55.9954         41.8421        -12.7713
           29041         55.8706         57.2212         42.3228        -12.6202
           29042         92.8974         105.649         37.0202         1.72493
           29043         92.1608         104.876         37.1127         1.77976
           29044         69.3701         79.7475         41.7623         3.60046
           29045         68.6533         78.9085         41.9612         3.51553
           29046         60.0693         49.8873         64.8822        -6.99229
           29047         53.9940             42.         54.3848         12.6202
           29048         54.0233         40.9623         55.0961         12.4082
           29049         55.5037         43.9910         56.6256         11.9724
           29050         60.3679         48.2004         65.3313         8.20207
           29051         59.7758         48.8852         64.0031         8.48116
           29052         57.3189         55.6744         52.4076         10.9091
           29053         57.4712         56.4649         52.0050         10.7485
           29054         64.0781         46.3099         72.1659         5.64141
           29055         63.6773         46.2781         71.4328         6.22529
           29056         65.4653         73.6793         43.5636         7.50599
           29057         64.9080         72.7967         43.6596         7.86976
           29058         59.4720         45.4837         64.7611        -8.55822
           29059         60.3791         43.8439         66.1635        -9.06662
           29060         59.6714         43.9658         64.8585        -9.53255
           29061         60.3169         66.3452         44.2023         8.46976
           29062         65.7805         46.2955         75.1166         2.50759
           29063         66.6268         45.9838         76.3639         1.24746
           29064         66.3617         45.5588         75.7084         3.90268
           29065         65.8531         45.9592         75.0613         3.64865
           29066         57.7813         51.1200         58.1517         10.2717
           29067         57.5405         50.2680         57.8101         10.7707
           29068         57.2641         51.0466         56.5456         10.9920
           29069         77.3916         89.0832         38.9026         1.39086
           29070         77.2935         89.0239         39.1915     824.231E-03
           29071         76.7245         88.3847         39.2318         1.02637
           29072         67.8007         77.7096         44.3904         3.52151
           29073         63.4014         71.3154         47.0182         5.04167
           29074         64.4109         72.8484         46.1993         4.93404
           29075         58.2281         63.5591         48.6138         5.07598
           29076         68.4828         78.8074         42.0561         2.88085
           29077         87.9329         38.0847         100.546    -726.251E-03
           29078         88.1300         37.5177         100.671    -722.375E-03
           29079         88.0330         37.6847         100.596    -589.438E-03
           29080         86.9117         42.1331         99.9425    -524.529E-03
           29081         62.2628         42.6131         69.2577         8.47406
           29082         61.6297         43.1634         68.2892         8.55026
           29083         62.7923         43.6552         70.4820         6.98301
           29084         62.2412         43.7042         69.5199         7.51015
           29085         61.7970         44.0544         68.8732         7.49954
           29086         97.2141         110.423         37.7464    -481.177E-03
           29087         60.6937         66.9330         43.5997        -8.58343
           29088         60.8797         67.3280         43.8738        -8.21196
           29089         61.4381         68.2501         43.5377        -8.01002
           29090         62.0588         69.2577         43.2438        -7.73743
           29091         88.0374         36.4305         100.405    -12.8474E-03
           29092         66.1772         74.4409         41.9596        -8.18293
           29093         66.3521         75.0548         43.4763        -6.88715
           29094         72.2448         82.5444         40.8007        -6.02507
           29095         69.9249         79.5261         40.7364        -6.95822
           29096         62.5544         45.6598         69.3353         7.88850
           29097         62.0131         46.3346         68.4513         7.84878
           29098         62.5470         46.3936         69.4272         7.31684
           29099         63.1642         46.2646         70.5303         6.77806
           29100         69.1325         41.9300         78.9744        -5.64594
           29101         69.2344         41.9982         79.1207        -5.54946
           29102         63.6653         71.5360         41.3305        -7.83751
           29103         72.8019         83.2496         40.7734        -5.81687
           29104         66.2313         43.6694         74.9580         6.68920
           29105         59.5317         63.1514         46.7836         10.3549
           29106         62.1819         68.7350         46.7058         7.54948
           29107         61.4958         67.5275         47.4549         7.62262
           29108         60.9493         66.4532         47.9615         7.86735
           29109         57.4207         60.8518         49.0823        -7.56902
           29110         57.6484         61.3279         48.3489        -7.95298
           29111         88.7840         36.0647         101.103        -1.46684
           29112         96.6094         110.380         41.2026    -26.8031E-03
           29113         96.8229         110.431         40.1040    -118.149E-03
           29114         53.3137         37.1900         56.5126         11.0647
           29115         72.0184         40.4531         83.1267    -979.639E-03
           29116         72.9825         40.1574         84.2243    -880.088E-03
           29117         72.2952         40.5286         83.4666    -207.710E-03
           29118         71.7024         40.8381         82.7890     372.711E-03
           29119         73.1217         40.2975         84.4045    -140.122E-03
           29120         85.8438         37.0175         97.9223         3.41268
           29121         55.4321         55.9086         45.0082         12.0769
           29122         54.9048         53.9352         46.3062         12.3666
           29123         54.6134         53.5254         45.7845         12.5442
           29124         55.9184         45.8112         56.5363        -11.8582
           29125         56.2279         46.5505         57.0365        -11.4970
           29126         55.9144         46.6567         56.2094        -11.7277
           29127         55.4578         46.7956         54.9600        -12.0696
           29128         59.1692         62.3972         46.4229         10.7882
           29129         58.4914         60.9395         46.4298         11.2739
           29130         57.8210         59.2918         47.0800         11.5857
           29131         70.9191         43.8871         81.8104     554.218E-03
           29132         84.5493         96.9503         38.8279         1.41260
           29133         85.5771         98.0360         38.5962         1.47522
           29134         85.1895         97.6618         38.8099         1.07556
           29135         84.9854         97.4769         39.0104     720.897E-03
           29136         73.6758         85.0216         40.1708     616.056E-03
           29137         59.6159         50.5493         63.7821        -7.18332
           29138         58.4918         50.6985         60.4902        -9.28526
           29139         58.6566         49.8993         61.0743        -9.45441
           29140         59.0604         49.7744         62.2182        -8.87721
           29141         58.8864         50.5592         61.6550        -8.70363
           29142         57.3950         57.6433         48.8328         11.5712
           29143         57.7423         58.7939         48.0325         11.4652
           29144         93.4838         106.210         36.7136         1.83363
           29145         92.9946         105.670         36.6713         2.01503
           29146         93.6795         106.317         36.2969         2.16368
           29147         94.1604         106.849         36.3415         1.98514
           29148         53.5554         47.0827         49.7790         13.1299
           29149         53.6381         48.1165         48.9001         13.2102
           29150         54.1225         47.6816         50.5869         13.0223
           29151         54.1247         46.9627         51.2737         12.9479
           29152         53.9451         52.5210         44.0968        -13.2047
           29153         54.6701         53.6884         44.5590        -13.0789
           29154         52.7932         51.4731         42.7865        -13.0296
           29155         83.2691         95.3977         37.5692         1.36649
           29156         83.9588         96.1666         37.6607         1.21520
           29157         53.4726         44.2696         51.7675         13.0560
           29158         52.9546         44.5244         50.4133         13.2274
           29159         59.3088         64.4635         44.8219         8.98820
           29160         59.7573         65.3303         44.5358         8.73654
           29161         64.4689         72.4292         44.9194         6.97525
           29162         64.1175         72.0240         45.4868         6.60021
           29163         64.1210         71.7457         44.6689         7.60567
           29164         62.0481         41.6776         68.8863         8.91891
           29165         61.1348         41.4546         67.4659         9.38269
           29166         67.4849         76.2230         40.8637        -7.94118
           29167         66.7745         75.2238         40.8903        -8.24862
           29168         56.2656         55.4063         47.6399         12.4625
           29169         55.8548         54.2112         48.0172         12.6270
           29170         55.9758         52.4662         50.9103        -12.3802
           29171         55.5759         52.0400         50.0773        -12.6333
           29172         73.6053         84.9673         42.1931        -1.01188
           29173         66.5887         76.5841         42.8515        -2.19245
           29174         54.7591         48.5195         51.9442        -12.4702
           29175         54.4323         48.3394         51.1442        -12.6850
           29176         54.3547         50.3169         49.0481         12.7131
           29177         53.9438         49.3107         48.8223         12.9387
           29178         54.1043         50.6498         47.8761         12.8409
           29179         68.2553         45.0739         78.4935         1.14256
           29180         57.6910         60.9851         46.1270         9.90676
           29181         57.6077         60.7856         46.7155         9.67897
           29182         57.1688         59.6509         47.0325         10.0583
           29183         55.9672         55.5041         55.4773         4.20736
           29184         62.6478         69.2610         45.2601         8.44473
           29185         58.9394         63.7348         45.1223         9.15710
           29186         58.8173         63.4421         44.8105         9.47747
           29187         59.1826         64.1675         44.5106         9.31044
           29188         67.2585         45.2094         76.9445         3.55786
           29189         54.2954         51.6351         47.3119         12.7324
           29190         54.4130         51.3152         48.0991         12.6783
           29191         64.8133         73.7575         43.0398        -5.24971
           29192         61.5438         67.4935         46.9631         8.09189
           29193         55.5310         53.1740         48.3847         12.7535
           29194         55.2760         52.2166         48.8425         12.8279
           29195         56.0783         54.1630         48.9627         12.4602
           29196         56.4609         55.2740         48.7843         12.2368
           29197         56.5611         55.0392         49.6296         12.0876
           29198         56.2001         53.9389         49.8073         12.3130
           29199         66.7679         45.9734         76.5769     540.602E-03
           29200         67.7442         45.4447         77.8610     176.551E-03
           29201         67.5895         45.4542         77.6494     878.944E-03
           29202         67.4881         77.7060         42.4641        -2.07618
           29203         67.5888         77.8792         42.4483        -1.53303
           29204         54.6143         49.3719         50.8097        -12.5443
           29205         54.8713         49.4579         51.5888        -12.3132
           29206         55.0379         50.4613         51.2756        -12.1255
           29207         54.7889         50.3750         50.4979        -12.3555
           29208         54.3175         49.3144         49.9527        -12.7358
           29209         54.5639         50.3375         49.7326        -12.5624
           29210         56.9232         52.4892         54.3224         11.3366
           29211         56.5730         52.6612         52.8628         11.7848
           29212         56.8576         53.2832         53.3035         11.4396
           29213         73.7982         39.9680         85.1526    -617.562E-03
           29214         70.1008         44.2409         80.8079    -807.588E-03
           29215         71.0269         43.8085         81.9331    -810.876E-03
           29216         70.5482         44.0331         81.3700    -110.957E-03
           29217         57.1508         55.3074         52.0743         11.1903
           29218         57.0851         54.5779         52.7721         11.1841
           29219         65.2759         74.0890         45.5213         4.90564
           29220         60.3142         67.2329         46.1087         5.52424
           29221         86.9230         42.7274         100.014    -437.102E-03
           29222         86.9711         42.2295         100.018    -479.848E-03
           29223         87.0755         41.7305         100.082    -483.012E-03
           29224         87.0215         42.2303         100.075    -435.891E-03
           29225         87.7251         38.6790         100.408    -701.727E-03
           29226         87.7576         38.4999         100.414    -846.863E-03
           29227         57.3724         50.9663         56.9321        -10.8685
           29228         57.0874         50.6824         56.2364        -11.2239
           29229         56.3668         57.5201         46.8041         11.1087
           29230         56.6628         47.0116         58.0535        -10.9478
           29231         77.8483         89.7649         40.7549     97.4430E-03
           29232         71.1405         41.1130         82.1223     986.595E-03
           29233         63.5305         40.8557         71.2898         8.10940
           29234         63.0123         40.9712         70.4779         8.41315
           29235         96.9044         110.348         39.1207    -287.435E-03
           29236         96.6957         110.192         39.5077    -319.355E-03
           29237         96.8842         110.395         39.5087    -221.343E-03
           29238         86.9674         41.5044         99.9415    -378.893E-03
           29239         86.9801         42.1088         100.018    -389.906E-03
           29240         63.6927         71.6182         41.0105        -7.80656
           29241         63.6963         71.6867         40.7769        -7.71659
           29242         70.4387         80.2107         40.3981        -6.73811
           29243         69.8566         79.4590         40.2293        -6.93785
           29244         69.3121         78.7225         40.2980        -7.19654
           29245         69.8912         79.4753         40.4691        -7.00021
           29246         63.7915         42.7958         71.5697         7.71462
           29247         63.1456         42.9308         70.5421         8.09450
           29248         62.1546         44.8800         70.1383         5.07976
           29249         62.5944         44.4359         70.6353         5.56508
           29250         64.2192         43.5701         72.9685         5.18306
           29251         72.6712         40.0669         83.8167        -1.71236
           29252         83.8607         38.1965         95.9632         3.17091
           29253         84.9538         37.4378         97.0021         3.54458
           29254         55.0301         54.4691         45.9333         12.2951
           29255         54.8684         54.3415         45.4633         12.3986
           29256         55.1339         55.1019         45.2397         12.2432
           29257         75.9974         87.5817         39.3919         1.05314
           29258         75.1625         86.6532         39.5984         1.14301
           29259         75.7575         87.2694         39.2660         1.64881
           29260         76.5991         88.2019         39.0572         1.55995
           29261         76.8117         88.5617         40.3692    -885.164E-03
           29262         57.9581         51.7521         58.4956         9.77066
           29263         58.0353         50.4070         59.2088         10.1008
           29264         59.3136         49.2390         62.8874         8.85659
           29265         56.0146         54.7661         56.1751         4.44065
           29266         56.1283         53.9925         56.3919         5.77049
           29267         92.4997         105.126         36.6433         2.17815
           29268         52.5033         50.2327         43.5755        -13.2081
           29269         82.0691         94.1080         37.7612         1.49998
           29270         77.3941         89.2460         40.8887     870.639E-03
           29271         52.5173         44.4807         49.4523         13.3377
           29272         58.4270         62.7622         46.2132         8.93307
           29273         57.9962         61.7681         46.4644         9.29757
           29274         58.0873         61.9120         45.9626         9.55896
           29275         58.5167         62.8991         45.7092         9.19511
           29276         96.9884         110.491         39.4170    -156.782E-03
           29277         59.9201         65.5391         43.8303        -9.06546
           29278         61.7575         43.3896         68.5588         8.28178
           29279         60.0148         42.6803         65.4599         9.81529
           29280         60.0709         43.1138         65.5495         9.64476
           29281         88.0103         37.4207         100.534    -420.572E-03
           29282         65.1025         72.8703         42.3161        -8.58659
           29283         97.2038         110.500         38.2037    -332.430E-03
           29284         97.1657         110.552         38.6993    -228.229E-03
           29285         43.8141         40.2932         35.9596         12.2742
           29286         46.4166         44.2446         36.8058         12.5261
           29287         50.9761         50.4773         38.9387         12.9088
           29288         50.2975         49.9460         38.0615         12.7486
           29289         67.9863         78.1138         44.6968         2.16018
           29290         62.3909         70.9248         45.0769         3.02432
           29291         58.6436         51.9579         60.8611        -8.11569
           29292         58.5468         52.6972         60.4211        -7.83249
           29293         58.2684         53.1369         59.2826        -8.31344
           29294         87.4811         39.5377         100.265    -560.528E-03
           29295         60.9263         43.7630         67.1744        -8.64417
           29296         55.5872         57.8878         41.5626        -11.7963
           29297         55.4244         40.9281         57.7610         11.8948
           29298         55.5628         41.4972         57.7268         11.9489
           29299         55.0967         40.3232         57.5069         11.8534
           29300         55.7396         43.1796         57.6089         11.7071
           29301         56.1689         44.5215         57.6265         11.7981
           29302         58.9439         63.0362         41.3583        -11.5092
           29303         58.5052         62.6675         40.2627        -11.5141
           29304         58.8625         63.4988         39.6176        -11.2369
           29305         64.5036         72.2593         44.1389         7.75696
           29306         59.7209         65.1939         44.1875         9.02882
           29307         67.8717         78.0004         44.8560         1.75465
           29308         61.1608         69.0510         45.9395         3.38256
           29309         58.5501         62.9126         45.3507         9.42628
           29310         58.2401         62.2365         45.3757         9.72288
           29311         63.5991         70.8769         44.7966         7.95027
           29312         57.7279         52.4952         57.3481        -9.97416
           29313         58.0560         51.5822         58.9027        -9.63632
           29314         56.2746         57.0940         47.4700         11.0145
           29315         57.2348         59.8230         47.4781         9.71499
           29316         78.9852         90.8967         40.3769         2.32991
           29317         78.4665         90.3956         40.5573         1.52072
           29318         55.7912         54.4726         47.3173        -12.7012
           29319         55.5409         54.4012         46.4904        -12.8202
           29320         55.0696         49.6278         51.1924         12.7757
           29321         54.6591         49.0091         50.6786         12.9243
           29322         55.0793         51.4895         49.1302         12.8902
           29323         69.0693         44.7714         79.5305    -746.973E-03
           29324         70.0190         80.8014         41.3669         1.30193
           29325         70.1836         81.0226         41.3303     721.826E-03
           29326         53.1871         51.1530         44.3546        -13.0865
           29327         57.5382         60.6441         47.0400        -9.53725
           29328         57.8509         61.3793         46.1971        -9.67276
           29329         57.4380         60.3489         46.6221        -9.95170
           29330         57.2196         59.7791         47.3735        -9.80196
           29331         57.0498         59.3152         47.1773        -10.1492
           29332         57.0647         51.7917         55.4037         11.1637
           29333         56.4376         54.0505         50.6070         12.0832
           29334         56.2581         53.0170         51.2852         12.1516
           29335         88.5942         36.4471         100.996    -672.765E-03
           29336         88.1911         37.1909         100.689    -546.959E-03
           29337         88.3704         36.9723         100.843    -715.536E-03
           29338         63.5658         43.4053         71.6833         6.57106
           29339         63.6729         43.6779         72.0534         5.82883
           29340         54.6011         52.1165         47.7979         12.5375
           29341         57.0677         52.4743         54.8722        -11.1294
           29342         56.9000         52.7731         53.9965        -11.3512
           29343         56.8679         51.4440         55.0104        -11.4205
           29344         55.7210         48.4383         54.9256        -11.5794
           29345         55.7706         47.2134         55.5983        -11.7624
           29346         78.0530         89.9780         40.7108     801.742E-03
           29347         79.8691         91.9143         40.0959         1.68764
           29348         70.3781         81.2608         41.3189     191.054E-03
           29349         74.1297         85.5031         39.8950         1.15007
           29350         59.3676         48.5122         63.0313         9.23620
           29351         59.4355         47.8191         63.2674         9.46114
           29352         59.0111         48.0306         62.2652         9.81593
           29353         58.6048         48.1848         61.3046         10.1398
           29354         58.6312         47.5077         61.5131         10.3139
           29355         56.2461         56.1950         52.6359         8.02243
           29356         56.3194         56.9684         52.3177         7.52293
           29357         93.2465         105.838         36.2778         2.36107
           29358         92.0985         104.677         36.6142         2.37365
           29359         92.8469         105.390         36.2461         2.55821
           29360         94.7665         107.407         35.9543         2.11311
           29361         95.2289         107.922         36.0103         1.91350
           29362         54.1519         48.4542         49.8906         13.0762
           29363         53.7785         48.8950         48.4336         13.2131
           29364         54.6361         48.2330         51.3794         12.8715
           29365         55.4445         54.6259         45.7225        -12.8735
           29366         55.4073         55.0776         44.7792        -12.8787
           29367         56.0693         56.2192         45.2183        -12.6570
           29368         56.2302         56.9242         44.4367        -12.6013
           29369         53.4816         52.3949         43.5629        -12.9074
           29370         83.7601         95.8269         37.0003         1.78509
           29371         54.0325         44.8611         52.6215         12.8923
           29372         54.1081         44.0679         53.3181         12.8128
           29373         58.5017         63.2856         47.0995         7.74025
           29374         58.8922         63.9045         46.2782         8.16944
           29375         60.1485         41.1520         65.9357         9.83578
           29376         60.9180         41.0478         67.2065         9.45246
           29377         60.1679         66.0652         41.4785        -9.58095
           29378         65.3166         73.1314         40.9175        -8.87254
           29379         83.3643         95.8136         40.0770        -1.01976
           29380         45.4648         41.1403         38.5750         12.5629
           29381         55.8541         40.7306         58.6637         11.6717
           29382         56.6353         59.7004         41.9438        -11.3755
           29383         57.2780         60.8495         42.0673        -11.0787
           29384         57.5015         61.5252         41.3355        -10.8878
           29385         56.8353         60.3742         41.2081        -11.1803
           29386         56.1029         59.0122         41.2419        -11.5179
           29387         56.0707         42.5340         58.6623         11.3822
           29388         87.1004         41.4055         100.074    -541.981E-03
           29389         54.2136         43.3512         53.9764         12.7316
           29390         54.6022         42.8431         55.0975         12.5258
           29391         54.4238         54.3778         43.6686        -12.5521
           29392         56.4585         57.7283         43.6293        -12.5184
           29393         56.6310         58.4234         42.8039        -12.4144
           29394         59.2436         63.2653         42.4018        -11.4304
           29395         59.6375         64.1162         41.7240        -11.2551
           29396         54.4205         46.2014         52.6555         12.7433
           29397         54.6259         47.3184         52.1738         12.8015
           29398         59.0468         51.6615         62.2047        -7.34339
           29399         58.7023         52.6561         61.1029        -7.23810
           29400         56.9763         50.2819         56.1484         11.3818
           29401         57.2258         49.5184         57.2930         11.2144
           29402         56.8870         48.6502         56.8695         11.5738
           29403         56.6284         49.4170         55.7206         11.7401
           29404         54.3549         53.3236         45.1089         12.6703
           29405         69.6726         79.9365         43.1316        -4.15863
           29406         69.2020         79.4388         43.5200        -3.72326
           29407         70.2796         80.8425         43.1837        -3.16002
           29408         63.7240         72.1395         43.3921        -5.88919
           29409         64.1470         72.8575         43.3895        -5.32971
           29410         64.3815         73.0393         43.0481        -5.81082
           29411         63.0651         71.5642         44.2919        -4.60859
           29412         63.1376         71.5367         44.0552        -5.14970
           29413         62.2378         70.1664         44.5420        -5.52514
           29414         88.7433         36.2921         101.123    -895.929E-03
           29415         88.4580         36.8102         100.905    -883.422E-03
           29416         74.0122         39.6323         85.3322        -1.57209
           29417         70.5770         44.0068         81.3429        -1.57955
           29418         72.3026         43.1471         83.3398        -2.33402
           29419         58.1920         52.0985         59.2052         9.15251
           29420         58.3385         52.4304         59.6755         8.60387
           29421         94.4031         106.997         35.9078         2.32329
           29422         95.0737         107.620         35.5204         2.45004
           29423         92.4895         104.993         36.2445         2.74057
           29424         91.7981         104.321         36.5320         2.61212
           29425         91.6933         104.154         36.3935         2.92635
           29426         92.3915         104.832         36.1091         3.05261
           29427         54.4804         45.3536         53.3497         12.7093
           29428         54.3192         46.2162         52.3888         12.7967
           29429         63.0263         44.0916         71.2012         5.71566
           29430         61.3542         44.8519         68.4373         6.79523
           29431         60.6380         45.3447         67.2412         7.03500
           29432         60.6965         45.5067         67.4828         6.58753
           29433         80.6667         92.7111         39.7882         2.41438
           29434         71.2070         82.1978         40.9254         1.00982
           29435         72.0823         83.1886         40.5675         1.23104
           29436         71.1394         82.0865         40.8856         1.54291
           29437         59.0007         50.9991         62.0167        -8.10141
           29438         57.5063         60.5883         47.2646         9.41226
           29439         56.8858         59.0961         49.8052         8.29422
           29440         57.0396         59.4432         49.1607         8.67011
           29441         57.1948         60.1618         49.4229         7.80071
           29442         70.2996         81.0680         43.6947        -1.00507
           29443         55.9499         54.4950         47.9282        -12.5886
           29444         56.2037         55.5030         47.2140        -12.5117
           29445         56.5695         54.0899         51.1103        -11.9260
           29446         56.8265         55.9090         49.3529        -11.9303
           29447         56.6832         55.1008         50.0895        -11.9429
           29448         56.8742         56.4787         48.4538         12.0232
           29449         56.6874         54.4896         51.0561         11.8273
           29450         56.9365         54.9445         51.5416         11.5218
           29451         56.8550         54.0358         52.4145         11.5123
           29452         56.6037         53.5775         51.9337         11.8152
           29453         54.3070         46.9125         51.8810         12.7892
           29454         54.6110         47.8095         52.0347         12.6063
           29455         54.6930         51.6466         48.7708         12.4393
           29456         54.9111         51.6684         49.5429         12.2598
           29457         55.0145         49.4400         52.0601         12.1913
           29458         55.3510         49.8234         52.9275         11.7908
           29459         68.4789         78.9567         42.0867        -1.51984
           29460         54.9950         51.3301         50.2603        -12.1579
           29461         58.4283         63.1288         47.1989        -7.75662
           29462         56.3278         57.3432         47.0855        -11.0689
           29463         56.8999         58.9422         46.7878        -10.5212
           29464         57.0888         55.8686         50.8091         11.4732
           29465         57.3019         56.2361         51.3414         11.1402
           29466         56.2712         52.9580         57.4567         5.87132
           29467         56.3077         52.7502         57.1504         6.74533
           29468         95.7906         108.512         35.9361         1.74753
           29469         55.2027         46.9401         53.8750         12.5213
           29470         57.3624         59.6042         43.2398        -12.1844
           29471         54.7519         44.5955         54.4161         12.5780
           29472         54.8615         43.8891         55.0595         12.4966
           29473         57.2003         59.8783         48.4791         8.92733
           29474         57.3819         60.2951         47.8518         9.17634
           29475         62.7879         70.2807         40.9589        -8.24496
           29476         65.9068         73.9916         40.7262        -8.63566
           29477         61.2635         44.4113         67.1852         9.14294
           29478         62.1167         43.7678         68.7109         8.73689
           29479         56.5286         39.7638         60.3899         11.0863
           29480         56.1158         39.1561         60.0424         10.9806
           29481         56.3837         40.5549         59.7072         11.4148
           29482         61.1429         67.4473         38.6235        -10.0431
           29483         61.0339         46.7456         66.6268         8.47284
           29484         57.4784         48.7730         58.3290         11.0689
           29485         57.2527         47.9748         58.1420         11.3307
           29486         55.2189         52.4554         49.9507         11.8698
           29487         55.5628         54.3656         48.8483         11.5631
           29488         57.1463         53.9433         53.7770        -11.0266
           29489         56.9416         54.3060         52.4824        -11.3858
           29490         55.6731         50.3512         53.7947        -11.2400
           29491         55.6696         49.6193         54.1659        -11.4129
           29492         55.8888         49.6184         54.9643        -11.0716
           29493         55.0239         48.6322         52.6836        -12.2351
           29494         55.1293         49.5708         52.3277        -12.0791
           29495         56.8082         55.4710         50.0577         11.8479
           29496         57.0442         56.5112         49.3292         11.7588
           29497         67.7107         77.5526         44.3470        -3.78163
           29498         66.6823         76.1127         44.8032        -4.32640
           29499         66.2767         75.6624         45.2454        -3.83139
           29500         67.3046         77.1024         44.7891        -3.28641
           29501         61.9445         70.1501         45.2618        -3.76745
           29502         61.1334         68.8549         45.8151        -4.15796
           29503         60.9990         68.7840         46.0520        -3.48741
           29504         62.9361         71.5137         44.5171        -4.02278
           29505         63.8649         72.8525         44.0388        -3.65906
           29506         63.9889         72.9044         43.8127        -4.24711
           29507         76.0499         38.7150         87.4994        -2.31881
           29508         74.7062         39.1990         86.0274        -2.30349
           29509         89.6038         34.9555         101.803    -739.944E-03
           29510         89.3733         34.9866         101.572    -309.072E-03
           29511         58.1809         62.0967         45.3297        -9.81606
           29512         58.5849         62.9671         45.0739        -9.55425
           29513         58.5717         62.9230         44.6243        -9.79630
           29514         58.1646         62.0496         44.8750        -10.0612
           29515         96.4364         110.007         40.0555    -321.889E-03
           29516         59.1987         64.1764         44.1872        -9.47187
           29517         64.1841         71.4637         42.5696        -8.99171
           29518         64.1017         71.3891         43.0639        -8.80180
           29519         65.0147         72.7968         42.8114        -8.39151
           29520         64.5361         72.1510         43.4231        -8.29848
           29521         65.2261         73.2321         43.3358        -7.89692
           29522         60.0524         46.4065         64.6967         9.47659
           29523         59.9810         46.9725         64.5075         9.31246
           29524         60.5913         46.7450         65.7402         8.89682
           29525         60.7439         47.3340         66.0645         8.40434
           29526         54.8823         54.9750         44.3866        -12.3801
           29527         55.3130         56.2148         43.8259        -12.1433
           29528         55.3848         43.9026         56.1625         12.2678
           29529         55.1481         42.8503         56.2111         12.3036
           29530         55.1143         47.9261         52.8768         12.6347
           29531         55.6458         48.6770         53.6153         12.4128
           29532         55.7358         47.6924         54.6166         12.2983
           29533         56.2460         48.5847         55.2543         12.0362
           29534         56.4905         47.5419         56.5457         11.8577
           29535         57.1902         58.9238         44.2300        -12.2286
           29536         57.8777         60.1377         44.5903        -11.9239
           29537         58.0675         60.8197         43.6041        -11.8809
           29538         58.5894         61.5328         44.6710        -11.5421
           29539         58.5543         61.2577         45.5155        -11.4400
           29540         56.5581         56.4668         46.9053        -12.3667
           29541         56.8476         56.8352         47.5700        -12.1403
           29542         57.2236         57.9318         47.0181        -11.9944
           29543         55.9622         55.3021         46.5465        -12.6622
           29544         55.8767         55.5273         45.7854        -12.7143
           29545         54.7353         47.1920         52.8092         12.5463
           29546         54.5414         52.5091         47.0274        -12.5877
           29547         54.7533         53.5975         46.2244        -12.4639
           29548         79.7679         91.5727         37.9556         2.03568
           29549         80.6991         92.4951         37.4312         2.45764
           29550         81.5390         93.3034         36.9398         2.89512
           29551         91.0248         103.570         36.8649         2.43546
           29552         90.8239         103.319         36.7826         2.67630
           29553         91.2394         103.647         36.4159         3.17630
           29554         55.1222         48.8386         52.0856         12.7033
           29555         55.1941         45.1032         55.1495         12.3564
           29556         95.7152         108.568         36.5311         1.40255
           29557         61.8406         68.9555         40.5291        -8.59252
           29558         61.5573         68.6463         40.1736        -8.57971
           29559         60.8204         67.4835         40.1996        -8.97968
           29560         61.1022         67.7916         40.5606        -8.98656
           29561         62.1663         40.7006         69.2680         8.74265
           29562         61.9659         40.4123         69.0680         8.70681
           29563         61.2682         40.3885         67.9843         9.06412
           29564         61.4701         40.6811         68.1854         9.09651
           29565         62.0990         42.6895         68.9907         8.55095
           29566         61.7154         42.2731         68.5481         8.57652
           29567         61.0625         42.3503         67.4694         8.95000
           29568         61.4491         42.7662         67.9162         8.92466
           29569         68.8317         78.0936         40.1178        -7.36432
           29570         68.1583         77.1677         40.2197        -7.67544
           29571         65.6178         73.5942         40.4314        -8.76365
           29572         65.9391         74.1277         39.8729        -8.54181
           29573         65.1493         72.9709         40.0846        -8.90536
           29574         59.6518         46.5918         65.8110         6.39541
           29575         59.5012         46.5360         65.3650         6.92892
           29576         59.0388         47.0929         64.5526         6.84997
           29577         59.1863         47.1412         65.0017         6.31828
           29578         60.1409         46.1699         66.7029         6.20926
           29579         60.0938         45.9861         66.4304         6.79243
           29580         57.7339         53.9552         56.4742        -9.65725
           29581         57.7940         54.9879         56.0415        -9.26331
           29582         57.5299         52.1012         56.8177        -10.4431
           29583         57.3068         51.8148         56.2267        -10.8203
           29584         56.2587         56.4384         50.0176         10.0151
           29585         56.0618         56.2855         48.0651         11.1054
           29586         57.2448         57.6138         47.9734         11.8335
           29587         67.7165         45.6152         77.6779        -2.17690
           29588         55.2449         48.7791         53.2509        -12.0342
           29589         56.0553         49.4713         54.0966         12.1734
           29590         55.5298         49.5783         52.5364         12.5186
           29591         56.2816         56.4394         51.9597         8.46513
           29592         56.1817         55.5468         52.3564         8.90646
           29593         62.4446         69.6257         47.5941         5.77825
           29594         56.1544         41.3941         58.8764         11.6983
           29595         55.7282         42.1835         57.6921         11.9925
           29596         56.3095         42.0810         58.8504         11.7340
           29597         57.8752         42.1067         61.7508         11.0080
           29598         58.0851         41.2870         62.3998         10.8295
           29599         58.3236         62.9500         41.4017        -10.5051
           29600         58.1707         62.4847         42.0939        -10.6116
           29601         59.2739         64.5759         41.4636        -10.0277
           29602         56.4617         60.9948         38.8162        -10.4633
           29603         57.2283         62.2437         38.8927        -10.1487
           29604         61.4818         67.3220         40.8102        -10.4836
           29605         61.5492         67.3276         41.4084        -10.4654
           29606         62.4505         68.8495         40.7611        -10.0786
           29607         57.3986         41.4552         61.7489         10.3754
           29608         58.0982         44.5982         61.4102         10.8624
           29609         58.3185         45.1480         61.6151         10.7716
           29610         58.5470         44.2535         62.3924         10.6090
           29611         55.8694         55.2054         49.1808         11.1063
           29612         57.3029         53.6948         54.7707        -10.6702
           29613         57.2498         52.7671         55.3172        -10.8337
           29614         57.4658         52.8301         56.1247        -10.4306
           29615         57.5045         53.7568         55.5743        -10.2628
           29616         56.9337         48.1007         58.7527        -10.0322
           29617         57.0957         47.2755         59.1995        -10.3126
           29618         55.8361         48.9025         55.0814        -11.3413
           29619         69.0863         79.5466         44.1921        -1.59635
           29620         63.1014         71.3449         43.8857        -5.67917
           29621         63.0539         71.1426         43.6584        -6.17651
           29622         62.2838         70.0946         44.2735        -6.03330
           29623         58.2309         62.2356         44.2143        -10.2366
           29624         57.6444         60.9732         44.4833        -10.6250
           29625         59.4013         43.5422         64.3227         9.93197
           29626         59.5436         44.0261         64.6084         9.61527
           29627         59.5713         42.3878         64.7201         10.1105
           29628         63.2340         69.9489         42.4444        -9.54131
           29629         62.3784         68.5583         43.0615        -9.81061
           29630         62.9404         69.4819         42.9919        -9.53275
           29631         62.1974         68.2741         43.8999        -9.61234
           29632         62.6393         69.0321         43.8446        -9.35556
           29633         62.8393         69.3437         43.3909        -9.42248
           29634         62.3913         68.5856         43.4577        -9.67291
           29635         96.3558         110.288         42.4244    -26.4734E-03
           29636         64.9723         72.9319         43.7421        -7.72793
           29637         64.2284         71.7588         44.0198        -8.10402
           29638         64.0915         71.6715         44.5510        -7.72783
           29639         64.8354         72.8465         44.2737        -7.34927
           29640         57.2214         60.2584         43.6791        -11.0661
           29641         57.1457         60.3630         42.8370        -11.1461
           29642         56.4804         58.9922         42.9863        -11.5179
           29643         57.1452         42.6260         60.2317         11.3750
           29644         59.9038         64.3715         42.6427        -11.1258
           29645         60.6378         65.6067         42.8494        -10.7678
           29646         60.9248         66.1698         42.3159        -10.6895
           29647         60.1820         64.9446         42.1054        -11.0413
           29648         58.9660         62.6141         43.0941        -11.5132
           29649         58.7438         61.9977         43.9000        -11.5701
           29650         89.5174         34.6241         101.658    -84.9858E-03
           29651         89.0882         34.9631         101.266     92.6029E-03
           29652         82.9822         95.4033         40.3390        -1.35388
           29653         60.7695         67.4414         44.8381        -7.25899
           29654         60.2851         66.4447         44.7812        -7.94800
           29655         60.1312         66.2894         45.1705        -7.64716
           29656         61.4412         68.7327         44.7459        -6.43291
           29657         66.3195         75.3371         44.3572        -5.67997
           29658         65.4017         73.9539         44.7249        -6.20419
           29659         64.9351         73.0817         44.4785        -7.02035
           29660         64.6346         72.7215         44.8948        -6.79424
           29661         56.3597         56.7660         51.2418         8.89013
           29662         56.5235         57.7181         50.8752         8.39966
           29663         56.4397         57.3918         51.5926         7.97517
           29664         56.5842         58.2829         51.2175         7.45547
           29665         56.2778         52.7534         58.7749         3.18070
           29666         57.0153         50.7316         60.7496         4.77674
           29667         57.0572         50.6663         61.1411         4.00010
           29668         56.2283         56.0930         50.8221         9.71386
           29669         56.1840         55.7824         51.5790         9.34122
           29670         57.7270         55.4653         55.1132        -9.58143
           29671         57.8456         56.4098         54.8146        -9.15584
           29672         57.5903         54.4935         55.3806        -9.96607
           29673         57.6639         53.2216         56.6627        -9.96011
           29674         78.1220         89.8291         38.5174         1.84121
           29675         78.9828         90.6989         38.0623         2.27067
           29676         55.4837         50.3685         51.6406         12.5931
           29677         55.6157         44.7214         56.2994         12.1280
           29678         59.2905         62.8541         44.8524        -11.1377
           29679         71.0032         80.9578         40.3837        -6.47605
           29680         57.6257         62.1670         49.5053         5.25359
           29681         58.1407         62.7468         48.0836         7.02941
           29682         71.6716         43.4794         82.6647        -1.54062
           29683         58.7324         39.6005         64.2447         9.96721
           29684         58.2738         39.6483         63.4535         10.2197
           29685         58.7763         40.1059         64.0582         10.1952
           29686         57.9116         39.1317         63.1431         10.1047
           29687         55.7894         57.4270         43.3913        -11.8830
           29688         56.1191         58.5805         42.2617        -11.6526
           29689         61.8802         68.1786         39.7944        -10.1714
           29690         61.8785         68.3669         39.1472        -9.97963
           29691         62.6104         69.5558         38.9093        -9.56538
           29692         57.8017         42.1327         62.0461         10.4931
           29693         57.2285         42.4787         60.8365         10.8603
           29694         57.7931         43.1558         61.4941         10.8001
           29695         58.3663         42.8107         62.7019         10.4347
           29696         56.8082         44.8564         58.7479         11.5323
           29697         57.4377         44.4592         60.1998         11.1786
           29698         57.2620         45.1256         59.5238         11.3369
           29699         66.8752         76.6128         45.2045        -2.74228
           29700         67.9538         78.0707         44.7167        -2.17298
           29701         57.0913         59.7998         44.5590        -10.9927
           29702         57.3624         44.0459         60.2570         11.1589
           29703         57.2155         43.3436         60.1509         11.3134
           29704         60.0665         45.8456         64.8087         9.61238
           29705         60.5788         45.0986         65.8739         9.44042
           29706         58.3052         62.4064         45.7814        -9.41736
           29707         59.0307         64.0319         45.5766        -8.67323
           29708         58.7804         63.4097         45.2705        -9.22883
           29709         58.7909         63.3561         44.1722        -9.82802
           29710         96.3248         110.254         42.4178    -73.5823E-03
           29711         57.1232         60.2816         49.9139        -6.99236
           29712         56.8502         48.8691         58.4915        -9.67706
           29713         56.5617         49.2542         57.5027        -9.98233
           29714         96.3287         109.251         36.6468         1.18544
           29715         60.6789         44.6561         66.9826         8.00574
           29716         61.2538         44.5663         68.0645         7.44931
           29717         60.8267         44.9674         67.4284         7.37824
           29718         70.1015         80.8439         41.2642         1.97499
           29719         71.2326         82.1318         40.7822         2.22007
           29720         65.6536         74.0471         43.7938        -7.12564
           29721         59.8467         65.6064         44.9218        -8.29889
           29722         59.4166         64.8662         45.5477        -8.21822
           29723         60.4907         66.7413         44.4096        -8.09257
           29724         60.1829         45.3403         66.2283         7.80722
           29725         59.9895         45.7296         66.0300         7.46360
           29726         55.0834         47.6280         53.5000         12.2693
           29727         55.4120         46.9121         54.7826         12.0911
           29728         57.4391         58.1556         47.7871        -11.7283
           29729         58.5086         61.0382         46.1386        -11.3290
           29730         58.7056         61.3160         46.8839        -11.0050
           29731         55.1308         54.2937         46.7020        -12.1949
           29732         54.9801         53.4971         47.3506        -12.2734
           29733         55.3177         54.2147         47.7421        -11.9698
           29734         55.4753         55.0139         47.0921        -11.8888
           29735         55.3693         55.2411         46.0738        -12.0630
           29736         54.9858         54.5474         45.5952        -12.3315
           29737         57.6721         38.6878         63.0434         9.89721
           29738         58.5641         39.2809         64.1587         9.84264
           29739         64.5078         72.1037         39.7187        -9.10318
           29740         63.9834         71.2844         40.0242        -9.37324
           29741         63.9521         71.4185         39.2998        -9.15647
           29742         58.5780         41.9716         63.4994         10.0459
           29743         58.7603         43.3960         63.1291         10.3896
           29744         59.3615         43.1613         64.2877         10.0454
           29745         58.9688         42.5742         63.8603         10.0900
           29746         60.6024         40.3205         66.9494         9.38296
           29747         61.0995         40.0875         67.8518         8.98680
           29748         59.1421         39.3990         65.0494         9.60830
           29749         58.3632         63.2508         40.7357        -10.3727
           29750         59.2757         64.7751         40.7613        -9.94374
           29751         59.1765         64.8357         40.1593        -9.81804
           29752         58.8190         64.4730         39.6728        -9.77757
           29753         59.8194         65.9301         40.0921        -9.44254
           29754         59.4639         65.5683         39.6148        -9.39673
           29755         59.2192         64.6292         46.0638        -7.85649
           29756         59.0633         64.5241         46.7088        -7.23987
           29757         66.0397         75.0485         44.7867        -5.30082
           29758         63.9227         72.5443         47.5398         2.01249
           29759         62.9954         43.3878         70.6935         7.20160
           29760         63.7802         43.1423         71.9070         6.78902
           29761         60.1898         66.2694         40.7834        -9.49718
           29762         59.9065         40.6061         65.7126         9.83400
           29763         59.1436         40.5969         64.4615         10.1899
           29764         59.3916         41.1480         64.6861         10.1918
           29765         58.5316         43.5474         62.6689         10.5079
           29766         58.3708         43.0420         62.4450         10.6914
           29767         57.8019         43.2560         61.3060         11.0062
           29768         57.9606         43.7618         61.5302         10.8172
           29769         58.3605         42.3039         62.5838         10.7570
           29770         58.6492         42.5855         63.0392         10.5958
           29771         58.9696         42.3503         63.6647         10.4386
           29772         59.6521         43.7022         64.5867         9.99387
           29773         59.0644         43.9489         63.4589         10.3120
           29774         59.8558         44.2398         64.7760         9.92138
           29775         59.5599         46.0438         63.7858         9.92751
           29776         61.8700         67.6918         43.2986        -10.0317
           29777         61.8900         67.7281         43.7003        -9.88764
           29778         63.7209         70.8158         40.4392        -9.55474
           29779         63.1152         69.8701         40.7323        -9.80722
           29780         58.9678         63.7357         44.6347        -9.44329
           29781         59.0250         64.6641         47.0575        -6.60880
           29782         58.6165         64.0618         47.8221        -6.01662
           29783         59.8028         66.1865         46.3931        -6.16434
           29784         90.1088         34.4036         102.226    -967.352E-03
           29785         58.4387         46.8916         62.7714         8.55306
           29786         58.2174         47.6039         62.4852         8.02644
           29787         56.7538         58.7326         50.5100         7.89085
           29788         56.0635         54.5455         52.7770         9.33169
           29789         56.0594         54.7830         51.9996         9.76746
           29790         90.4413         102.782         36.5642         3.49788
           29791         79.8019         91.5026         37.6096         2.73940
           29792         78.0934         89.7113         38.2577         2.51388
           29793         60.4751         67.5854         46.1100        -5.15358
           29794         60.7227         42.8868         66.6944         9.31209
           29795         61.7663         43.2576         68.2722         8.87056
           29796         56.5130         51.5890         57.8327         7.55431
           29797         89.4561         35.1930         101.682        -1.00695
           29798         89.1072         35.6797         101.404    -886.090E-03
           29799         65.5554         73.8309         43.5953        -7.40801
           29800         63.8422         71.3976         45.1594        -7.37352
           29801         62.7207         70.2968         43.0047        -7.43712
           29802         58.3303         47.8001         62.9864         7.32678
           29803         57.7617         48.3136         61.4522         8.05828
           29804         56.0308         55.1286         51.0246         10.1603
           29805         56.0536         55.4797         50.2165         10.4611
           29806         58.0241         57.8980         53.6810        -8.96274
           29807         58.4733         53.8764         60.1008        -6.88872
           29808         87.7520         99.8689         37.2312         4.42360
           29809         87.1064         99.2911         37.5182         3.93322
           29810         85.8420         97.9677         37.9283         4.01563
           29811         80.2178         91.6607         36.9171         4.24982
           29812         81.1847         92.6166         36.4580         4.49260
           29813         81.5788         93.1001         36.4088         4.14468
           29814         84.1315         96.2490         38.5442         3.57857
           29815         84.3306         96.5256         38.5357         3.11689
           29816         64.1276         72.5239         46.6409        -4.46612
           29817         62.9413         43.1996         70.5336         7.47072
           29818         62.2009         43.5194         69.3740         7.77565
           29819         58.2175         42.7323         62.2187         10.8138
           29820         57.7462         42.5403         61.3929         11.0684
           29821         63.0940         69.9062         40.2867        -9.78511
           29822         62.4259         68.8898         40.2969        -10.0565
           29823         57.8452         45.5461         60.5174         11.0393
           29824         58.4950         45.8147         61.7335         10.6451
           29825         58.7066         41.1418         63.5274         10.5154
           29826         59.4890         41.5261         64.7439         10.1867
           29827         58.4403         40.6634         63.2477         10.5413
           29828         58.2424         43.7034         62.0654         10.6855
           29829         61.7376         67.8643         40.1818        -10.3005
           29830         61.9255         67.8731         45.0110        -9.25648
           29831         61.5367         67.2509         45.7882        -9.07045
           29832         58.9333         65.0976         47.8740        -4.47200
           29833         58.8035         65.0330         48.1536        -3.71333
           29834         65.7830         74.0336         39.3627        -8.38988
           29835         65.2463         73.2303         39.5129        -8.69232
           29836         66.4714         74.9190         39.7184        -8.24040
           29837         61.1020         41.5922         67.9346         8.44553
           29838         60.7136         41.8662         67.1332         8.89014
           29839         61.3214         41.9659         68.0752         8.59799
           29840         60.0184         42.9863         65.4766         9.69187
           29841         60.0989         39.3024         66.7156         8.91257
           29842         59.6078         39.2939         65.8949         9.24142
           29843         60.1032         39.5024         66.5814         9.11033
           29844         59.8369         66.2699         39.4620        -9.06727
           29845         58.7612         64.6797         39.1432        -9.46914
           29846         77.0396         88.4274         38.3331         3.46186
           29847         58.1295         56.6821         57.1057        -6.87965
           29848         85.1579         97.4191         38.3123         2.93876
           29849         84.8062         97.1536         38.5827         2.08837
           29850         76.2726         87.9177         39.5388     528.174E-03
           29851         58.8707         44.5110         63.2959         9.92512
           29852         59.0197         45.0525         63.6684         9.45780
           29853         56.7501         50.7878         58.7767         7.56324
           29854         56.5129         51.2590         57.5783         8.21318
           29855         76.4539         87.9739         38.8883         2.20973
           29856         77.2139         88.7333         38.4760         2.71276
           29857         77.3314         88.9518         38.6709         2.01096
           29858         74.8927         86.3003         39.5046         1.80978
           29859         85.3485         97.5253         38.1453         3.57108
           29860         58.3894         54.9981         59.6909        -5.89948
           29861         56.9942         50.6835         60.4364         5.48006
           29862         57.0465         50.0103         59.7327         7.58327
           29863         57.3819         48.9631         60.4658         8.16042
           29864         58.4782         63.9440         48.1953        -5.47355
           29865         58.2277         63.8190         48.8475        -4.03792
           29866         65.4441         74.6949         46.2443         2.53480
           29867         65.6415         75.0334         46.2829         1.77412
           29868         64.7621         73.7821         46.8980         1.92728
           29869         85.7164         98.1286         38.3845         1.94317
           29870         61.5929         67.8304         47.6815        -7.15185
           29871         62.2247         69.0445         47.3567        -6.62921
           29872         56.3036         51.6600         56.3099         8.93511
           29873         56.4895         50.8757         57.2962         8.84782
           29874         56.6633         49.8480         57.9053         9.29770
           29875         74.3844         85.8334         40.3035    -478.247E-03
           29876         58.3494         63.8837         48.5222        -4.79254
           29877         56.0197         53.4239         53.4760         9.68338
           29878         57.3113         48.6743         60.0712         8.77051
           29879         61.0579         66.3831         46.5635        -9.02263
           29880         60.4571         65.1323         46.3505        -9.71917
           29881         60.8280         66.0506         47.4796        -8.54604
           29882         57.6304         49.3000         61.8264         6.22656
           29883         57.3073         50.0264         61.2466         5.60614
           29884         57.6063         49.4780         61.9944         5.61160
           29885         56.8578         49.0429         58.5661         9.48445
           29886         56.6400         49.1281         57.7489         9.94439
           29887         55.9203         49.1419         55.2842         11.1442
           29888         55.6019         49.6035         53.9197         11.5230
           29889         57.9634         48.8771         62.7322         5.82030
           29890         58.0610         48.8243         63.1425         5.26571
           29891         58.5146         47.8423         63.5885         6.67826
           29892         58.1748         48.4081         63.0228         6.32184
           29893         58.5812         48.1154         64.1330         5.45932
           29894         58.9251         47.5588         64.6975         5.81647
           29895         62.3254         68.5451         44.4091        -9.27142
           29896         63.2080         70.0018         43.7647        -9.00469
           29897         56.6481         46.6964         58.0989         11.0451
           29898         56.2048         47.0901         56.8051         11.3964
           29899         56.2607         47.8890         56.7579         11.0834
           29900         58.1897         48.7810         63.6429         4.49414
           29901         58.7136         48.0714         64.6339         4.68818
           29902         61.8475         67.6727         44.3056        -9.67491
           29903         61.2935         66.6792         43.7104        -10.2428
           29904         61.5474         67.1320         44.1088        -9.94826
           29905         56.2921         48.7443         56.6022         10.7706
           29906         63.8658         71.0720         43.5889        -8.67120
           29907         63.4329         70.3137         43.2379        -9.13627
           29908         55.2159         48.7660         53.1675         12.0644
           29909         58.1712         46.6680         61.9982         9.22940
           29910         58.2352         46.0854         62.0654         9.58589
           29911         58.2857         45.5014         62.0950         9.94106
           29912         58.2312         44.9051         61.9800         10.2648
           29913         55.9119         53.7938         52.2477         10.2169
           29914         54.9506         48.2515         52.7221         12.3242
           29915         55.7014         46.6167         55.6660         11.9134
           29916         55.5256         45.9187         55.5448         12.1090
           29917         58.7435         43.9721         63.0487         10.2389
           29918         67.4287         41.8745         76.9686        -5.53824
           29919         68.1905         42.2123         77.9549        -5.22041
           29920         67.7934         42.1955         77.5035        -5.13104
           29921         86.0616         99.2238         44.8612     16.0570E-03
           29922         86.0727         99.2790         45.6057     9.94905E-03
           29923         85.8584         99.0493         45.8370    -9.65842E-03
           29924         73.6968         84.5648         41.3162         4.72158
           29925         73.2085         84.0266         41.3407         4.60717
           29926         73.9525         84.9204         41.5629         4.45602
           29927         74.7497         85.8843         41.8270         4.25022
           29928         75.0278         86.1464         41.5700         4.50944
           29929         74.2676         85.2312         41.3677         4.68510
           29930         86.0266         45.2703         99.2070     305.558E-03
           29931         86.0666         46.1438         99.2971     283.190E-03
           29932         85.8185         46.4302         99.0289     297.853E-03
           29933         66.8294         76.2014         41.4097         5.77983
           29934         67.5287         77.1445         41.7124         5.37916
           29935         67.9259         77.6096         41.7743         5.40604
           29936         67.1589         43.4119         76.5328        -5.50419
           29937         67.1391         43.5094         76.5755        -5.24529
           29938         68.1629         43.9792         77.8992        -4.81875
           29939         82.2199         93.6834         36.0337         4.50462
           29940         57.4937         54.8887         54.4118        -10.3071
           29941         57.3557         55.1380         53.4246        -10.6618
           29942         56.8915         54.8538         51.4458        -11.5907
           29943         57.0166         55.8678         50.4258        -11.6060
           29944         57.1400         57.3123         48.0750        -11.8935
           29945         57.2902         57.3682         48.8739        -11.6363
           29946         59.3501         62.8012         46.3426        -10.6643
           29947         59.9285         64.0080         46.2685        -10.2499
           29948         59.4839         63.1290         45.7225        -10.7848
           29949         55.1762         52.3564         49.8692        -11.9339
           29950         55.3352         53.2195         49.4282        -11.7908
           29951         55.1411         52.9069         48.9627        -12.0349
           29952         55.6731         55.8093         46.5191        -11.7897
           29953         88.2758         36.5754         100.633        -1.69431
           29954         57.5959         61.4246         48.8447         7.27472
           29955         56.9934         59.7456         50.0750         7.37027
           29956         58.0636         63.6120         38.9953        -9.74375
           29957         60.3258         67.1119         39.3836        -8.70327
           29958         60.9812         68.1785         39.4406        -8.24309
           29959         60.3538         39.2566         67.1811         8.66997
           29960         60.6120         39.1925         67.6975         8.32750
           29961         70.7429         80.7849         40.1878        -6.05162
           29962         70.8832         80.8638         40.2513        -6.32941
           29963         70.3213         80.1030         40.1994        -6.65082
           29964         65.0328         42.6069         73.6625         6.48815
           29965         62.9964         40.0000         71.1980         7.00721
           29966         64.8367         40.8633         73.2849         7.25669
           29967         63.8093         40.5548         71.8856         7.63126
           29968         63.5715         40.6633         71.4399         7.94045
           29969         86.6785         44.7944         99.9083    -302.389E-03
           29970         98.8653         111.267         33.8131        -2.07906
           29971         76.7627         88.5053         40.3461     886.854E-03
           29972         55.5491         49.1582         54.0129        -11.6471
           29973         55.3706         49.4904         53.2283        -11.7988
           29974         67.3859         76.2421         39.5714        -7.72687
           29975         66.6335         75.2338         39.4219        -7.99324
           29976         67.2159         75.9262         39.8714        -7.97376
           29977         61.8232         39.8850         69.1570         8.30523
           29978         61.2842         39.5609         68.5076         8.31898
           29979         60.8477         39.5410         67.7915         8.63722
           29980         61.3826         39.8632         68.4392         8.62233
           29981         62.7718         40.7012         70.1899         8.44382
           29982         62.2086         42.2075         69.3782         8.23380
           29983         61.8119         41.9003         68.9018         8.25877
           29984         62.5119         43.0689         69.5047         8.47355
           29985         62.0255         69.5725         39.8705        -7.98044
           29986         61.9849         69.3526         40.1230        -8.26902
           29987         62.7150         70.3871         40.3221        -7.98148
           29988         62.7199         70.2795         40.5806        -8.16030
           29989         81.0674         93.2813         39.8795    -232.247E-03
           29990         89.2282         35.2539         101.385        -2.16551
           29991         89.6253         34.8914         101.751        -2.01904
           29992         90.0744         34.0820         102.142    -93.9868E-03
           29993         83.7681         38.5311         95.9560         2.71947
           29994         84.8420         36.2209         96.8936         1.57107
           29995         58.2231         62.7500         47.6765         7.55029
           29996         56.5119         58.3724         45.0508        -11.3491
           29997         64.0532         72.6712         47.2297        -2.78731
           29998         63.0657         71.0449         47.8893        -3.59657
           29999         75.9949         45.4511         87.5850         2.52467
           30000         34.7797         27.7154         33.0079         9.43031
           30001         86.1497         35.5958         98.1981         1.55902
           30002         86.6308         35.6146         98.7326         1.24969
           30003         57.2973         55.5513         52.4556        -10.9456
           30004         57.2716         56.1065         51.4248        -11.1483
           30005         79.2170         91.0289         38.2927        -1.68221
           30006         59.0378         62.2532         45.5545        -11.1160
           30007         56.8149         59.2957         50.7819         6.93548
           30008         59.2326         63.5156         53.5007        -1.83221
           30009         62.7282         42.5541         70.0246         8.17250
           30010         60.7260         40.7038         67.0046         9.46178
           30011         60.6510         66.3780         49.8505        -5.66903
           30012         60.1237         46.7864         67.4336         3.34558
           30013         60.1288         46.3705         66.8674         5.61791
           30014         61.0550         66.6756         47.9463        -7.74753
           30015         58.7669         48.1449         64.9962         3.66738
           30016         59.4053         47.4663         66.1793         3.53693
           30017         58.2384         48.7853         63.9414         3.76856
           30018         89.3153         35.0220         101.406        -2.51229
           30019         58.0343         61.5797         41.0641         11.8092
           30020         84.8215         41.7634         97.6029     374.899E-03
           30021         84.7533         42.4517         97.5867     418.734E-03
           30022         81.6270         38.8313         93.4834         3.91758
           30023         60.3981         66.9510         39.8683        -9.04120
           30024         60.8928         67.7956         39.7908        -8.67990
           30025         60.5869         39.5841         67.3230         8.87694
           30026         61.0738         39.2526         68.4637         7.94432
           30027         61.5189         39.3493         69.2275         7.47902
           30028         61.9393         41.7086         69.2383         7.97404
           30029         62.2752         41.5952         69.8885         7.54240
           30030         62.3101         41.4045         70.1563         7.09685
           30031         66.1660         74.8840         38.8095        -7.53555
           30032         94.6888         107.190         35.5134         2.68730
           30033         93.9690         106.517         35.8900         2.52127
           30034         93.5229         106.030         35.9139         2.72953
           30035         52.9116         36.5389         56.3529         10.7699
           30036         73.5594         41.5921         84.6877         3.23592
           30037         44.1416         41.8032         35.1421         12.0423
           30038         78.9619         42.3951         91.1028    -279.684E-03
           30039         87.0477         35.6837         99.2011     997.669E-03
           30040         86.0716         36.1415         98.2266         1.11154
           30041         59.0881         62.1783         51.4117        -7.71990
           30042         65.8644         75.1772         45.7250        -3.32704
           30043         65.4324         74.6566         46.1799        -2.75936
           30044         60.2331         66.4532         40.4223        -9.38471
           30045         60.3759         42.3547         66.3368         9.31734
           30046         89.9588         34.6430         102.103        -1.23972
           30047         90.0714         34.5200         102.169        -1.79240
           30048         89.9127         34.5727         101.968        -2.36652
           30049         49.2539         40.7012         45.9279        -13.2830
           30050         86.7595         44.3579         99.9684    -318.862E-03
           30051         73.3519         84.6199         40.1142         1.32729
           30052         84.6762         43.2104         97.5595     462.127E-03
           30053         58.6117         46.7377         61.6939         10.4597
           30054         59.1523         46.2454         62.9360         10.1640
           30055         58.6695         46.2226         61.9517         10.5062
           30056         86.1795         98.4188         37.9161         3.39958
           30057         60.5851         65.6474         48.0741        -8.28238
           30058         85.5059         36.1457         97.6099         1.32034
           30059         55.6011         53.8629         49.9433        -11.3436
           30060         55.3748         52.5313         50.5295        -11.6616
           30061         57.1863         56.7826         49.5529        -11.6084
           30062         56.9194         56.4965         48.6658        -11.9590
           30063         61.0872         66.3524         43.1665        -10.4859
           30064         60.7936         66.0754         41.5477        -10.7854
           30065         57.7543         44.9472         60.5908         11.0672
           30066         48.7567         34.9766         50.2271         11.3706
           30067         76.6535         88.0233         41.2323         4.35766
           30068         78.0828         89.7717         41.7767         3.78763
           30069         71.8808         43.9618         82.5948        -3.80066
           30070         70.0547         42.2285         80.1832        -5.19919
           30071         70.7327         42.2802         81.0472        -4.95112
           30072         70.0338         42.1006         80.1488        -5.25178
           30073         83.5641         96.1599         41.1585    -45.7316E-03
           30074         49.9893         37.6896         51.1646         11.3868
           30075         69.7923         80.4802         41.6393         1.93384
           30076         69.3367         79.8887         41.7844         2.41776
           30077         59.6401         46.7969         65.9803         5.81008
           30078         55.5023         54.2178         48.7437        -11.6586
           30079         67.4013         76.5446         39.1056        -7.02243
           30080         66.4001         75.0135         39.1210        -7.87618
           30081         67.6253         76.6745         39.3992        -7.36692
           30082         64.9318         73.7962         46.1934        -3.88696
           30083         77.4944         89.0458         41.1297         3.95790
           30084         78.2505         89.9460         41.1960         3.70382
           30085         78.3090         90.0229         41.1010         3.60155
           30086         76.6466         88.0158         41.1438         4.33616
           30087         69.4572         43.9681         79.3780        -5.17478
           30088         85.1417         98.0371         42.6432     9.11253E-03
           30089         67.2392         76.8367         41.7565         5.22985
           30090         66.4011         75.7106         41.3003         5.72039
           30091         72.7735         83.5626         41.3844         4.42712
           30092         31.1889         33.9239         19.2318         5.90118
           30093         88.0355         35.2792         99.8143         4.62279
           30094         71.4388         43.5864         82.3954         1.41959
           30095         70.5617         44.0119         81.2936         1.92678
           30096         62.5105         70.0604         48.2008        -4.19347
           30097         89.7225         101.673         36.4010         5.43888
           30098         90.8062         102.867         36.0966         4.97813
           30099         89.7511         101.818         36.4716         4.88502
           30100         75.0198         86.2716         42.2356         3.87559
           30101         68.8880         79.3864         41.9384         2.14984
           30102         57.2808         56.5360         50.6332        -11.3085
           30103         57.6152         57.6066         50.5066        -10.9482
           30104         62.7877         40.5054         70.3154         8.27658
           30105         62.5092         40.2337         70.0150         8.23635
           30106         61.6879         40.1393         68.7710         8.66420
           30107         68.0606         77.0795         39.9376        -7.62351
           30108         61.6791         69.2308         39.5698        -7.85478
           30109         62.7056         42.1084         70.2150         7.86081
           30110         63.2285         42.4590         70.8627         7.79562
           30111         69.1330         78.5362         40.0078        -7.13833
           30112         58.5359         60.5750         48.9289        -10.4396
           30113         58.9860         61.7514         50.6939        -8.69227
           30114         58.7627         61.1152         51.5593        -8.38018
           30115         59.3222         62.8147         50.5466        -8.03209
           30116         58.3303         59.4724         52.5967        -8.70045
           30117         58.1038         58.4772         52.7699        -9.26718
           30118         87.3360         35.7919         99.5362     738.595E-03
           30119         58.9848         62.0304         46.1793        -11.0065
           30120         84.5518         41.0454         97.2374     333.255E-03
           30121         55.2492         50.5072         52.0517        -11.8478
           30122         55.4789         50.4251         52.9512        -11.5680
           30123         55.1948         51.5022         50.9184        -11.8844
           30124         64.4881         73.2290         46.7323        -3.39013
           30125         63.6881         71.9579         47.1777        -3.97058
           30126         57.9698         58.7814         50.0562        -10.6770
           30127         57.4633         57.4524         49.7649        -11.3110
           30128         58.8072         61.2088         49.8898        -9.59972
           30129         68.3601         77.5247         39.8277        -7.40292
           30130         50.6605         54.2654         34.4969        -10.0615
           30131         55.6032         60.2924         35.7215        -10.5555
           30132         59.0087         61.8294         48.9414        -9.83046
           30133         58.3528         59.9569         49.8819        -10.2108
           30134         55.1999         53.4805         48.3879        -12.0178
           30135         54.9079         52.7816         48.1109        -12.2976
           30136         67.4214         74.9205         45.4833         9.51258
           30137         69.9538         45.4395         80.2294         3.54116
           30138         86.3734         48.6554         99.7251    -171.513E-03
           30139         64.1073         61.3988         51.8212         16.6959
           30140         62.3890         60.8793         53.3355         14.0054
           30141         43.2539         31.6640         44.7639         9.69333
           30142         44.4213         32.9443         45.5886         10.1897
           30143         94.4422         108.635         46.0622    -168.405E-03
           30144         25.7793         24.2204         22.1353        -6.43172
           30145         25.2612         23.7520         21.7686         6.24893
           30146         83.1080         95.9615         48.1619     386.562E-03
           30147         86.1231         35.8830         96.9141        -8.46198
           30148         88.1536         32.8918         99.4157        -5.02242
           30149         56.4801         51.8288         60.0722        -1.69059
           30150         79.1240         91.0631         42.5169         3.27373
           30151         44.5854         32.4716         46.3894        -9.79476
           30152         80.6718         46.5539         93.1312    -976.944E-03
           30153         76.0665         44.3592         87.6562         2.77626
           30154         77.6955         89.6328         44.6311        -1.91780
           30155         60.7915         40.3800         68.8871        -5.81067
           30156         59.4087         39.5840         67.0900        -6.24816
           30157         84.5962         36.6012         95.3431        -8.48977
           30158         77.5708         89.4885         45.0810        -1.91227
           30159         80.8141         47.2111         93.2950    -938.174E-03
           30160         77.5195         44.6765         89.3929         2.30569
           30161         83.9929         94.7486         34.6171        -7.28182
           30162         29.8424         26.4492         26.2315        -8.09765
           30163         50.0523         54.1690         33.5239        -9.36411
           30164         77.4375         43.6081         89.3605         1.46685
           30165         58.4133         59.8892         56.7915     662.264E-03
           30166         59.6695         42.4541         65.1189         9.69852
           30167         46.0802         34.1189         47.4367        -10.4489
           30168         76.9821         44.3178         88.7499         2.50535
           30169         35.6971         33.1343         29.4535        -9.74360
           30170         82.4768         43.8598         95.1391     157.110E-03
           30171         56.0989         53.0646         58.6712    -874.881E-03
           30172         56.0895         53.2060         58.4199         1.87581
           30173         83.3217         37.2198         94.0575        -8.39003
           30174         85.5629         36.4289         97.1526        -5.61229
           30175         89.2434         100.718         36.3551        -7.30675
           30176         82.9688         95.7453         45.0844     474.572E-03
           30177         72.3877         44.8126         83.1391         3.88931
           30178         92.0102         32.8459         103.910    -962.599E-03
           30179         61.3268         68.5152         39.7360        -8.37086
           30180         32.1014         28.9080         27.8976        -8.62197
           30181         33.9823         30.9905         28.8541        -9.23818
           30182         83.2612         94.1401         35.0198        -6.84206
           30183         34.9106         32.7518         28.4579         9.45631
           30184         59.4320         56.6014         59.8763         6.64203
           30185         83.3272         96.1821         45.9241     398.167E-03
           30186         36.3003         28.9796         34.2802         9.93634
           30187         37.4269         29.9287         35.2231         10.3048
           30188         72.9671         44.7845         83.8663         3.69253
           30189         73.0305         44.5837         83.9525         3.68063
           30190         62.9625         40.2623         70.7354         7.90986
           30191         57.6638         63.0936         49.9195    -806.763E-03
           30192         58.8706         63.9917         38.4402         10.8478
           30193         47.3775         35.4700         48.4738        -10.8959
           30194         82.6634         42.8937         95.2932    -114.909E-03
           30195         82.4650         42.3354         95.0328    -264.504E-03
           30196         57.4380         62.5049         50.2163         1.76531
           30197         58.3817         48.6460         64.7228    -695.196E-03
           30198         59.6530         47.2990         67.0117    -321.776E-03
           30199         49.6879         34.8622         52.0569        -10.9302
           30200         58.0456         63.8720         49.3413         1.48548
           30201         60.6142         52.4534         65.5434        -4.64633
           30202         41.4929         34.1499         38.8270        -11.1631
           30203         43.0380         34.6982         40.1347         11.9737
           30204         60.7933         39.8087         67.5202         8.94421
           30205         83.6060         96.1508         40.5785     79.9522E-03
           30206         44.8891         42.8641         35.3692         12.1490
           30207         60.6020         44.5728         66.0083         9.50350
           30208         78.0991         46.4772         90.0959        -1.77695
           30209         79.0019         90.8377         41.2176         3.41773
           30210         67.4129         76.8863         41.7767        -5.76663
           30211         63.1547         71.4096         48.4753     555.824E-03
           30212         58.9303         62.5647         54.3300        -1.39445
           30213         61.0446         51.8990         66.2989         5.10671
           30214         61.0611         52.1731         65.6252         6.41944
           30215         62.1528         70.7986         45.5679    -287.217E-03
           30216         56.8327         51.1660         60.4659        -4.06895
           30217         88.6958         100.656         36.7767         5.31176
           30218         71.5859         43.9099         82.2567        -3.74975
           30219         63.9192         72.5741         47.9200    -163.631E-03
           30220         61.2315         44.9383         67.0493         9.07963
           30221         71.5721         82.2203         41.8966        -4.15581
           30222         86.1396         98.7078         38.7817     529.327E-03
           30223         88.2566         100.288         36.9796         4.92077
           30224         81.5095         93.8813         41.1982    -430.672E-03
           30225         88.5470         36.4087         100.908        -1.46981
           30226         64.6615         73.6667         47.3576    -300.034E-03
           30227         83.0589         40.3703         95.5246    -375.339E-03
           30228         87.5451         100.051         37.5409    -470.096E-03
           30229         57.7832         44.1080         61.0224         10.9731
           30230         86.5572         38.2597         99.0942     25.8775E-03
           30231         59.1008         45.7262         62.9629         10.2753
           30232         57.9580         49.2274         63.4795        -3.21871
           30233         87.4832         38.7325         100.161     364.579E-03
           30234         63.5327         43.0164         71.4361         7.20664
           30235         87.6850         100.159         37.2677     473.600E-03
           30236         93.1656         105.633         35.9153         2.90982
           30237         74.0705         85.4713         40.1013    -406.123E-03
           30238         83.1224         39.8286         95.5414    -211.526E-03
           30239         74.0891         85.4893         40.5438         1.00476
           30240         87.5480         99.9810         37.0922     618.209E-03
           30241         64.1857         73.0386         43.5579        -4.80597
           30242         87.3010         39.0488         100.008     324.854E-03
           30243         87.0651         39.6270         99.8281     300.610E-03
           30244         58.1069         44.3646         61.7357         10.5795
           30245         59.3757         42.1136         64.4192         10.2471
           30246         66.2821         46.4830         75.8417         1.41873
           30247         55.7331         45.1917         56.3586        -12.0351
           30248         55.5978         46.2357         55.5727        -12.0346
           30249         91.2849         104.031         37.5627        -1.54562
           30250         86.6128         99.1184         38.3287         1.56160
           30251         91.6606         104.460         37.6736        -1.39894
           30252         52.4586         50.9214         42.1585         13.2709
           30253         85.8980         98.4400         38.8049     849.417E-03
           30254         86.9861         99.5674         38.4936         1.13623
           30255         86.1113         98.6309         38.6029         1.20411
           30256         68.2516         78.6387         42.1695        -2.01059
           30257         53.0836         51.0162         43.7691         13.3218
           30258         52.8043         50.0448         44.3408         13.3758
           30259         73.6186         43.0997         84.9811    -997.739E-03
           30260         73.6602         42.9319         85.0522    -283.852E-03
           30261         72.9546         43.2112         84.2176    -753.698E-03
           30262         55.9241         56.3252         46.8563        -11.5276
           30263         63.6863         71.9683         43.1701        -6.31751
           30264         63.5424         70.4625         42.8420        -9.23737
           30265         56.3232         56.2627         46.2399        -12.5203
           30266         57.1195         51.5174         55.7721        -11.1251


  Minimum                1.53738    -226.487E-03    -241.214E-03        -28.9821
         At Node              48             144              96            2217

  Maximum                109.098         122.727         111.661         29.0274
         At Node             218             218            2256            2244

           Total     2.05203E+06     1.78727E+06     1.70781E+06         12.5869


